*HEADING
Wing shell from CFD pressure
*NODE
1,0.0705259964,-0.000146785998,-0.362361014
2,0.0705344975,-0.000321711996,0.362361014
3,0.0751926005,0.000103703002,-0.341966987
4,0.075202398,-8.3005099e-05,0.341966987
5,0.0753670037,0.000113064998,-0.3125
6,0.0753670037,0.000113064998,-0.28125
7,0.0753670037,0.000113064998,-0.25
8,0.0753670037,0.000113064998,-0.21875
9,0.0753727034,1.09622e-05,-4.8855e-07
10,0.0753768012,-7.4084201e-05,-0.1875
11,0.0753768012,-7.4084201e-05,-0.15625
12,0.0753768012,-7.4084201e-05,-0.125
13,0.0753768012,-7.4084201e-05,-0.09375
14,0.0753768012,-7.4084201e-05,-0.0625
15,0.0753768012,-7.4084201e-05,-0.03125
16,0.0753768012,-7.4084201e-05,0.03125
17,0.0753768012,-7.4084201e-05,0.0625
18,0.0753768012,-7.4084201e-05,0.09375
19,0.0753768012,-7.4084201e-05,0.125
20,0.0753768012,-7.4084201e-05,0.15625
21,0.0753768012,-7.4084201e-05,0.1875
22,0.0753768012,-7.4084201e-05,0.21875
23,0.0753768012,-7.4084201e-05,0.25
24,0.0753768012,-7.4084201e-05,0.28125
25,0.0753768012,-7.4084201e-05,0.3125
26,0.102954999,0.00159391004,-0.359369993
27,0.102972001,0.00133710995,0.359369993
28,0.103283003,0.0167602003,-0.341601998
29,0.103283003,0.0167602003,0.341601998
30,0.103336997,-0.0138211995,-0.341733009
31,0.103336997,-0.0138211995,0.341733009
32,0.103344999,0.0193687007,-0.28125
33,0.103344999,0.0193687007,-0.25
34,0.103344999,0.0193687007,-0.21875
35,0.103344999,0.0193687007,-0.1875
36,0.103344999,0.0193687007,-0.15625
37,0.103344999,0.0193687007,-0.125
38,0.103344999,0.0193687007,-0.09375
39,0.103344999,0.0193687007,-0.0625
40,0.103344999,0.0193687007,-0.03125
41,0.103344999,0.0193687007,-0
42,0.103344999,0.0193687007,0.03125
43,0.103344999,0.0193687007,0.0625
44,0.103344999,0.0193687007,0.09375
45,0.103344999,0.0193687007,0.125
46,0.103344999,0.0193687007,0.15625
47,0.103344999,0.0193687007,0.1875
48,0.103344999,0.0193687007,0.21875
49,0.103344999,0.0193687007,0.25
50,0.103344999,0.0193687007,0.28125
51,0.103347003,-0.0164330006,-0.3125
52,0.103347003,-0.0164330006,-0.28125
53,0.103347003,-0.0164330006,-0.25
54,0.103347003,-0.0164330006,-0.21875
55,0.103347003,-0.0164330006,-0.1875
56,0.103347003,-0.0164330006,-0.15625
57,0.103347003,-0.0164330006,-0.125
58,0.103347003,-0.0164330006,-0.09375
59,0.103347003,-0.0164330006,-0.0625
60,0.103347003,-0.0164330006,-0.03125
61,0.103347003,-0.0164330006,-1e-12
62,0.103347003,-0.0164330006,0.03125
63,0.103347003,-0.0164330006,0.0625
64,0.103347003,-0.0164330006,0.09375
65,0.103347003,-0.0164330006,0.125
66,0.103347003,-0.0164330006,0.15625
67,0.103347003,-0.0164330006,0.1875
68,0.103347003,-0.0164330006,0.21875
69,0.103347003,-0.0164330006,0.25
70,0.103347003,-0.0164330006,0.28125
71,0.103347003,-0.0164330006,0.3125
72,0.103474997,0.0154716,-0.312584996
73,0.103474997,0.0154716,0.312584996
74,0.148913994,-0.0121437004,-0.3125
75,0.148913994,-0.0121437004,-0.28125
76,0.148913994,-0.0121437004,-0.25
77,0.148913994,-0.0121437004,-0.21875
78,0.148913994,-0.0121437004,-0.1875
79,0.148913994,-0.0121437004,-0.15625
80,0.148913994,-0.0121437004,-0.125
81,0.148913994,-0.0121437004,-0.09375
82,0.148913994,-0.0121437004,-0.0625
83,0.148913994,-0.0121437004,-0.03125
84,0.148913994,-0.0121437004,0
85,0.148913994,-0.0121437004,0.03125
86,0.148913994,-0.0121437004,0.0625
87,0.148913994,-0.0121437004,0.09375
88,0.148913994,-0.0121437004,0.125
89,0.148913994,-0.0121437004,0.15625
90,0.148913994,-0.0121437004,0.1875
91,0.148913994,-0.0121437004,0.21875
92,0.148913994,-0.0121437004,0.25
93,0.148913994,-0.0121437004,0.28125
94,0.148913994,-0.0121437004,0.3125
95,0.149390996,-0.0120889004,-0.341618001
96,0.149390996,-0.0120889004,0.341618001
97,0.149780005,0.00410730997,-0.359142005
98,0.149809003,0.00373228989,0.359142005
99,0.149978995,0.0197749007,-0.3125
100,0.149978995,0.0197749007,-0.28125
101,0.149978995,0.0197749007,-0.25
102,0.149978995,0.0197749007,-0.21875
103,0.149978995,0.0197749007,-0.1875
104,0.149978995,0.0197749007,-0.15625
105,0.149978995,0.0197749007,-0.125
106,0.149978995,0.0197749007,-0.09375
107,0.149978995,0.0197749007,-0.0625
108,0.149978995,0.0197749007,-0.03125
109,0.149978995,0.0197749007,0
110,0.149978995,0.0197749007,0.03125
111,0.149978995,0.0197749007,0.0625
112,0.149978995,0.0197749007,0.09375
113,0.149978995,0.0197749007,0.125
114,0.149978995,0.0197749007,0.15625
115,0.149978995,0.0197749007,0.1875
116,0.149978995,0.0197749007,0.21875
117,0.149978995,0.0197749007,0.25
118,0.149978995,0.0197749007,0.28125
119,0.149978995,0.0197749007,0.3125
120,0.150001004,0.0174844004,-0.341614008
121,0.150001004,0.0174844004,0.341614008
122,0.194991007,-0.00617056014,-0.3125
123,0.194991007,-0.00617056014,-0.28125
124,0.194991007,-0.00617056014,-0.25
125,0.194991007,-0.00617056014,-0.21875
126,0.194991007,-0.00617056014,-0.1875
127,0.194991007,-0.00617056014,-0.15625
128,0.194991007,-0.00617056014,-0.125
129,0.194991007,-0.00617056014,-0.09375
130,0.194991007,-0.00617056014,-0.0625
131,0.194991007,-0.00617056014,-0.03125
132,0.194991007,-0.00617056014,1e-12
133,0.194991007,-0.00617056014,0.03125
134,0.194991007,-0.00617056014,0.0625
135,0.194991007,-0.00617056014,0.09375
136,0.194991007,-0.00617056014,0.125
137,0.194991007,-0.00617056014,0.15625
138,0.194991007,-0.00617056014,0.1875
139,0.194991007,-0.00617056014,0.21875
140,0.194991007,-0.00617056014,0.25
141,0.194991007,-0.00617056014,0.28125
142,0.194991007,-0.00617056014,0.3125
143,0.195472002,-0.0061019198,-0.341713995
144,0.195472002,-0.0061019198,0.341713995
145,0.196633995,0.0185675994,-0.3125
146,0.196633995,0.0185675994,-0.28125
147,0.196633995,0.0185675994,-0.25
148,0.196633995,0.0185675994,-0.21875
149,0.196633995,0.0185675994,-0.1875
150,0.196633995,0.0185675994,-0.15625
151,0.196633995,0.0185675994,-0.125
152,0.196633995,0.0185675994,-0.09375
153,0.196633995,0.0185675994,-0.0625
154,0.196633995,0.0185675994,-0.03125
155,0.196633995,0.0185675994,0
156,0.196633995,0.0185675994,0.03125
157,0.196633995,0.0185675994,0.0625
158,0.196633995,0.0185675994,0.09375
159,0.196633995,0.0185675994,0.125
160,0.196633995,0.0185675994,0.15625
161,0.196633995,0.0185675994,0.1875
162,0.196633995,0.0185675994,0.21875
163,0.196633995,0.0185675994,0.25
164,0.196633995,0.0185675994,0.28125
165,0.196633995,0.0185675994,0.3125
166,0.196730003,0.0167941004,-0.341636986
167,0.196730003,0.0167941004,0.341636986
168,0.197610006,-0.0045231902,-0.359228998
169,0.197610006,-0.0045231902,0.359228998
170,0.224445,0.00116044004,-0.281278014
171,0.224445,0.00116044004,0.281278014
172,0.224562004,0.000413138012,-0.312510014
173,0.224562004,0.000413138012,0.312510014
174,0.224842995,-0.000264778006,-0.341960996
175,0.224842995,-0.000264778006,0.341960996
176,0.224889994,-0.00168027997,-0.25
177,0.224889994,-0.00168027997,-0.21875
178,0.224889994,-0.00168027997,-0.1875
179,0.224889994,-0.00168027997,-0.15625
180,0.224889994,-0.00168027997,-0.125
181,0.224889994,-0.00168027997,-0.09375
182,0.224889994,-0.00168027997,-0.0625
183,0.224889994,-0.00168027997,-0.03125
184,0.224889994,-0.00168027997,-0
185,0.224889994,-0.00168027997,0.03125
186,0.224889994,-0.00168027997,0.0625
187,0.224889994,-0.00168027997,0.09375
188,0.224889994,-0.00168027997,0.125
189,0.224889994,-0.00168027997,0.15625
190,0.224889994,-0.00168027997,0.1875
191,0.224889994,-0.00168027997,0.21875
192,0.224889994,-0.00168027997,0.25
193,0.229494005,-7.8077501e-05,-0.362358987
194,0.229494005,-7.8077501e-05,0.362358987
*ELEMENT, TYPE=S3, ELSET=ALL_SHELL
1,174,166,168
2,168,193,174
3,147,176,177
4,177,148,147
5,151,180,181
6,181,152,151
7,155,184,185
8,185,156,155
9,159,188,189
10,189,160,159
11,171,164,163
12,163,192,171
13,143,168,97
14,97,95,143
15,124,123,75
16,75,76,124
17,124,76,77
18,77,125,124
19,128,127,79
20,79,80,128
21,128,80,81
22,81,129,128
23,84,132,131
24,131,83,84
25,132,84,85
26,85,133,132
27,136,135,87
28,87,88,136
29,136,88,89
30,89,137,136
31,140,139,91
32,91,92,140
33,140,92,93
34,93,141,140
35,144,96,98
36,98,169,144
37,123,124,176
38,176,170,123
39,3,1,26
40,26,28,3
41,72,5,3
42,3,28,72
43,128,180,179
44,179,127,128
45,33,34,8
46,8,7,33
47,8,34,35
48,35,10,8
49,184,183,131
50,131,132,184
51,37,38,13
52,13,12,37
53,39,14,13
54,13,38,39
55,136,188,187
56,187,135,136
57,9,41,42
58,42,16,9
59,43,17,16
60,16,42,43
61,140,192,191
62,191,139,140
63,45,46,20
64,20,19,45
65,47,21,20
66,20,46,47
67,175,144,169
68,169,194,175
69,49,50,24
70,24,23,49
71,73,25,24
72,24,50,73
73,95,97,26
74,26,30,95
75,95,74,122
76,122,143,95
77,74,95,30
78,30,51,74
79,53,52,6
80,6,7,53
81,51,5,6
82,6,52,51
83,122,74,75
84,75,123,122
85,53,76,75
86,75,52,53
87,51,52,75
88,75,74,51
89,53,54,77
90,77,76,53
91,126,125,77
92,77,78,126
93,55,78,77
94,77,54,55
95,57,56,11
96,11,12,57
97,55,10,11
98,11,56,55
99,126,78,79
100,79,127,126
101,57,80,79
102,79,56,57
103,55,56,79
104,79,78,55
105,57,58,81
106,81,80,57
107,130,129,81
108,81,82,130
109,59,82,81
110,81,58,59
111,15,9,61
112,61,60,15
113,59,14,15
114,15,60,59
115,130,82,83
116,83,131,130
117,61,84,83
118,83,60,61
119,59,60,83
120,83,82,59
121,84,61,62
122,62,85,84
123,134,133,85
124,85,86,134
125,63,86,85
126,85,62,63
127,65,64,18
128,18,19,65
129,63,17,18
130,18,64,63
131,134,86,87
132,87,135,134
133,65,88,87
134,87,64,65
135,63,64,87
136,87,86,63
137,65,66,89
138,89,88,65
139,138,137,89
140,89,90,138
141,67,90,89
142,89,66,67
143,69,68,22
144,22,23,69
145,67,21,22
146,22,68,67
147,138,90,91
148,91,139,138
149,69,92,91
150,91,68,69
151,67,68,91
152,91,90,67
153,69,70,93
154,93,92,69
155,142,141,93
156,93,94,142
157,71,94,93
158,93,70,71
159,4,2,27
160,27,31,4
161,31,71,25
162,25,4,31
163,96,144,142
164,142,94,96
165,96,31,27
166,27,98,96
167,94,71,31
168,31,96,94
169,166,174,172
170,172,145,166
171,149,148,177
172,177,178,149
173,153,152,181
174,181,182,153
175,157,156,185
176,185,186,157
177,161,160,189
178,189,190,161
179,171,173,165
180,165,164,171
181,172,122,123
182,123,170,172
183,126,127,179
184,179,178,126
185,130,131,183
186,183,182,130
187,134,135,187
188,187,186,134
189,138,139,191
190,191,190,138
191,144,175,173
192,173,142,144
193,174,193,168
194,168,143,174
195,124,125,177
196,177,176,124
197,128,129,181
198,181,180,128
199,132,133,185
200,185,184,132
201,136,137,189
202,189,188,136
203,141,171,192
204,192,140,141
205,97,168,166
206,166,120,97
207,147,101,100
208,100,146,147
209,147,148,102
210,102,101,147
211,151,105,104
212,104,150,151
213,151,152,106
214,106,105,151
215,109,108,154
216,154,155,109
217,155,156,110
218,110,109,155
219,159,113,112
220,112,158,159
221,159,160,114
222,114,113,159
223,163,117,116
224,116,162,163
225,163,164,118
226,118,117,163
227,98,121,167
228,167,169,98
229,170,176,147
230,147,146,170
231,3,30,26
232,26,1,3
233,30,3,5
234,5,51,30
235,151,150,179
236,179,180,151
237,53,7,8
238,8,54,53
239,10,55,54
240,54,8,10
241,184,155,154
242,154,183,184
243,57,12,13
244,13,58,57
245,59,58,13
246,13,14,59
247,159,158,187
248,187,188,159
249,16,62,61
250,61,9,16
251,63,62,16
252,16,17,63
253,163,162,191
254,191,192,163
255,65,19,20
256,20,66,65
257,67,66,20
258,20,21,67
259,175,194,169
260,169,167,175
261,69,23,24
262,24,70,69
263,71,70,24
264,24,25,71
265,97,120,28
266,28,26,97
267,145,99,120
268,120,166,145
269,72,28,120
270,120,99,72
271,33,7,6
272,6,32,33
273,72,32,6
274,6,5,72
275,145,146,100
276,100,99,145
277,33,32,100
278,100,101,33
279,99,100,32
280,32,72,99
281,33,101,102
282,102,34,33
283,149,103,102
284,102,148,149
285,35,34,102
286,102,103,35
287,37,12,11
288,11,36,37
289,35,36,11
290,11,10,35
291,149,150,104
292,104,103,149
293,37,36,104
294,104,105,37
295,35,103,104
296,104,36,35
297,37,105,106
298,106,38,37
299,153,107,106
300,106,152,153
301,39,38,106
302,106,107,39
303,9,15,40
304,40,41,9
305,39,40,15
306,15,14,39
307,153,154,108
308,108,107,153
309,41,40,108
310,108,109,41
311,39,107,108
312,108,40,39
313,109,110,42
314,42,41,109
315,157,111,110
316,110,156,157
317,43,42,110
318,110,111,43
319,45,19,18
320,18,44,45
321,43,44,18
322,18,17,43
323,157,158,112
324,112,111,157
325,45,44,112
326,112,113,45
327,43,111,112
328,112,44,43
329,45,113,114
330,114,46,45
331,161,115,114
332,114,160,161
333,47,46,114
334,114,115,47
335,49,23,22
336,22,48,49
337,47,48,22
338,22,21,47
339,161,162,116
340,116,115,161
341,49,48,116
342,116,117,49
343,47,115,116
344,116,48,47
345,49,117,118
346,118,50,49
347,165,119,118
348,118,164,165
349,119,73,50
350,50,118,119
351,4,29,27
352,27,2,4
353,73,29,4
354,4,25,73
355,165,167,121
356,121,119,165
357,98,27,29
358,29,121,98
359,73,119,121
360,121,29,73
361,143,122,172
362,172,174,143
363,126,178,177
364,177,125,126
365,130,182,181
366,181,129,130
367,134,186,185
368,185,133,134
369,138,190,189
370,189,137,138
371,173,171,141
372,141,142,173
373,170,146,145
374,145,172,170
375,149,178,179
376,179,150,149
377,153,182,183
378,183,154,153
379,157,186,187
380,187,158,157
381,161,190,191
382,191,162,161
383,167,165,173
384,173,175,167
*MATERIAL, NAME=CFRP
*ELASTIC
7e+10,0.3
*DENSITY
1600
*SHELL SECTION, ELSET=ALL_SHELL, MATERIAL=CFRP
0.0025
*NSET, NSET=MOUNT
1,2
*STEP
*STATIC
*NODE PRINT, NSET=ALL
U
*EL PRINT, ELSET=ALL_SHELL
S
*NODE FILE
U
*EL FILE, ELSET=ALL_SHELL
S
*DLOAD
1,P,397.463013
2,P,397.463013
3,P,1050.39001
4,P,1050.39001
5,P,1111.29004
6,P,1111.29004
7,P,1120.48999
8,P,1120.48999
9,P,1104.32996
10,P,1104.32996
11,P,997.630005
12,P,997.630005
13,P,297.34201
14,P,297.34201
15,P,729.705994
16,P,729.705994
17,P,757.40802
18,P,757.40802
19,P,787.377991
20,P,787.377991
21,P,791.291992
22,P,791.291992
23,P,796.48999
24,P,796.48999
25,P,796.515991
26,P,796.515991
27,P,791.356995
28,P,791.356995
29,P,787.359985
30,P,787.359985
31,P,755.221985
32,P,755.221985
33,P,727.317993
34,P,727.317993
35,P,299.080994
36,P,299.080994
37,P,215.102005
38,P,215.102005
39,P,-238.576004
40,P,-238.576004
41,P,-536.031006
42,P,-536.031006
43,P,198.020996
44,P,198.020996
45,P,-744.296997
46,P,-744.296997
47,P,-752.135986
48,P,-752.135986
49,P,205.686996
50,P,205.686996
51,P,-754.903015
52,P,-754.903015
53,P,-754.375977
54,P,-754.375977
55,P,200.983994
56,P,200.983994
57,P,-752.288025
58,P,-752.288025
59,P,-753.60498
60,P,-753.60498
61,P,191.520996
62,P,191.520996
63,P,-756.375
64,P,-756.375
65,P,-756.632019
66,P,-756.632019
67,P,189.472
68,P,189.472
69,P,-735.143005
70,P,-735.143005
71,P,-662.060974
72,P,-662.060974
73,P,342.808014
74,P,342.808014
75,P,566.5
76,P,566.5
77,P,593.489014
78,P,593.489014
79,P,-564.672974
80,P,-564.672974
81,P,-539.473999
82,P,-539.473999
83,P,681.531982
84,P,681.531982
85,P,849.291016
86,P,849.291016
87,P,785.85199
88,P,785.85199
89,P,875.375
90,P,875.375
91,P,772.607971
92,P,772.607971
93,P,887.768982
94,P,887.768982
95,P,-565.158997
96,P,-565.158997
97,P,-565.955017
98,P,-565.955017
99,P,781.531982
100,P,781.531982
101,P,898.281006
102,P,898.281006
103,P,894.317017
104,P,894.317017
105,P,900.771973
106,P,900.771973
107,P,793.799988
108,P,793.799988
109,P,902.049988
110,P,902.049988
111,P,-564.445984
112,P,-564.445984
113,P,-563.859985
114,P,-563.859985
115,P,795.497986
116,P,795.497986
117,P,903.283997
118,P,903.283997
119,P,902.86499
120,P,902.86499
121,P,903.359009
122,P,903.359009
123,P,795.565002
124,P,795.565002
125,P,903.083984
126,P,903.083984
127,P,-563.906006
128,P,-563.906006
129,P,-563.882996
130,P,-563.882996
131,P,793.900024
132,P,793.900024
133,P,901.36499
134,P,901.36499
135,P,902.440002
136,P,902.440002
137,P,899.169006
138,P,899.169006
139,P,781.156006
140,P,781.156006
141,P,895.195007
142,P,895.195007
143,P,-562.559998
144,P,-562.559998
145,P,-564.380981
146,P,-564.380981
147,P,771.322998
148,P,771.322998
149,P,874.606995
150,P,874.606995
151,P,887.942017
152,P,887.942017
153,P,848.034973
154,P,848.034973
155,P,679.356995
156,P,679.356995
157,P,784.252014
158,P,784.252014
159,P,-143.628006
160,P,-143.628006
161,P,-429.31601
162,P,-429.31601
163,P,565.315002
164,P,565.315002
165,P,341.477997
166,P,341.477997
167,P,591.96698
168,P,591.96698
169,P,810.867004
170,P,810.867004
171,P,1076.96997
172,P,1076.96997
173,P,1116.19995
174,P,1116.19995
175,P,1119.19995
176,P,1119.19995
177,P,1093.47998
178,P,1093.47998
179,P,935.594971
180,P,935.594971
181,P,232.412994
182,P,232.412994
183,P,194.533997
184,P,194.533997
185,P,204.824005
186,P,204.824005
187,P,203.242004
188,P,203.242004
189,P,190.886002
190,P,190.886002
191,P,236.264999
192,P,236.264999
193,P,190.292999
194,P,190.292999
195,P,192.613998
196,P,192.613998
197,P,201.072006
198,P,201.072006
199,P,205.686996
200,P,205.686996
201,P,197.848999
202,P,197.848999
203,P,214.009995
204,P,214.009995
205,P,460.718994
206,P,460.718994
207,P,880.27301
208,P,880.27301
209,P,925.627014
210,P,925.627014
211,P,992.781982
212,P,992.781982
213,P,1001.31
214,P,1001.31
215,P,1010.83002
216,P,1010.83002
217,P,1010.79999
218,P,1010.79999
219,P,1001.23999
220,P,1001.23999
221,P,992.783997
222,P,992.783997
223,P,927.677979
224,P,927.677979
225,P,882.531982
226,P,882.531982
227,P,458.622986
228,P,458.622986
229,P,997.226013
230,P,997.226013
231,P,-145.988007
232,P,-145.988007
233,P,-436.067993
234,P,-436.067993
235,P,1104.21997
236,P,1104.21997
237,P,-569.90802
238,P,-569.90802
239,P,-568.784973
240,P,-568.784973
241,P,1120.47998
242,P,1120.47998
243,P,-564.294983
244,P,-564.294983
245,P,-564.096008
246,P,-564.096008
247,P,1111.35999
248,P,1111.35999
249,P,-564.416992
250,P,-564.416992
251,P,-563.755981
252,P,-563.755981
253,P,1050.81995
254,P,1050.81995
255,P,-564.406982
256,P,-564.406982
257,P,-564.442993
258,P,-564.442993
259,P,398.091003
260,P,398.091003
261,P,-556.642029
262,P,-556.642029
263,P,-531.590027
264,P,-531.590027
265,P,276.006989
266,P,276.006989
267,P,657.676025
268,P,657.676025
269,P,385.388
270,P,385.388
271,P,-727.95697
272,P,-727.95697
273,P,-654.765015
274,P,-654.765015
275,P,810.802002
276,P,810.802002
277,P,611.348022
278,P,611.348022
279,P,498.838013
280,P,498.838013
281,P,652.247986
282,P,652.247986
283,P,958.150024
284,P,958.150024
285,P,671.190979
286,P,671.190979
287,P,-755.719971
288,P,-755.719971
289,P,-755.28302
290,P,-755.28302
291,P,979.630981
292,P,979.630981
293,P,689.557983
294,P,689.557983
295,P,682.859009
296,P,682.859009
297,P,693.921997
298,P,693.921997
299,P,1006.53003
300,P,1006.53003
301,P,696.481018
302,P,696.481018
303,P,-752.262024
304,P,-752.262024
305,P,-753.518982
306,P,-753.518982
307,P,1009.67999
308,P,1009.67999
309,P,698.174011
310,P,698.174011
311,P,697.932983
312,P,697.932983
313,P,698.099976
314,P,698.099976
315,P,1009.60999
316,P,1009.60999
317,P,697.721985
318,P,697.721985
319,P,-755.242004
320,P,-755.242004
321,P,-754.557983
322,P,-754.557983
323,P,1006.42999
324,P,1006.42999
325,P,693.348999
326,P,693.348999
327,P,696.104004
328,P,696.104004
329,P,688.711975
330,P,688.711975
331,P,979.945007
332,P,979.945007
333,P,682
334,P,682
335,P,-750.773987
336,P,-750.773987
337,P,-756
338,P,-756
339,P,959.323975
340,P,959.323975
341,P,653.059021
342,P,653.059021
343,P,671.039978
344,P,671.039978
345,P,612.679993
346,P,612.679993
347,P,812.911011
348,P,812.911011
349,P,500.59201
350,P,500.59201
351,P,-240.567001
352,P,-240.567001
353,P,-542.356995
354,P,-542.356995
355,P,658.752991
356,P,658.752991
357,P,278.207001
358,P,278.207001
359,P,387.115997
360,P,387.115997
361,P,237.431
362,P,237.431
363,P,191.608994
364,P,191.608994
365,P,203.264008
366,P,203.264008
367,P,204.813004
368,P,204.813004
369,P,194.203003
370,P,194.203003
371,P,231.369995
372,P,231.369995
373,P,935.117981
374,P,935.117981
375,P,1093.30005
376,P,1093.30005
377,P,1119.17004
378,P,1119.17004
379,P,1116.23999
380,P,1116.23999
381,P,1077.29004
382,P,1077.29004
383,P,811.666016
384,P,811.666016
*BOUNDARY
MOUNT, 1, 6
*END STEP
