*HEADING
Wing shell from CFD pressure
*NODE
1,0.00354310009,-0.0152596999,-0.395978987
2,0.00354310009,-0.0152596999,0.395978987
3,0.00361588993,-0.0148488004,-0.390341014
4,0.00361588993,-0.0148488004,0.390341014
5,0.00363603002,-0.0147622004,-0.382813007
6,0.00363603002,-0.0147622004,-0.375
7,0.00363603002,-0.0147622004,-0.367188007
8,0.00363603002,-0.0147622004,-0.359375
9,0.00363603002,-0.0147622004,-0.351561993
10,0.00363603002,-0.0147622004,-0.34375
11,0.00363603002,-0.0147622004,-0.335938007
12,0.00363603002,-0.0147622004,-0.328125
13,0.00363603002,-0.0147622004,-0.320311993
14,0.00363603002,-0.0147622004,-0.3125
15,0.00363603002,-0.0147622004,-0.304688007
16,0.00363603002,-0.0147622004,-0.296875
17,0.00363603002,-0.0147622004,-0.289063007
18,0.00363603002,-0.0147622004,-0.28125
19,0.00363603002,-0.0147622004,-0.273438007
20,0.00363603002,-0.0147622004,-0.265625
21,0.00363603002,-0.0147622004,-0.257813007
22,0.00363603002,-0.0147622004,-0.25
23,0.00363603002,-0.0147622004,-0.242186993
24,0.00363603002,-0.0147622004,-0.234375
25,0.00363603002,-0.0147622004,-0.226561993
26,0.00363603002,-0.0147622004,-0.21875
27,0.00363603002,-0.0147622004,-0.210938007
28,0.00363603002,-0.0147622004,-0.203125
29,0.00363603002,-0.0147622004,-0.195313007
30,0.00363603002,-0.0147622004,-0.1875
31,0.00363603002,-0.0147622004,-0.179688007
32,0.00363603002,-0.0147622004,-0.171875
33,0.00363603002,-0.0147622004,-0.164061993
34,0.00363603002,-0.0147622004,-0.15625
35,0.00363603002,-0.0147622004,-0.148438007
36,0.00363603002,-0.0147622004,-0.140625
37,0.00363603002,-0.0147622004,-0.132811993
38,0.00363603002,-0.0147622004,-0.125
39,0.00363603002,-0.0147622004,-0.117187999
40,0.00363603002,-0.0147622004,-0.109375
41,0.00363603002,-0.0147622004,-0.101562001
42,0.00363603002,-0.0147622004,-0.09375
43,0.00363603002,-0.0147622004,-0.0859375
44,0.00363603002,-0.0147622004,-0.078125
45,0.00363603002,-0.0147622004,-0.0703125
46,0.00363603002,-0.0147622004,-0.0625
47,0.00363603002,-0.0147622004,-0.0546875
48,0.00363603002,-0.0147622004,-0.046875
49,0.00363603002,-0.0147622004,-0.0390625
50,0.00363603002,-0.0147622004,-0.03125
51,0.00363603002,-0.0147622004,-0.0234375
52,0.00363603002,-0.0147622004,-0.015625
53,0.00363603002,-0.0147622004,-0.0078125
54,0.00363603002,-0.0147622004,0
55,0.00363603002,-0.0147622004,0.0078125
56,0.00363603002,-0.0147622004,0.015625
57,0.00363603002,-0.0147622004,0.0234375
58,0.00363603002,-0.0147622004,0.03125
59,0.00363603002,-0.0147622004,0.0390625
60,0.00363603002,-0.0147622004,0.046875
61,0.00363603002,-0.0147622004,0.0546875
62,0.00363603002,-0.0147622004,0.0625
63,0.00363603002,-0.0147622004,0.0703125
64,0.00363603002,-0.0147622004,0.078125
65,0.00363603002,-0.0147622004,0.0859375
66,0.00363603002,-0.0147622004,0.09375
67,0.00363603002,-0.0147622004,0.101562001
68,0.00363603002,-0.0147622004,0.109375
69,0.00363603002,-0.0147622004,0.117187999
70,0.00363603002,-0.0147622004,0.125
71,0.00363603002,-0.0147622004,0.132813007
72,0.00363603002,-0.0147622004,0.140625
73,0.00363603002,-0.0147622004,0.148438007
74,0.00363603002,-0.0147622004,0.15625
75,0.00363603002,-0.0147622004,0.164061993
76,0.00363603002,-0.0147622004,0.171875
77,0.00363603002,-0.0147622004,0.179688007
78,0.00363603002,-0.0147622004,0.1875
79,0.00363603002,-0.0147622004,0.195311993
80,0.00363603002,-0.0147622004,0.203125
81,0.00363603002,-0.0147622004,0.210936993
82,0.00363603002,-0.0147622004,0.21875
83,0.00363603002,-0.0147622004,0.226561993
84,0.00363603002,-0.0147622004,0.234375
85,0.00363603002,-0.0147622004,0.242186993
86,0.00363603002,-0.0147622004,0.25
87,0.00363603002,-0.0147622004,0.257813007
88,0.00363603002,-0.0147622004,0.265625
89,0.00363603002,-0.0147622004,0.273438007
90,0.00363603002,-0.0147622004,0.28125
91,0.00363603002,-0.0147622004,0.289061993
92,0.00363603002,-0.0147622004,0.296875
93,0.00363603002,-0.0147622004,0.304688007
94,0.00363603002,-0.0147622004,0.3125
95,0.00363603002,-0.0147622004,0.320313007
96,0.00363603002,-0.0147622004,0.328125
97,0.00363603002,-0.0147622004,0.335936993
98,0.00363603002,-0.0147622004,0.34375
99,0.00363603002,-0.0147622004,0.351563007
100,0.00363603002,-0.0147622004,0.359375
101,0.00363603002,-0.0147622004,0.367188007
102,0.00363603002,-0.0147622004,0.375
103,0.00363603002,-0.0147622004,0.382811993
104,0.00436527003,-0.0213469993,-0.395951986
105,0.00436527003,-0.0213469993,0.395951986
106,0.00444365013,-0.0214307997,-0.390311003
107,0.00444365013,-0.0214307997,0.390311003
108,0.00446964009,-0.0214584991,-0.382813007
109,0.00446964009,-0.0214584991,-0.375
110,0.00446964009,-0.0214584991,-0.367188007
111,0.00446964009,-0.0214584991,-0.359375
112,0.00446964009,-0.0214584991,-0.351561993
113,0.00446964009,-0.0214584991,-0.34375
114,0.00446964009,-0.0214584991,-0.335938007
115,0.00446964009,-0.0214584991,-0.328125
116,0.00446964009,-0.0214584991,-0.320311993
117,0.00446964009,-0.0214584991,-0.3125
118,0.00446964009,-0.0214584991,-0.304688007
119,0.00446964009,-0.0214584991,-0.296875
120,0.00446964009,-0.0214584991,-0.289061993
121,0.00446964009,-0.0214584991,-0.28125
122,0.00446964009,-0.0214584991,-0.273438007
123,0.00446964009,-0.0214584991,-0.265625
124,0.00446964009,-0.0214584991,-0.257811993
125,0.00446964009,-0.0214584991,-0.25
126,0.00446964009,-0.0214584991,-0.242188007
127,0.00446964009,-0.0214584991,-0.234375
128,0.00446964009,-0.0214584991,-0.226563007
129,0.00446964009,-0.0214584991,-0.21875
130,0.00446964009,-0.0214584991,-0.210938007
131,0.00446964009,-0.0214584991,-0.203125
132,0.00446964009,-0.0214584991,-0.195311993
133,0.00446964009,-0.0214584991,-0.1875
134,0.00446964009,-0.0214584991,-0.179688007
135,0.00446964009,-0.0214584991,-0.171875
136,0.00446964009,-0.0214584991,-0.164061993
137,0.00446964009,-0.0214584991,-0.15625
138,0.00446964009,-0.0214584991,-0.148436993
139,0.00446964009,-0.0214584991,-0.140625
140,0.00446964009,-0.0214584991,-0.132811993
141,0.00446964009,-0.0214584991,-0.125
142,0.00446964009,-0.0214584991,-0.117187001
143,0.00446964009,-0.0214584991,-0.109375
144,0.00446964009,-0.0214584991,-0.101562001
145,0.00446964009,-0.0214584991,-0.09375
146,0.00446964009,-0.0214584991,-0.0859375
147,0.00446964009,-0.0214584991,-0.078125
148,0.00446964009,-0.0214584991,-0.0703125
149,0.00446964009,-0.0214584991,-0.0625
150,0.00446964009,-0.0214584991,-0.0546875
151,0.00446964009,-0.0214584991,-0.046875
152,0.00446964009,-0.0214584991,-0.0390625
153,0.00446964009,-0.0214584991,-0.03125
154,0.00446964009,-0.0214584991,-0.0234375
155,0.00446964009,-0.0214584991,-0.015625
156,0.00446964009,-0.0214584991,-0.0078125
157,0.00446964009,-0.0214584991,0
158,0.00446964009,-0.0214584991,0.0078125
159,0.00446964009,-0.0214584991,0.015625
160,0.00446964009,-0.0214584991,0.0234375
161,0.00446964009,-0.0214584991,0.03125
162,0.00446964009,-0.0214584991,0.0390625
163,0.00446964009,-0.0214584991,0.046875
164,0.00446964009,-0.0214584991,0.0546875
165,0.00446964009,-0.0214584991,0.0625
166,0.00446964009,-0.0214584991,0.0703125
167,0.00446964009,-0.0214584991,0.078125
168,0.00446964009,-0.0214584991,0.0859375
169,0.00446964009,-0.0214584991,0.09375
170,0.00446964009,-0.0214584991,0.101562999
171,0.00446964009,-0.0214584991,0.109375
172,0.00446964009,-0.0214584991,0.117187001
173,0.00446964009,-0.0214584991,0.125
174,0.00446964009,-0.0214584991,0.132813007
175,0.00446964009,-0.0214584991,0.140625
176,0.00446964009,-0.0214584991,0.148438007
177,0.00446964009,-0.0214584991,0.15625
178,0.00446964009,-0.0214584991,0.164061993
179,0.00446964009,-0.0214584991,0.171875
180,0.00446964009,-0.0214584991,0.179686993
181,0.00446964009,-0.0214584991,0.1875
182,0.00446964009,-0.0214584991,0.195313007
183,0.00446964009,-0.0214584991,0.203125
184,0.00446964009,-0.0214584991,0.210938007
185,0.00446964009,-0.0214584991,0.21875
186,0.00446964009,-0.0214584991,0.226563007
187,0.00446964009,-0.0214584991,0.234375
188,0.00446964009,-0.0214584991,0.242188007
189,0.00446964009,-0.0214584991,0.25
190,0.00446964009,-0.0214584991,0.257813007
191,0.00446964009,-0.0214584991,0.265625
192,0.00446964009,-0.0214584991,0.273436993
193,0.00446964009,-0.0214584991,0.28125
194,0.00446964009,-0.0214584991,0.289061993
195,0.00446964009,-0.0214584991,0.296875
196,0.00446964009,-0.0214584991,0.304686993
197,0.00446964009,-0.0214584991,0.3125
198,0.00446964009,-0.0214584991,0.320311993
199,0.00446964009,-0.0214584991,0.328125
200,0.00446964009,-0.0214584991,0.335936993
201,0.00446964009,-0.0214584991,0.34375
202,0.00446964009,-0.0214584991,0.351561993
203,0.00446964009,-0.0214584991,0.359375
204,0.00446964009,-0.0214584991,0.367188007
205,0.00446964009,-0.0214584991,0.375
206,0.00446964009,-0.0214584991,0.382813007
207,0.0125722997,-0.0250914004,-0.396311998
208,0.0125722997,-0.0250914004,0.396311998
209,0.0129428003,-0.0252139997,-0.390347004
210,0.0129428003,-0.0252139997,0.390347004
211,0.0129578002,-0.0252163,-0.382811993
212,0.0129578002,-0.0252163,-0.375
213,0.0129578002,-0.0252163,-0.367188007
214,0.0129578002,-0.0252163,-0.359375
215,0.0129578002,-0.0252163,-0.351561993
216,0.0129578002,-0.0252163,-0.34375
217,0.0129578002,-0.0252163,-0.335938007
218,0.0129578002,-0.0252163,-0.328125
219,0.0129578002,-0.0252163,-0.320311993
220,0.0129578002,-0.0252163,-0.3125
221,0.0129578002,-0.0252163,-0.304688007
222,0.0129578002,-0.0252163,-0.296875
223,0.0129578002,-0.0252163,-0.289063007
224,0.0129578002,-0.0252163,-0.28125
225,0.0129578002,-0.0252163,-0.273438007
226,0.0129578002,-0.0252163,-0.265625
227,0.0129578002,-0.0252163,-0.257811993
228,0.0129578002,-0.0252163,-0.25
229,0.0129578002,-0.0252163,-0.242188007
230,0.0129578002,-0.0252163,-0.234375
231,0.0129578002,-0.0252163,-0.226563007
232,0.0129578002,-0.0252163,-0.21875
233,0.0129578002,-0.0252163,-0.210938007
234,0.0129578002,-0.0252163,-0.203125
235,0.0129578002,-0.0252163,-0.195313007
236,0.0129578002,-0.0252163,-0.1875
237,0.0129578002,-0.0252163,-0.179686993
238,0.0129578002,-0.0252163,-0.171875
239,0.0129578002,-0.0252163,-0.164061993
240,0.0129578002,-0.0252163,-0.15625
241,0.0129578002,-0.0252163,-0.148438007
242,0.0129578002,-0.0252163,-0.140625
243,0.0129578002,-0.0252163,-0.132811993
244,0.0129578002,-0.0252163,-0.125
245,0.0129578002,-0.0252163,-0.117187001
246,0.0129578002,-0.0252163,-0.109375
247,0.0129578002,-0.0252163,-0.101562001
248,0.0129578002,-0.0252163,-0.09375
249,0.0129578002,-0.0252163,-0.0859375
250,0.0129578002,-0.0252163,-0.078125
251,0.0129578002,-0.0252163,-0.0703125
252,0.0129578002,-0.0252163,-0.0625
253,0.0129578002,-0.0252163,-0.0546875
254,0.0129578002,-0.0252163,-0.046875
255,0.0129578002,-0.0252163,-0.0390625
256,0.0129578002,-0.0252163,-0.03125
257,0.0129578002,-0.0252163,-0.0234375
258,0.0129578002,-0.0252163,-0.015625
259,0.0129578002,-0.0252163,-0.0078125
260,0.0129578002,-0.0252163,0
261,0.0129578002,-0.0252163,0.0078125
262,0.0129578002,-0.0252163,0.015625
263,0.0129578002,-0.0252163,0.0234375
264,0.0129578002,-0.0252163,0.03125
265,0.0129578002,-0.0252163,0.0390625
266,0.0129578002,-0.0252163,0.046875
267,0.0129578002,-0.0252163,0.0546875
268,0.0129578002,-0.0252163,0.0625
269,0.0129578002,-0.0252163,0.0703125
270,0.0129578002,-0.0252163,0.078125
271,0.0129578002,-0.0252163,0.0859375
272,0.0129578002,-0.0252163,0.09375
273,0.0129578002,-0.0252163,0.101562001
274,0.0129578002,-0.0252163,0.109375
275,0.0129578002,-0.0252163,0.117187999
276,0.0129578002,-0.0252163,0.125
277,0.0129578002,-0.0252163,0.132811993
278,0.0129578002,-0.0252163,0.140625
279,0.0129578002,-0.0252163,0.148438007
280,0.0129578002,-0.0252163,0.15625
281,0.0129578002,-0.0252163,0.164061993
282,0.0129578002,-0.0252163,0.171875
283,0.0129578002,-0.0252163,0.179688007
284,0.0129578002,-0.0252163,0.1875
285,0.0129578002,-0.0252163,0.195311993
286,0.0129578002,-0.0252163,0.203125
287,0.0129578002,-0.0252163,0.210938007
288,0.0129578002,-0.0252163,0.21875
289,0.0129578002,-0.0252163,0.226561993
290,0.0129578002,-0.0252163,0.234375
291,0.0129578002,-0.0252163,0.242188007
292,0.0129578002,-0.0252163,0.25
293,0.0129578002,-0.0252163,0.257813007
294,0.0129578002,-0.0252163,0.265625
295,0.0129578002,-0.0252163,0.273436993
296,0.0129578002,-0.0252163,0.28125
297,0.0129578002,-0.0252163,0.289063007
298,0.0129578002,-0.0252163,0.296875
299,0.0129578002,-0.0252163,0.304686993
300,0.0129578002,-0.0252163,0.3125
301,0.0129578002,-0.0252163,0.320313007
302,0.0129578002,-0.0252163,0.328125
303,0.0129578002,-0.0252163,0.335936993
304,0.0129578002,-0.0252163,0.34375
305,0.0129578002,-0.0252163,0.351563007
306,0.0129578002,-0.0252163,0.359375
307,0.0129578002,-0.0252163,0.367186993
308,0.0129578002,-0.0252163,0.375
309,0.0129578002,-0.0252163,0.382811993
310,0.0139225004,-0.0163793005,0.39664799
311,0.0139255002,-0.0163512006,-0.39664799
312,0.0160427,-0.00417360989,-0.390363008
313,0.0160427,-0.00417360989,0.390363008
314,0.0160466991,-0.00417122012,-0.382813007
315,0.0160466991,-0.00417122012,-0.375
316,0.0160466991,-0.00417122012,-0.367188007
317,0.0160466991,-0.00417122012,-0.359375
318,0.0160466991,-0.00417122012,-0.351561993
319,0.0160466991,-0.00417122012,-0.34375
320,0.0160466991,-0.00417122012,-0.335938007
321,0.0160466991,-0.00417122012,-0.328125
322,0.0160466991,-0.00417122012,-0.320311993
323,0.0160466991,-0.00417122012,-0.3125
324,0.0160466991,-0.00417122012,-0.304688007
325,0.0160466991,-0.00417122012,-0.296875
326,0.0160466991,-0.00417122012,-0.289063007
327,0.0160466991,-0.00417122012,-0.28125
328,0.0160466991,-0.00417122012,-0.273438007
329,0.0160466991,-0.00417122012,-0.265625
330,0.0160466991,-0.00417122012,-0.257811993
331,0.0160466991,-0.00417122012,-0.25
332,0.0160466991,-0.00417122012,-0.242188007
333,0.0160466991,-0.00417122012,-0.234375
334,0.0160466991,-0.00417122012,-0.226561993
335,0.0160466991,-0.00417122012,-0.21875
336,0.0160466991,-0.00417122012,-0.210936993
337,0.0160466991,-0.00417122012,-0.203125
338,0.0160466991,-0.00417122012,-0.195313007
339,0.0160466991,-0.00417122012,-0.1875
340,0.0160466991,-0.00417122012,-0.179686993
341,0.0160466991,-0.00417122012,-0.171875
342,0.0160466991,-0.00417122012,-0.164063007
343,0.0160466991,-0.00417122012,-0.15625
344,0.0160466991,-0.00417122012,-0.148438007
345,0.0160466991,-0.00417122012,-0.140625
346,0.0160466991,-0.00417122012,-0.132813007
347,0.0160466991,-0.00417122012,-0.125
348,0.0160466991,-0.00417122012,-0.117187001
349,0.0160466991,-0.00417122012,-0.109375
350,0.0160466991,-0.00417122012,-0.101562999
351,0.0160466991,-0.00417122012,-0.09375
352,0.0160466991,-0.00417122012,-0.0859375
353,0.0160466991,-0.00417122012,-0.078125
354,0.0160466991,-0.00417122012,-0.0703125
355,0.0160466991,-0.00417122012,-0.0625
356,0.0160466991,-0.00417122012,-0.0546875
357,0.0160466991,-0.00417122012,-0.046875
358,0.0160466991,-0.00417122012,-0.0390625
359,0.0160466991,-0.00417122012,-0.03125
360,0.0160466991,-0.00417122012,-0.0234375
361,0.0160466991,-0.00417122012,-0.015625
362,0.0160466991,-0.00417122012,-0.0078125
363,0.0160466991,-0.00417122012,0
364,0.0160466991,-0.00417122012,0.0078125
365,0.0160466991,-0.00417122012,0.015625
366,0.0160466991,-0.00417122012,0.0234375
367,0.0160466991,-0.00417122012,0.03125
368,0.0160466991,-0.00417122012,0.0390625
369,0.0160466991,-0.00417122012,0.046875
370,0.0160466991,-0.00417122012,0.0546875
371,0.0160466991,-0.00417122012,0.0625
372,0.0160466991,-0.00417122012,0.0703125
373,0.0160466991,-0.00417122012,0.078125
374,0.0160466991,-0.00417122012,0.0859375
375,0.0160466991,-0.00417122012,0.09375
376,0.0160466991,-0.00417122012,0.101562001
377,0.0160466991,-0.00417122012,0.109375
378,0.0160466991,-0.00417122012,0.117187001
379,0.0160466991,-0.00417122012,0.125
380,0.0160466991,-0.00417122012,0.132811993
381,0.0160466991,-0.00417122012,0.140625
382,0.0160466991,-0.00417122012,0.148438007
383,0.0160466991,-0.00417122012,0.15625
384,0.0160466991,-0.00417122012,0.164061993
385,0.0160466991,-0.00417122012,0.171875
386,0.0160466991,-0.00417122012,0.179688007
387,0.0160466991,-0.00417122012,0.1875
388,0.0160466991,-0.00417122012,0.195311993
389,0.0160466991,-0.00417122012,0.203125
390,0.0160466991,-0.00417122012,0.210938007
391,0.0160466991,-0.00417122012,0.21875
392,0.0160466991,-0.00417122012,0.226563007
393,0.0160466991,-0.00417122012,0.234375
394,0.0160466991,-0.00417122012,0.242188007
395,0.0160466991,-0.00417122012,0.25
396,0.0160466991,-0.00417122012,0.257813007
397,0.0160466991,-0.00417122012,0.265625
398,0.0160466991,-0.00417122012,0.273436993
399,0.0160466991,-0.00417122012,0.28125
400,0.0160466991,-0.00417122012,0.289061993
401,0.0160466991,-0.00417122012,0.296875
402,0.0160466991,-0.00417122012,0.304686993
403,0.0160466991,-0.00417122012,0.3125
404,0.0160466991,-0.00417122012,0.320313007
405,0.0160466991,-0.00417122012,0.328125
406,0.0160466991,-0.00417122012,0.335938007
407,0.0160466991,-0.00417122012,0.34375
408,0.0160466991,-0.00417122012,0.351563007
409,0.0160466991,-0.00417122012,0.359375
410,0.0160466991,-0.00417122012,0.367186993
411,0.0160466991,-0.00417122012,0.375
412,0.0160466991,-0.00417122012,0.382813007
413,0.0161656998,-0.00409983005,-0.396115005
414,0.0161656998,-0.00409983005,0.396115005
415,0.0239646994,-7.3041498e-05,-0.396472007
416,0.0239646994,-7.3041498e-05,0.396472007
417,0.0249913,-0.0258453991,-0.382811993
418,0.0249913,-0.0258453991,-0.375
419,0.0249913,-0.0258453991,-0.367188007
420,0.0249913,-0.0258453991,-0.359375
421,0.0249913,-0.0258453991,-0.351561993
422,0.0249913,-0.0258453991,-0.34375
423,0.0249913,-0.0258453991,-0.335938007
424,0.0249913,-0.0258453991,-0.328125
425,0.0249913,-0.0258453991,-0.320311993
426,0.0249913,-0.0258453991,-0.3125
427,0.0249913,-0.0258453991,-0.304688007
428,0.0249913,-0.0258453991,-0.296875
429,0.0249913,-0.0258453991,-0.289063007
430,0.0249913,-0.0258453991,-0.28125
431,0.0249913,-0.0258453991,-0.273438007
432,0.0249913,-0.0258453991,-0.265625
433,0.0249913,-0.0258453991,-0.257811993
434,0.0249913,-0.0258453991,-0.25
435,0.0249913,-0.0258453991,-0.242186993
436,0.0249913,-0.0258453991,-0.234375
437,0.0249913,-0.0258453991,-0.226561993
438,0.0249913,-0.0258453991,-0.21875
439,0.0249913,-0.0258453991,-0.210936993
440,0.0249913,-0.0258453991,-0.203125
441,0.0249913,-0.0258453991,-0.195313007
442,0.0249913,-0.0258453991,-0.1875
443,0.0249913,-0.0258453991,-0.179688007
444,0.0249913,-0.0258453991,-0.171875
445,0.0249913,-0.0258453991,-0.164063007
446,0.0249913,-0.0258453991,-0.15625
447,0.0249913,-0.0258453991,-0.148438007
448,0.0249913,-0.0258453991,-0.140625
449,0.0249913,-0.0258453991,-0.132813007
450,0.0249913,-0.0258453991,-0.125
451,0.0249913,-0.0258453991,-0.117187999
452,0.0249913,-0.0258453991,-0.109375
453,0.0249913,-0.0258453991,-0.101562999
454,0.0249913,-0.0258453991,-0.09375
455,0.0249913,-0.0258453991,-0.0859375
456,0.0249913,-0.0258453991,-0.078125
457,0.0249913,-0.0258453991,-0.0703125
458,0.0249913,-0.0258453991,-0.0625
459,0.0249913,-0.0258453991,-0.0546875
460,0.0249913,-0.0258453991,-0.046875
461,0.0249913,-0.0258453991,-0.0390625
462,0.0249913,-0.0258453991,-0.03125
463,0.0249913,-0.0258453991,-0.0234375
464,0.0249913,-0.0258453991,-0.015625
465,0.0249913,-0.0258453991,-0.0078125
466,0.0249913,-0.0258453991,0
467,0.0249913,-0.0258453991,0.0078125
468,0.0249913,-0.0258453991,0.015625
469,0.0249913,-0.0258453991,0.0234375
470,0.0249913,-0.0258453991,0.03125
471,0.0249913,-0.0258453991,0.0390625
472,0.0249913,-0.0258453991,0.046875
473,0.0249913,-0.0258453991,0.0546875
474,0.0249913,-0.0258453991,0.0625
475,0.0249913,-0.0258453991,0.0703125
476,0.0249913,-0.0258453991,0.078125
477,0.0249913,-0.0258453991,0.0859375
478,0.0249913,-0.0258453991,0.09375
479,0.0249913,-0.0258453991,0.101562999
480,0.0249913,-0.0258453991,0.109375
481,0.0249913,-0.0258453991,0.117187001
482,0.0249913,-0.0258453991,0.125
483,0.0249913,-0.0258453991,0.132813007
484,0.0249913,-0.0258453991,0.140625
485,0.0249913,-0.0258453991,0.148436993
486,0.0249913,-0.0258453991,0.15625
487,0.0249913,-0.0258453991,0.164061993
488,0.0249913,-0.0258453991,0.171875
489,0.0249913,-0.0258453991,0.179686993
490,0.0249913,-0.0258453991,0.1875
491,0.0249913,-0.0258453991,0.195313007
492,0.0249913,-0.0258453991,0.203125
493,0.0249913,-0.0258453991,0.210938007
494,0.0249913,-0.0258453991,0.21875
495,0.0249913,-0.0258453991,0.226561993
496,0.0249913,-0.0258453991,0.234375
497,0.0249913,-0.0258453991,0.242188007
498,0.0249913,-0.0258453991,0.25
499,0.0249913,-0.0258453991,0.257811993
500,0.0249913,-0.0258453991,0.265625
501,0.0249913,-0.0258453991,0.273436993
502,0.0249913,-0.0258453991,0.28125
503,0.0249913,-0.0258453991,0.289061993
504,0.0249913,-0.0258453991,0.296875
505,0.0249913,-0.0258453991,0.304688007
506,0.0249913,-0.0258453991,0.3125
507,0.0249913,-0.0258453991,0.320311993
508,0.0249913,-0.0258453991,0.328125
509,0.0249913,-0.0258453991,0.335938007
510,0.0249913,-0.0258453991,0.34375
511,0.0249913,-0.0258453991,0.351563007
512,0.0249913,-0.0258453991,0.359375
513,0.0249913,-0.0258453991,0.367188007
514,0.0249913,-0.0258453991,0.375
515,0.0249913,-0.0258453991,0.382811993
516,0.0249994993,-0.0255631991,-0.390372992
517,0.0249994993,-0.0255631991,0.390372992
518,0.0250337999,0.000576934021,-0.390385985
519,0.0250337999,0.000576934021,0.390385985
520,0.0250387006,0.000579339976,-0.382811993
521,0.0250387006,0.000579339976,-0.375
522,0.0250387006,0.000579339976,-0.367188007
523,0.0250387006,0.000579339976,-0.359375
524,0.0250387006,0.000579339976,-0.351561993
525,0.0250387006,0.000579339976,-0.34375
526,0.0250387006,0.000579339976,-0.335938007
527,0.0250387006,0.000579339976,-0.328125
528,0.0250387006,0.000579339976,-0.320311993
529,0.0250387006,0.000579339976,-0.3125
530,0.0250387006,0.000579339976,-0.304688007
531,0.0250387006,0.000579339976,-0.296875
532,0.0250387006,0.000579339976,-0.289063007
533,0.0250387006,0.000579339976,-0.28125
534,0.0250387006,0.000579339976,-0.273438007
535,0.0250387006,0.000579339976,-0.265625
536,0.0250387006,0.000579339976,-0.257811993
537,0.0250387006,0.000579339976,-0.25
538,0.0250387006,0.000579339976,-0.242188007
539,0.0250387006,0.000579339976,-0.234375
540,0.0250387006,0.000579339976,-0.226563007
541,0.0250387006,0.000579339976,-0.21875
542,0.0250387006,0.000579339976,-0.210938007
543,0.0250387006,0.000579339976,-0.203125
544,0.0250387006,0.000579339976,-0.195313007
545,0.0250387006,0.000579339976,-0.1875
546,0.0250387006,0.000579339976,-0.179686993
547,0.0250387006,0.000579339976,-0.171875
548,0.0250387006,0.000579339976,-0.164063007
549,0.0250387006,0.000579339976,-0.15625
550,0.0250387006,0.000579339976,-0.148436993
551,0.0250387006,0.000579339976,-0.140625
552,0.0250387006,0.000579339976,-0.132811993
553,0.0250387006,0.000579339976,-0.125
554,0.0250387006,0.000579339976,-0.117187999
555,0.0250387006,0.000579339976,-0.109375
556,0.0250387006,0.000579339976,-0.101562999
557,0.0250387006,0.000579339976,-0.09375
558,0.0250387006,0.000579339976,-0.0859375
559,0.0250387006,0.000579339976,-0.078125
560,0.0250387006,0.000579339976,-0.0703125
561,0.0250387006,0.000579339976,-0.0625
562,0.0250387006,0.000579339976,-0.0546875
563,0.0250387006,0.000579339976,-0.046875
564,0.0250387006,0.000579339976,-0.0390625
565,0.0250387006,0.000579339976,-0.03125
566,0.0250387006,0.000579339976,-0.0234375
567,0.0250387006,0.000579339976,-0.015625
568,0.0250387006,0.000579339976,-0.0078125
569,0.0250387006,0.000579339976,-0
570,0.0250387006,0.000579339976,0.0078125
571,0.0250387006,0.000579339976,0.015625
572,0.0250387006,0.000579339976,0.0234375
573,0.0250387006,0.000579339976,0.03125
574,0.0250387006,0.000579339976,0.0390625
575,0.0250387006,0.000579339976,0.046875
576,0.0250387006,0.000579339976,0.0546875
577,0.0250387006,0.000579339976,0.0625
578,0.0250387006,0.000579339976,0.0703125
579,0.0250387006,0.000579339976,0.078125
580,0.0250387006,0.000579339976,0.0859375
581,0.0250387006,0.000579339976,0.09375
582,0.0250387006,0.000579339976,0.101562999
583,0.0250387006,0.000579339976,0.109375
584,0.0250387006,0.000579339976,0.117187001
585,0.0250387006,0.000579339976,0.125
586,0.0250387006,0.000579339976,0.132813007
587,0.0250387006,0.000579339976,0.140625
588,0.0250387006,0.000579339976,0.148436993
589,0.0250387006,0.000579339976,0.15625
590,0.0250387006,0.000579339976,0.164061993
591,0.0250387006,0.000579339976,0.171875
592,0.0250387006,0.000579339976,0.179688007
593,0.0250387006,0.000579339976,0.1875
594,0.0250387006,0.000579339976,0.195313007
595,0.0250387006,0.000579339976,0.203125
596,0.0250387006,0.000579339976,0.210938007
597,0.0250387006,0.000579339976,0.21875
598,0.0250387006,0.000579339976,0.226563007
599,0.0250387006,0.000579339976,0.234375
600,0.0250387006,0.000579339976,0.242188007
601,0.0250387006,0.000579339976,0.25
602,0.0250387006,0.000579339976,0.257811993
603,0.0250387006,0.000579339976,0.265625
604,0.0250387006,0.000579339976,0.273438007
605,0.0250387006,0.000579339976,0.28125
606,0.0250387006,0.000579339976,0.289061993
607,0.0250387006,0.000579339976,0.296875
608,0.0250387006,0.000579339976,0.304686993
609,0.0250387006,0.000579339976,0.3125
610,0.0250387006,0.000579339976,0.320311993
611,0.0250387006,0.000579339976,0.328125
612,0.0250387006,0.000579339976,0.335938007
613,0.0250387006,0.000579339976,0.34375
614,0.0250387006,0.000579339976,0.351561993
615,0.0250387006,0.000579339976,0.359375
616,0.0250387006,0.000579339976,0.367188007
617,0.0250387006,0.000579339976,0.375
618,0.0250387006,0.000579339976,0.382811993
619,0.0251186993,-0.0257373005,-0.396456987
620,0.0251186993,-0.0257373005,0.396456987
621,0.0253720004,-0.0132686002,-0.398330986
622,0.0253844,-0.0133237001,0.398330986
623,0.0352808982,0.00497577013,-0.396562994
624,0.0352808982,0.00497577013,0.396562994
625,0.0366791002,-0.0102235004,-0.398324996
626,0.0367061011,-0.0103054,0.398324996
627,0.037347801,-0.0249947999,-0.390338987
628,0.037347801,-0.0249947999,0.390338987
629,0.0373870991,-0.0249908008,-0.375
630,0.0373870991,-0.0249908008,-0.367188007
631,0.0373870991,-0.0249908008,-0.359375
632,0.0373870991,-0.0249908008,-0.351561993
633,0.0373870991,-0.0249908008,-0.34375
634,0.0373870991,-0.0249908008,-0.335938007
635,0.0373870991,-0.0249908008,-0.328125
636,0.0373870991,-0.0249908008,-0.320311993
637,0.0373870991,-0.0249908008,-0.3125
638,0.0373870991,-0.0249908008,-0.304688007
639,0.0373870991,-0.0249908008,-0.296875
640,0.0373870991,-0.0249908008,-0.289061993
641,0.0373870991,-0.0249908008,-0.28125
642,0.0373870991,-0.0249908008,-0.273438007
643,0.0373870991,-0.0249908008,-0.265625
644,0.0373870991,-0.0249908008,-0.257813007
645,0.0373870991,-0.0249908008,-0.25
646,0.0373870991,-0.0249908008,-0.242188007
647,0.0373870991,-0.0249908008,-0.234375
648,0.0373870991,-0.0249908008,-0.226563007
649,0.0373870991,-0.0249908008,-0.21875
650,0.0373870991,-0.0249908008,-0.210936993
651,0.0373870991,-0.0249908008,-0.203125
652,0.0373870991,-0.0249908008,-0.195311993
653,0.0373870991,-0.0249908008,-0.1875
654,0.0373870991,-0.0249908008,-0.179686993
655,0.0373870991,-0.0249908008,-0.171875
656,0.0373870991,-0.0249908008,-0.164063007
657,0.0373870991,-0.0249908008,-0.15625
658,0.0373870991,-0.0249908008,-0.148436993
659,0.0373870991,-0.0249908008,-0.140625
660,0.0373870991,-0.0249908008,-0.132813007
661,0.0373870991,-0.0249908008,-0.125
662,0.0373870991,-0.0249908008,-0.117187999
663,0.0373870991,-0.0249908008,-0.109375
664,0.0373870991,-0.0249908008,-0.101562999
665,0.0373870991,-0.0249908008,-0.09375
666,0.0373870991,-0.0249908008,-0.0859375
667,0.0373870991,-0.0249908008,-0.078125
668,0.0373870991,-0.0249908008,-0.0703125
669,0.0373870991,-0.0249908008,-0.0625
670,0.0373870991,-0.0249908008,-0.0546875
671,0.0373870991,-0.0249908008,-0.046875
672,0.0373870991,-0.0249908008,-0.0390625
673,0.0373870991,-0.0249908008,-0.03125
674,0.0373870991,-0.0249908008,-0.0234375
675,0.0373870991,-0.0249908008,-0.015625
676,0.0373870991,-0.0249908008,-0.0078125
677,0.0373870991,-0.0249908008,-0
678,0.0373870991,-0.0249908008,0.0078125
679,0.0373870991,-0.0249908008,0.015625
680,0.0373870991,-0.0249908008,0.0234375
681,0.0373870991,-0.0249908008,0.03125
682,0.0373870991,-0.0249908008,0.0390625
683,0.0373870991,-0.0249908008,0.046875
684,0.0373870991,-0.0249908008,0.0546875
685,0.0373870991,-0.0249908008,0.0625
686,0.0373870991,-0.0249908008,0.0703125
687,0.0373870991,-0.0249908008,0.078125
688,0.0373870991,-0.0249908008,0.0859375
689,0.0373870991,-0.0249908008,0.09375
690,0.0373870991,-0.0249908008,0.101562001
691,0.0373870991,-0.0249908008,0.109375
692,0.0373870991,-0.0249908008,0.117187999
693,0.0373870991,-0.0249908008,0.125
694,0.0373870991,-0.0249908008,0.132813007
695,0.0373870991,-0.0249908008,0.140625
696,0.0373870991,-0.0249908008,0.148436993
697,0.0373870991,-0.0249908008,0.15625
698,0.0373870991,-0.0249908008,0.164063007
699,0.0373870991,-0.0249908008,0.171875
700,0.0373870991,-0.0249908008,0.179686993
701,0.0373870991,-0.0249908008,0.1875
702,0.0373870991,-0.0249908008,0.195311993
703,0.0373870991,-0.0249908008,0.203125
704,0.0373870991,-0.0249908008,0.210936993
705,0.0373870991,-0.0249908008,0.21875
706,0.0373870991,-0.0249908008,0.226561993
707,0.0373870991,-0.0249908008,0.234375
708,0.0373870991,-0.0249908008,0.242188007
709,0.0373870991,-0.0249908008,0.25
710,0.0373870991,-0.0249908008,0.257811993
711,0.0373870991,-0.0249908008,0.265625
712,0.0373870991,-0.0249908008,0.273436993
713,0.0373870991,-0.0249908008,0.28125
714,0.0373870991,-0.0249908008,0.289063007
715,0.0373870991,-0.0249908008,0.296875
716,0.0373870991,-0.0249908008,0.304688007
717,0.0373870991,-0.0249908008,0.3125
718,0.0373870991,-0.0249908008,0.320313007
719,0.0373870991,-0.0249908008,0.328125
720,0.0373870991,-0.0249908008,0.335936993
721,0.0373870991,-0.0249908008,0.34375
722,0.0373870991,-0.0249908008,0.351561993
723,0.0373870991,-0.0249908008,0.359375
724,0.0373870991,-0.0249908008,0.367186993
725,0.0373870991,-0.0249908008,0.375
726,0.0374130011,-0.0249880999,-0.382818997
727,0.0374130011,-0.0249880999,0.382818997
728,0.0374246985,-0.0248614997,-0.396398991
729,0.0374246985,-0.0248614997,0.396398991
730,0.0410120003,0.00739328982,-0.382813007
731,0.0410120003,0.00739328982,-0.375
732,0.0410120003,0.00739328982,-0.367188007
733,0.0410120003,0.00739328982,-0.359375
734,0.0410120003,0.00739328982,-0.351561993
735,0.0410120003,0.00739328982,-0.34375
736,0.0410120003,0.00739328982,-0.335938007
737,0.0410120003,0.00739328982,-0.328125
738,0.0410120003,0.00739328982,-0.320311993
739,0.0410120003,0.00739328982,-0.3125
740,0.0410120003,0.00739328982,-0.304688007
741,0.0410120003,0.00739328982,-0.296875
742,0.0410120003,0.00739328982,-0.289063007
743,0.0410120003,0.00739328982,-0.28125
744,0.0410120003,0.00739328982,-0.273438007
745,0.0410120003,0.00739328982,-0.265625
746,0.0410120003,0.00739328982,-0.257811993
747,0.0410120003,0.00739328982,-0.25
748,0.0410120003,0.00739328982,-0.242188007
749,0.0410120003,0.00739328982,-0.234375
750,0.0410120003,0.00739328982,-0.226563007
751,0.0410120003,0.00739328982,-0.21875
752,0.0410120003,0.00739328982,-0.210938007
753,0.0410120003,0.00739328982,-0.203125
754,0.0410120003,0.00739328982,-0.195311993
755,0.0410120003,0.00739328982,-0.1875
756,0.0410120003,0.00739328982,-0.179688007
757,0.0410120003,0.00739328982,-0.171875
758,0.0410120003,0.00739328982,-0.164061993
759,0.0410120003,0.00739328982,-0.15625
760,0.0410120003,0.00739328982,-0.148436993
761,0.0410120003,0.00739328982,-0.140625
762,0.0410120003,0.00739328982,-0.132811993
763,0.0410120003,0.00739328982,-0.125
764,0.0410120003,0.00739328982,-0.117187001
765,0.0410120003,0.00739328982,-0.109375
766,0.0410120003,0.00739328982,-0.101562999
767,0.0410120003,0.00739328982,-0.09375
768,0.0410120003,0.00739328982,-0.0859375
769,0.0410120003,0.00739328982,-0.078125
770,0.0410120003,0.00739328982,-0.0703125
771,0.0410120003,0.00739328982,-0.0625
772,0.0410120003,0.00739328982,-0.0546875
773,0.0410120003,0.00739328982,-0.046875
774,0.0410120003,0.00739328982,-0.0390625
775,0.0410120003,0.00739328982,-0.03125
776,0.0410120003,0.00739328982,-0.0234375
777,0.0410120003,0.00739328982,-0.015625
778,0.0410120003,0.00739328982,-0.0078125
779,0.0410120003,0.00739328982,-0
780,0.0410120003,0.00739328982,0.0078125
781,0.0410120003,0.00739328982,0.015625
782,0.0410120003,0.00739328982,0.0234375
783,0.0410120003,0.00739328982,0.03125
784,0.0410120003,0.00739328982,0.0390625
785,0.0410120003,0.00739328982,0.046875
786,0.0410120003,0.00739328982,0.0546875
787,0.0410120003,0.00739328982,0.0625
788,0.0410120003,0.00739328982,0.0703125
789,0.0410120003,0.00739328982,0.078125
790,0.0410120003,0.00739328982,0.0859375
791,0.0410120003,0.00739328982,0.09375
792,0.0410120003,0.00739328982,0.101562999
793,0.0410120003,0.00739328982,0.109375
794,0.0410120003,0.00739328982,0.117187999
795,0.0410120003,0.00739328982,0.125
796,0.0410120003,0.00739328982,0.132813007
797,0.0410120003,0.00739328982,0.140625
798,0.0410120003,0.00739328982,0.148436993
799,0.0410120003,0.00739328982,0.15625
800,0.0410120003,0.00739328982,0.164061993
801,0.0410120003,0.00739328982,0.171875
802,0.0410120003,0.00739328982,0.179688007
803,0.0410120003,0.00739328982,0.1875
804,0.0410120003,0.00739328982,0.195313007
805,0.0410120003,0.00739328982,0.203125
806,0.0410120003,0.00739328982,0.210938007
807,0.0410120003,0.00739328982,0.21875
808,0.0410120003,0.00739328982,0.226561993
809,0.0410120003,0.00739328982,0.234375
810,0.0410120003,0.00739328982,0.242186993
811,0.0410120003,0.00739328982,0.25
812,0.0410120003,0.00739328982,0.257813007
813,0.0410120003,0.00739328982,0.265625
814,0.0410120003,0.00739328982,0.273438007
815,0.0410120003,0.00739328982,0.28125
816,0.0410120003,0.00739328982,0.289061993
817,0.0410120003,0.00739328982,0.296875
818,0.0410120003,0.00739328982,0.304688007
819,0.0410120003,0.00739328982,0.3125
820,0.0410120003,0.00739328982,0.320311993
821,0.0410120003,0.00739328982,0.328125
822,0.0410120003,0.00739328982,0.335938007
823,0.0410120003,0.00739328982,0.34375
824,0.0410120003,0.00739328982,0.351561993
825,0.0410120003,0.00739328982,0.359375
826,0.0410120003,0.00739328982,0.367186993
827,0.0410120003,0.00739328982,0.375
828,0.0410120003,0.00739328982,0.382811993
829,0.0410682,0.00741491979,-0.390363008
830,0.0410682,0.00741491979,0.390363008
831,0.0413932018,0.00754011003,-0.396037996
832,0.0413932018,0.00754011003,0.396037996
833,0.0463628992,-0.00761559,-0.396789998
834,0.0464033,-0.00772017986,0.396789998
835,0.0469518006,-0.0235997997,-0.396059006
836,0.0469518006,-0.0235997997,0.396059006
837,0.0495674983,-0.0233488008,-0.375
838,0.0495674983,-0.0233488008,-0.367188007
839,0.0495674983,-0.0233488008,-0.359375
840,0.0495674983,-0.0233488008,-0.351561993
841,0.0495674983,-0.0233488008,-0.34375
842,0.0495674983,-0.0233488008,-0.335938007
843,0.0495674983,-0.0233488008,-0.328125
844,0.0495674983,-0.0233488008,-0.320311993
845,0.0495674983,-0.0233488008,-0.3125
846,0.0495674983,-0.0233488008,-0.304688007
847,0.0495674983,-0.0233488008,-0.296875
848,0.0495674983,-0.0233488008,-0.289063007
849,0.0495674983,-0.0233488008,-0.28125
850,0.0495674983,-0.0233488008,-0.273438007
851,0.0495674983,-0.0233488008,-0.265625
852,0.0495674983,-0.0233488008,-0.257811993
853,0.0495674983,-0.0233488008,-0.25
854,0.0495674983,-0.0233488008,-0.242188007
855,0.0495674983,-0.0233488008,-0.234375
856,0.0495674983,-0.0233488008,-0.226561993
857,0.0495674983,-0.0233488008,-0.21875
858,0.0495674983,-0.0233488008,-0.210938007
859,0.0495674983,-0.0233488008,-0.203125
860,0.0495674983,-0.0233488008,-0.195311993
861,0.0495674983,-0.0233488008,-0.1875
862,0.0495674983,-0.0233488008,-0.179688007
863,0.0495674983,-0.0233488008,-0.171875
864,0.0495674983,-0.0233488008,-0.164063007
865,0.0495674983,-0.0233488008,-0.15625
866,0.0495674983,-0.0233488008,-0.148436993
867,0.0495674983,-0.0233488008,-0.140625
868,0.0495674983,-0.0233488008,-0.132813007
869,0.0495674983,-0.0233488008,-0.125
870,0.0495674983,-0.0233488008,-0.117187999
871,0.0495674983,-0.0233488008,-0.109375
872,0.0495674983,-0.0233488008,-0.101562999
873,0.0495674983,-0.0233488008,-0.09375
874,0.0495674983,-0.0233488008,-0.0859375
875,0.0495674983,-0.0233488008,-0.078125
876,0.0495674983,-0.0233488008,-0.0703125
877,0.0495674983,-0.0233488008,-0.0625
878,0.0495674983,-0.0233488008,-0.0546875
879,0.0495674983,-0.0233488008,-0.046875
880,0.0495674983,-0.0233488008,-0.0390625
881,0.0495674983,-0.0233488008,-0.03125
882,0.0495674983,-0.0233488008,-0.0234375
883,0.0495674983,-0.0233488008,-0.015625
884,0.0495674983,-0.0233488008,-0.0078125
885,0.0495674983,-0.0233488008,0
886,0.0495674983,-0.0233488008,0.0078125
887,0.0495674983,-0.0233488008,0.015625
888,0.0495674983,-0.0233488008,0.0234375
889,0.0495674983,-0.0233488008,0.03125
890,0.0495674983,-0.0233488008,0.0390625
891,0.0495674983,-0.0233488008,0.046875
892,0.0495674983,-0.0233488008,0.0546875
893,0.0495674983,-0.0233488008,0.0625
894,0.0495674983,-0.0233488008,0.0703125
895,0.0495674983,-0.0233488008,0.078125
896,0.0495674983,-0.0233488008,0.0859375
897,0.0495674983,-0.0233488008,0.09375
898,0.0495674983,-0.0233488008,0.101562001
899,0.0495674983,-0.0233488008,0.109375
900,0.0495674983,-0.0233488008,0.117187999
901,0.0495674983,-0.0233488008,0.125
902,0.0495674983,-0.0233488008,0.132811993
903,0.0495674983,-0.0233488008,0.140625
904,0.0495674983,-0.0233488008,0.148436993
905,0.0495674983,-0.0233488008,0.15625
906,0.0495674983,-0.0233488008,0.164061993
907,0.0495674983,-0.0233488008,0.171875
908,0.0495674983,-0.0233488008,0.179686993
909,0.0495674983,-0.0233488008,0.1875
910,0.0495674983,-0.0233488008,0.195311993
911,0.0495674983,-0.0233488008,0.203125
912,0.0495674983,-0.0233488008,0.210938007
913,0.0495674983,-0.0233488008,0.21875
914,0.0495674983,-0.0233488008,0.226563007
915,0.0495674983,-0.0233488008,0.234375
916,0.0495674983,-0.0233488008,0.242188007
917,0.0495674983,-0.0233488008,0.25
918,0.0495674983,-0.0233488008,0.257813007
919,0.0495674983,-0.0233488008,0.265625
920,0.0495674983,-0.0233488008,0.273436993
921,0.0495674983,-0.0233488008,0.28125
922,0.0495674983,-0.0233488008,0.289063007
923,0.0495674983,-0.0233488008,0.296875
924,0.0495674983,-0.0233488008,0.304688007
925,0.0495674983,-0.0233488008,0.3125
926,0.0495674983,-0.0233488008,0.320313007
927,0.0495674983,-0.0233488008,0.328125
928,0.0495674983,-0.0233488008,0.335936993
929,0.0495674983,-0.0233488008,0.34375
930,0.0495674983,-0.0233488008,0.351563007
931,0.0495674983,-0.0233488008,0.359375
932,0.0495674983,-0.0233488008,0.367186993
933,0.0495674983,-0.0233488008,0.375
934,0.0496130995,-0.0233415999,-0.382764012
935,0.0496130995,-0.0233415999,0.382764012
936,0.0499818996,0.0105103003,-0.396274
937,0.0499818996,0.0105103003,0.396274
938,0.0500996001,-0.0228812005,-0.390491009
939,0.0500996001,-0.0228812005,0.390491009
940,0.0510175005,0.0110381003,-0.390347004
941,0.0510175005,0.0110381003,0.390347004
942,0.0511051007,0.0110686999,-0.382811993
943,0.0511051007,0.0110686999,-0.375
944,0.0511051007,0.0110686999,-0.367188007
945,0.0511051007,0.0110686999,-0.359375
946,0.0511051007,0.0110686999,-0.351561993
947,0.0511051007,0.0110686999,-0.34375
948,0.0511051007,0.0110686999,-0.335938007
949,0.0511051007,0.0110686999,-0.328125
950,0.0511051007,0.0110686999,-0.320313007
951,0.0511051007,0.0110686999,-0.3125
952,0.0511051007,0.0110686999,-0.304688007
953,0.0511051007,0.0110686999,-0.296875
954,0.0511051007,0.0110686999,-0.289061993
955,0.0511051007,0.0110686999,-0.28125
956,0.0511051007,0.0110686999,-0.273436993
957,0.0511051007,0.0110686999,-0.265625
958,0.0511051007,0.0110686999,-0.257811993
959,0.0511051007,0.0110686999,-0.25
960,0.0511051007,0.0110686999,-0.242188007
961,0.0511051007,0.0110686999,-0.234375
962,0.0511051007,0.0110686999,-0.226563007
963,0.0511051007,0.0110686999,-0.21875
964,0.0511051007,0.0110686999,-0.210936993
965,0.0511051007,0.0110686999,-0.203125
966,0.0511051007,0.0110686999,-0.195313007
967,0.0511051007,0.0110686999,-0.1875
968,0.0511051007,0.0110686999,-0.179688007
969,0.0511051007,0.0110686999,-0.171875
970,0.0511051007,0.0110686999,-0.164063007
971,0.0511051007,0.0110686999,-0.15625
972,0.0511051007,0.0110686999,-0.148438007
973,0.0511051007,0.0110686999,-0.140625
974,0.0511051007,0.0110686999,-0.132811993
975,0.0511051007,0.0110686999,-0.125
976,0.0511051007,0.0110686999,-0.117187001
977,0.0511051007,0.0110686999,-0.109375
978,0.0511051007,0.0110686999,-0.101562999
979,0.0511051007,0.0110686999,-0.09375
980,0.0511051007,0.0110686999,-0.0859375
981,0.0511051007,0.0110686999,-0.078125
982,0.0511051007,0.0110686999,-0.0703125
983,0.0511051007,0.0110686999,-0.0625
984,0.0511051007,0.0110686999,-0.0546875
985,0.0511051007,0.0110686999,-0.046875
986,0.0511051007,0.0110686999,-0.0390625
987,0.0511051007,0.0110686999,-0.03125
988,0.0511051007,0.0110686999,-0.0234375
989,0.0511051007,0.0110686999,-0.015625
990,0.0511051007,0.0110686999,-0.0078125
991,0.0511051007,0.0110686999,-1e-12
992,0.0511051007,0.0110686999,0.0078125
993,0.0511051007,0.0110686999,0.015625
994,0.0511051007,0.0110686999,0.0234375
995,0.0511051007,0.0110686999,0.03125
996,0.0511051007,0.0110686999,0.0390625
997,0.0511051007,0.0110686999,0.046875
998,0.0511051007,0.0110686999,0.0546875
999,0.0511051007,0.0110686999,0.0625
1000,0.0511051007,0.0110686999,0.0703125
1001,0.0511051007,0.0110686999,0.078125
1002,0.0511051007,0.0110686999,0.0859375
1003,0.0511051007,0.0110686999,0.09375
1004,0.0511051007,0.0110686999,0.101562999
1005,0.0511051007,0.0110686999,0.109375
1006,0.0511051007,0.0110686999,0.117187999
1007,0.0511051007,0.0110686999,0.125
1008,0.0511051007,0.0110686999,0.132811993
1009,0.0511051007,0.0110686999,0.140625
1010,0.0511051007,0.0110686999,0.148436993
1011,0.0511051007,0.0110686999,0.15625
1012,0.0511051007,0.0110686999,0.164061993
1013,0.0511051007,0.0110686999,0.171875
1014,0.0511051007,0.0110686999,0.179686993
1015,0.0511051007,0.0110686999,0.1875
1016,0.0511051007,0.0110686999,0.195313007
1017,0.0511051007,0.0110686999,0.203125
1018,0.0511051007,0.0110686999,0.210938007
1019,0.0511051007,0.0110686999,0.21875
1020,0.0511051007,0.0110686999,0.226563007
1021,0.0511051007,0.0110686999,0.234375
1022,0.0511051007,0.0110686999,0.242186993
1023,0.0511051007,0.0110686999,0.25
1024,0.0511051007,0.0110686999,0.257811993
1025,0.0511051007,0.0110686999,0.265625
1026,0.0511051007,0.0110686999,0.273436993
1027,0.0511051007,0.0110686999,0.28125
1028,0.0511051007,0.0110686999,0.289063007
1029,0.0511051007,0.0110686999,0.296875
1030,0.0511051007,0.0110686999,0.304688007
1031,0.0511051007,0.0110686999,0.3125
1032,0.0511051007,0.0110686999,0.320311993
1033,0.0511051007,0.0110686999,0.328125
1034,0.0511051007,0.0110686999,0.335938007
1035,0.0511051007,0.0110686999,0.34375
1036,0.0511051007,0.0110686999,0.351561993
1037,0.0511051007,0.0110686999,0.359375
1038,0.0511051007,0.0110686999,0.367188007
1039,0.0511051007,0.0110686999,0.375
1040,0.0511051007,0.0110686999,0.382813007
1041,0.0518979989,-0.00612495979,-0.397008002
1042,0.0519168004,-0.00625032,0.397008002
1043,0.0608755015,0.0141238002,-0.396054
1044,0.0608755015,0.0141238002,0.396054
1045,0.0612454005,-0.0212580003,-0.375
1046,0.0612454005,-0.0212580003,-0.367188007
1047,0.0612454005,-0.0212580003,-0.359375
1048,0.0612454005,-0.0212580003,-0.351561993
1049,0.0612454005,-0.0212580003,-0.34375
1050,0.0612454005,-0.0212580003,-0.335938007
1051,0.0612454005,-0.0212580003,-0.328125
1052,0.0612454005,-0.0212580003,-0.320311993
1053,0.0612454005,-0.0212580003,-0.3125
1054,0.0612454005,-0.0212580003,-0.304688007
1055,0.0612454005,-0.0212580003,-0.296875
1056,0.0612454005,-0.0212580003,-0.289063007
1057,0.0612454005,-0.0212580003,-0.28125
1058,0.0612454005,-0.0212580003,-0.273438007
1059,0.0612454005,-0.0212580003,-0.265625
1060,0.0612454005,-0.0212580003,-0.257811993
1061,0.0612454005,-0.0212580003,-0.25
1062,0.0612454005,-0.0212580003,-0.242188007
1063,0.0612454005,-0.0212580003,-0.234375
1064,0.0612454005,-0.0212580003,-0.226563007
1065,0.0612454005,-0.0212580003,-0.21875
1066,0.0612454005,-0.0212580003,-0.210938007
1067,0.0612454005,-0.0212580003,-0.203125
1068,0.0612454005,-0.0212580003,-0.195311993
1069,0.0612454005,-0.0212580003,-0.1875
1070,0.0612454005,-0.0212580003,-0.179688007
1071,0.0612454005,-0.0212580003,-0.171875
1072,0.0612454005,-0.0212580003,-0.164063007
1073,0.0612454005,-0.0212580003,-0.15625
1074,0.0612454005,-0.0212580003,-0.148438007
1075,0.0612454005,-0.0212580003,-0.140625
1076,0.0612454005,-0.0212580003,-0.132813007
1077,0.0612454005,-0.0212580003,-0.125
1078,0.0612454005,-0.0212580003,-0.117187999
1079,0.0612454005,-0.0212580003,-0.109375
1080,0.0612454005,-0.0212580003,-0.101562999
1081,0.0612454005,-0.0212580003,-0.09375
1082,0.0612454005,-0.0212580003,-0.0859375
1083,0.0612454005,-0.0212580003,-0.078125
1084,0.0612454005,-0.0212580003,-0.0703125
1085,0.0612454005,-0.0212580003,-0.0625
1086,0.0612454005,-0.0212580003,-0.0546875
1087,0.0612454005,-0.0212580003,-0.046875
1088,0.0612454005,-0.0212580003,-0.0390625
1089,0.0612454005,-0.0212580003,-0.03125
1090,0.0612454005,-0.0212580003,-0.0234375
1091,0.0612454005,-0.0212580003,-0.015625
1092,0.0612454005,-0.0212580003,-0.0078125
1093,0.0612454005,-0.0212580003,0
1094,0.0612454005,-0.0212580003,0.0078125
1095,0.0612454005,-0.0212580003,0.015625
1096,0.0612454005,-0.0212580003,0.0234375
1097,0.0612454005,-0.0212580003,0.03125
1098,0.0612454005,-0.0212580003,0.0390625
1099,0.0612454005,-0.0212580003,0.046875
1100,0.0612454005,-0.0212580003,0.0546875
1101,0.0612454005,-0.0212580003,0.0625
1102,0.0612454005,-0.0212580003,0.0703125
1103,0.0612454005,-0.0212580003,0.078125
1104,0.0612454005,-0.0212580003,0.0859375
1105,0.0612454005,-0.0212580003,0.09375
1106,0.0612454005,-0.0212580003,0.101562999
1107,0.0612454005,-0.0212580003,0.109375
1108,0.0612454005,-0.0212580003,0.117187999
1109,0.0612454005,-0.0212580003,0.125
1110,0.0612454005,-0.0212580003,0.132811993
1111,0.0612454005,-0.0212580003,0.140625
1112,0.0612454005,-0.0212580003,0.148436993
1113,0.0612454005,-0.0212580003,0.15625
1114,0.0612454005,-0.0212580003,0.164063007
1115,0.0612454005,-0.0212580003,0.171875
1116,0.0612454005,-0.0212580003,0.179686993
1117,0.0612454005,-0.0212580003,0.1875
1118,0.0612454005,-0.0212580003,0.195311993
1119,0.0612454005,-0.0212580003,0.203125
1120,0.0612454005,-0.0212580003,0.210938007
1121,0.0612454005,-0.0212580003,0.21875
1122,0.0612454005,-0.0212580003,0.226563007
1123,0.0612454005,-0.0212580003,0.234375
1124,0.0612454005,-0.0212580003,0.242186993
1125,0.0612454005,-0.0212580003,0.25
1126,0.0612454005,-0.0212580003,0.257811993
1127,0.0612454005,-0.0212580003,0.265625
1128,0.0612454005,-0.0212580003,0.273438007
1129,0.0612454005,-0.0212580003,0.28125
1130,0.0612454005,-0.0212580003,0.289061993
1131,0.0612454005,-0.0212580003,0.296875
1132,0.0612454005,-0.0212580003,0.304686993
1133,0.0612454005,-0.0212580003,0.3125
1134,0.0612454005,-0.0212580003,0.320311993
1135,0.0612454005,-0.0212580003,0.328125
1136,0.0612454005,-0.0212580003,0.335936993
1137,0.0612454005,-0.0212580003,0.34375
1138,0.0612454005,-0.0212580003,0.351561993
1139,0.0612454005,-0.0212580003,0.359375
1140,0.0612454005,-0.0212580003,0.367188007
1141,0.0612454005,-0.0212580003,0.375
1142,0.061250899,-0.0212568995,-0.382600993
1143,0.061250899,-0.0212568995,0.382600993
1144,0.0617454015,0.0145792002,-0.375
1145,0.0617454015,0.0145792002,-0.367188007
1146,0.0617454015,0.0145792002,-0.359375
1147,0.0617454015,0.0145792002,-0.351561993
1148,0.0617454015,0.0145792002,-0.34375
1149,0.0617454015,0.0145792002,-0.335938007
1150,0.0617454015,0.0145792002,-0.328125
1151,0.0617454015,0.0145792002,-0.320311993
1152,0.0617454015,0.0145792002,-0.3125
1153,0.0617454015,0.0145792002,-0.304688007
1154,0.0617454015,0.0145792002,-0.296875
1155,0.0617454015,0.0145792002,-0.289063007
1156,0.0617454015,0.0145792002,-0.28125
1157,0.0617454015,0.0145792002,-0.273438007
1158,0.0617454015,0.0145792002,-0.265625
1159,0.0617454015,0.0145792002,-0.257811993
1160,0.0617454015,0.0145792002,-0.25
1161,0.0617454015,0.0145792002,-0.242188007
1162,0.0617454015,0.0145792002,-0.234375
1163,0.0617454015,0.0145792002,-0.226561993
1164,0.0617454015,0.0145792002,-0.21875
1165,0.0617454015,0.0145792002,-0.210936993
1166,0.0617454015,0.0145792002,-0.203125
1167,0.0617454015,0.0145792002,-0.195311993
1168,0.0617454015,0.0145792002,-0.1875
1169,0.0617454015,0.0145792002,-0.179688007
1170,0.0617454015,0.0145792002,-0.171875
1171,0.0617454015,0.0145792002,-0.164063007
1172,0.0617454015,0.0145792002,-0.15625
1173,0.0617454015,0.0145792002,-0.148436993
1174,0.0617454015,0.0145792002,-0.140625
1175,0.0617454015,0.0145792002,-0.132811993
1176,0.0617454015,0.0145792002,-0.125
1177,0.0617454015,0.0145792002,-0.117187001
1178,0.0617454015,0.0145792002,-0.109375
1179,0.0617454015,0.0145792002,-0.101562001
1180,0.0617454015,0.0145792002,-0.09375
1181,0.0617454015,0.0145792002,-0.0859375
1182,0.0617454015,0.0145792002,-0.078125
1183,0.0617454015,0.0145792002,-0.0703125
1184,0.0617454015,0.0145792002,-0.0625
1185,0.0617454015,0.0145792002,-0.0546875
1186,0.0617454015,0.0145792002,-0.046875
1187,0.0617454015,0.0145792002,-0.0390625
1188,0.0617454015,0.0145792002,-0.03125
1189,0.0617454015,0.0145792002,-0.0234375
1190,0.0617454015,0.0145792002,-0.015625
1191,0.0617454015,0.0145792002,-0.0078125
1192,0.0617454015,0.0145792002,0
1193,0.0617454015,0.0145792002,0.0078125
1194,0.0617454015,0.0145792002,0.015625
1195,0.0617454015,0.0145792002,0.0234375
1196,0.0617454015,0.0145792002,0.03125
1197,0.0617454015,0.0145792002,0.0390625
1198,0.0617454015,0.0145792002,0.046875
1199,0.0617454015,0.0145792002,0.0546875
1200,0.0617454015,0.0145792002,0.0625
1201,0.0617454015,0.0145792002,0.0703125
1202,0.0617454015,0.0145792002,0.078125
1203,0.0617454015,0.0145792002,0.0859375
1204,0.0617454015,0.0145792002,0.09375
1205,0.0617454015,0.0145792002,0.101562999
1206,0.0617454015,0.0145792002,0.109375
1207,0.0617454015,0.0145792002,0.117187999
1208,0.0617454015,0.0145792002,0.125
1209,0.0617454015,0.0145792002,0.132813007
1210,0.0617454015,0.0145792002,0.140625
1211,0.0617454015,0.0145792002,0.148438007
1212,0.0617454015,0.0145792002,0.15625
1213,0.0617454015,0.0145792002,0.164063007
1214,0.0617454015,0.0145792002,0.171875
1215,0.0617454015,0.0145792002,0.179686993
1216,0.0617454015,0.0145792002,0.1875
1217,0.0617454015,0.0145792002,0.195313007
1218,0.0617454015,0.0145792002,0.203125
1219,0.0617454015,0.0145792002,0.210938007
1220,0.0617454015,0.0145792002,0.21875
1221,0.0617454015,0.0145792002,0.226563007
1222,0.0617454015,0.0145792002,0.234375
1223,0.0617454015,0.0145792002,0.242186993
1224,0.0617454015,0.0145792002,0.25
1225,0.0617454015,0.0145792002,0.257811993
1226,0.0617454015,0.0145792002,0.265625
1227,0.0617454015,0.0145792002,0.273436993
1228,0.0617454015,0.0145792002,0.28125
1229,0.0617454015,0.0145792002,0.289061993
1230,0.0617454015,0.0145792002,0.296875
1231,0.0617454015,0.0145792002,0.304686993
1232,0.0617454015,0.0145792002,0.3125
1233,0.0617454015,0.0145792002,0.320311993
1234,0.0617454015,0.0145792002,0.328125
1235,0.0617454015,0.0145792002,0.335938007
1236,0.0617454015,0.0145792002,0.34375
1237,0.0617454015,0.0145792002,0.351561993
1238,0.0617454015,0.0145792002,0.359375
1239,0.0617454015,0.0145792002,0.367188007
1240,0.0617454015,0.0145792002,0.375
1241,0.0619188994,0.0141880997,-0.390316993
1242,0.0619188994,0.0141880997,0.390316993
1243,0.0620518997,-0.0210990999,-0.388965011
1244,0.0620518997,-0.0210990999,0.388965011
1245,0.0620827004,0.0138959996,-0.382851005
1246,0.0620827004,0.0138959996,0.382851005
1247,0.0635462999,-0.00298799994,-0.396753997
1248,0.0635752007,-0.00314225,0.396753997
1249,0.0640977025,-0.0203037001,-0.391214997
1250,0.0640977025,-0.0203037001,0.391214997
1251,0.069797799,0.0168427993,-0.395736009
1252,0.069797799,0.0168427993,0.395736009
1253,0.0711333007,-0.0191814993,-0.388446003
1254,0.0711333007,-0.0191814993,0.388446003
1255,0.0716435015,-0.0190682001,-0.382604003
1256,0.0716435015,-0.0190682001,0.382604003
1257,0.0717512965,-0.0190442,-0.375
1258,0.0717512965,-0.0190442,-0.367188007
1259,0.0717512965,-0.0190442,-0.359375
1260,0.0717512965,-0.0190442,-0.351561993
1261,0.0717512965,-0.0190442,-0.34375
1262,0.0717512965,-0.0190442,-0.335938007
1263,0.0717512965,-0.0190442,-0.328125
1264,0.0717512965,-0.0190442,-0.320311993
1265,0.0717512965,-0.0190442,-0.3125
1266,0.0717512965,-0.0190442,-0.304688007
1267,0.0717512965,-0.0190442,-0.296875
1268,0.0717512965,-0.0190442,-0.289063007
1269,0.0717512965,-0.0190442,-0.28125
1270,0.0717512965,-0.0190442,-0.273438007
1271,0.0717512965,-0.0190442,-0.265625
1272,0.0717512965,-0.0190442,-0.257811993
1273,0.0717512965,-0.0190442,-0.25
1274,0.0717512965,-0.0190442,-0.242188007
1275,0.0717512965,-0.0190442,-0.234375
1276,0.0717512965,-0.0190442,-0.226563007
1277,0.0717512965,-0.0190442,-0.21875
1278,0.0717512965,-0.0190442,-0.210938007
1279,0.0717512965,-0.0190442,-0.203125
1280,0.0717512965,-0.0190442,-0.195313007
1281,0.0717512965,-0.0190442,-0.1875
1282,0.0717512965,-0.0190442,-0.179688007
1283,0.0717512965,-0.0190442,-0.171875
1284,0.0717512965,-0.0190442,-0.164061993
1285,0.0717512965,-0.0190442,-0.15625
1286,0.0717512965,-0.0190442,-0.148438007
1287,0.0717512965,-0.0190442,-0.140625
1288,0.0717512965,-0.0190442,-0.132811993
1289,0.0717512965,-0.0190442,-0.125
1290,0.0717512965,-0.0190442,-0.117187999
1291,0.0717512965,-0.0190442,-0.109375
1292,0.0717512965,-0.0190442,-0.101562999
1293,0.0717512965,-0.0190442,-0.09375
1294,0.0717512965,-0.0190442,-0.0859375
1295,0.0717512965,-0.0190442,-0.078125
1296,0.0717512965,-0.0190442,-0.0703125
1297,0.0717512965,-0.0190442,-0.0625
1298,0.0717512965,-0.0190442,-0.0546875
1299,0.0717512965,-0.0190442,-0.046875
1300,0.0717512965,-0.0190442,-0.0390625
1301,0.0717512965,-0.0190442,-0.03125
1302,0.0717512965,-0.0190442,-0.0234375
1303,0.0717512965,-0.0190442,-0.015625
1304,0.0717512965,-0.0190442,-0.0078125
1305,0.0717512965,-0.0190442,0
1306,0.0717512965,-0.0190442,0.0078125
1307,0.0717512965,-0.0190442,0.015625
1308,0.0717512965,-0.0190442,0.0234375
1309,0.0717512965,-0.0190442,0.03125
1310,0.0717512965,-0.0190442,0.0390625
1311,0.0717512965,-0.0190442,0.046875
1312,0.0717512965,-0.0190442,0.0546875
1313,0.0717512965,-0.0190442,0.0625
1314,0.0717512965,-0.0190442,0.0703125
1315,0.0717512965,-0.0190442,0.078125
1316,0.0717512965,-0.0190442,0.0859375
1317,0.0717512965,-0.0190442,0.09375
1318,0.0717512965,-0.0190442,0.101562999
1319,0.0717512965,-0.0190442,0.109375
1320,0.0717512965,-0.0190442,0.117187001
1321,0.0717512965,-0.0190442,0.125
1322,0.0717512965,-0.0190442,0.132813007
1323,0.0717512965,-0.0190442,0.140625
1324,0.0717512965,-0.0190442,0.148436993
1325,0.0717512965,-0.0190442,0.15625
1326,0.0717512965,-0.0190442,0.164061993
1327,0.0717512965,-0.0190442,0.171875
1328,0.0717512965,-0.0190442,0.179686993
1329,0.0717512965,-0.0190442,0.1875
1330,0.0717512965,-0.0190442,0.195311993
1331,0.0717512965,-0.0190442,0.203125
1332,0.0717512965,-0.0190442,0.210936993
1333,0.0717512965,-0.0190442,0.21875
1334,0.0717512965,-0.0190442,0.226561993
1335,0.0717512965,-0.0190442,0.234375
1336,0.0717512965,-0.0190442,0.242186993
1337,0.0717512965,-0.0190442,0.25
1338,0.0717512965,-0.0190442,0.257811993
1339,0.0717512965,-0.0190442,0.265625
1340,0.0717512965,-0.0190442,0.273436993
1341,0.0717512965,-0.0190442,0.28125
1342,0.0717512965,-0.0190442,0.289061993
1343,0.0717512965,-0.0190442,0.296875
1344,0.0717512965,-0.0190442,0.304686993
1345,0.0717512965,-0.0190442,0.3125
1346,0.0717512965,-0.0190442,0.320311993
1347,0.0717512965,-0.0190442,0.328125
1348,0.0717512965,-0.0190442,0.335936993
1349,0.0717512965,-0.0190442,0.34375
1350,0.0717512965,-0.0190442,0.351563007
1351,0.0717512965,-0.0190442,0.359375
1352,0.0717512965,-0.0190442,0.367186993
1353,0.0717512965,-0.0190442,0.375
1354,0.0738475993,0.0177807994,-0.390495002
1355,0.0738475993,0.0177807994,0.390495002
1356,0.0749758035,9.0025402e-05,-0.39607501
1357,0.0750240013,-9.0086098e-05,0.39607501
1358,0.0758617967,-0.0176739004,-0.390505999
1359,0.0758617967,-0.0176739004,0.390505999
1360,0.0783269033,0.0194946006,-0.375
1361,0.0783269033,0.0194946006,-0.367188007
1362,0.0783269033,0.0194946006,-0.359375
1363,0.0783269033,0.0194946006,-0.351561993
1364,0.0783269033,0.0194946006,-0.34375
1365,0.0783269033,0.0194946006,-0.335938007
1366,0.0783269033,0.0194946006,-0.328125
1367,0.0783269033,0.0194946006,-0.320311993
1368,0.0783269033,0.0194946006,-0.3125
1369,0.0783269033,0.0194946006,-0.304688007
1370,0.0783269033,0.0194946006,-0.296875
1371,0.0783269033,0.0194946006,-0.289063007
1372,0.0783269033,0.0194946006,-0.28125
1373,0.0783269033,0.0194946006,-0.273438007
1374,0.0783269033,0.0194946006,-0.265625
1375,0.0783269033,0.0194946006,-0.257811993
1376,0.0783269033,0.0194946006,-0.25
1377,0.0783269033,0.0194946006,-0.242186993
1378,0.0783269033,0.0194946006,-0.234375
1379,0.0783269033,0.0194946006,-0.226563007
1380,0.0783269033,0.0194946006,-0.21875
1381,0.0783269033,0.0194946006,-0.210938007
1382,0.0783269033,0.0194946006,-0.203125
1383,0.0783269033,0.0194946006,-0.195311993
1384,0.0783269033,0.0194946006,-0.1875
1385,0.0783269033,0.0194946006,-0.179688007
1386,0.0783269033,0.0194946006,-0.171875
1387,0.0783269033,0.0194946006,-0.164063007
1388,0.0783269033,0.0194946006,-0.15625
1389,0.0783269033,0.0194946006,-0.148438007
1390,0.0783269033,0.0194946006,-0.140625
1391,0.0783269033,0.0194946006,-0.132813007
1392,0.0783269033,0.0194946006,-0.125
1393,0.0783269033,0.0194946006,-0.117187999
1394,0.0783269033,0.0194946006,-0.109375
1395,0.0783269033,0.0194946006,-0.101562999
1396,0.0783269033,0.0194946006,-0.09375
1397,0.0783269033,0.0194946006,-0.0859375
1398,0.0783269033,0.0194946006,-0.078125
1399,0.0783269033,0.0194946006,-0.0703125
1400,0.0783269033,0.0194946006,-0.0625
1401,0.0783269033,0.0194946006,-0.0546875
1402,0.0783269033,0.0194946006,-0.046875
1403,0.0783269033,0.0194946006,-0.0390625
1404,0.0783269033,0.0194946006,-0.03125
1405,0.0783269033,0.0194946006,-0.0234375
1406,0.0783269033,0.0194946006,-0.015625
1407,0.0783269033,0.0194946006,-0.0078125
1408,0.0783269033,0.0194946006,0
1409,0.0783269033,0.0194946006,0.0078125
1410,0.0783269033,0.0194946006,0.015625
1411,0.0783269033,0.0194946006,0.0234375
1412,0.0783269033,0.0194946006,0.03125
1413,0.0783269033,0.0194946006,0.0390625
1414,0.0783269033,0.0194946006,0.046875
1415,0.0783269033,0.0194946006,0.0546875
1416,0.0783269033,0.0194946006,0.0625
1417,0.0783269033,0.0194946006,0.0703125
1418,0.0783269033,0.0194946006,0.078125
1419,0.0783269033,0.0194946006,0.0859375
1420,0.0783269033,0.0194946006,0.09375
1421,0.0783269033,0.0194946006,0.101562999
1422,0.0783269033,0.0194946006,0.109375
1423,0.0783269033,0.0194946006,0.117187001
1424,0.0783269033,0.0194946006,0.125
1425,0.0783269033,0.0194946006,0.132811993
1426,0.0783269033,0.0194946006,0.140625
1427,0.0783269033,0.0194946006,0.148436993
1428,0.0783269033,0.0194946006,0.15625
1429,0.0783269033,0.0194946006,0.164063007
1430,0.0783269033,0.0194946006,0.171875
1431,0.0783269033,0.0194946006,0.179686993
1432,0.0783269033,0.0194946006,0.1875
1433,0.0783269033,0.0194946006,0.195311993
1434,0.0783269033,0.0194946006,0.203125
1435,0.0783269033,0.0194946006,0.210938007
1436,0.0783269033,0.0194946006,0.21875
1437,0.0783269033,0.0194946006,0.226563007
1438,0.0783269033,0.0194946006,0.234375
1439,0.0783269033,0.0194946006,0.242188007
1440,0.0783269033,0.0194946006,0.25
1441,0.0783269033,0.0194946006,0.257813007
1442,0.0783269033,0.0194946006,0.265625
1443,0.0783269033,0.0194946006,0.273438007
1444,0.0783269033,0.0194946006,0.28125
1445,0.0783269033,0.0194946006,0.289063007
1446,0.0783269033,0.0194946006,0.296875
1447,0.0783269033,0.0194946006,0.304688007
1448,0.0783269033,0.0194946006,0.3125
1449,0.0783269033,0.0194946006,0.320313007
1450,0.0783269033,0.0194946006,0.328125
1451,0.0783269033,0.0194946006,0.335936993
1452,0.0783269033,0.0194946006,0.34375
1453,0.0783269033,0.0194946006,0.351563007
1454,0.0783269033,0.0194946006,0.359375
1455,0.0783269033,0.0194946006,0.367186993
1456,0.0783269033,0.0194946006,0.375
1457,0.0784142986,0.0195189007,-0.382604003
1458,0.0784142986,0.0195189007,0.382604003
1459,0.0788588971,0.0196426995,-0.388446003
1460,0.0788588971,0.0196426995,0.388446003
1461,0.0798261985,-0.0169689003,-0.395734996
1462,0.0798261985,-0.0169689003,0.395734996
1463,0.0852662995,0.0209787004,-0.391160995
1464,0.0852662995,0.0209787004,0.391160995
1465,0.0864052027,0.00316804997,-0.396753997
1466,0.0864728019,0.00296208006,0.396753997
1467,0.0877562016,0.0220503006,-0.388965011
1468,0.0877562016,0.0220503006,0.388965011
1469,0.0877616033,0.00353334006,-0.393519014
1470,0.0878155008,0.00332003995,0.393519014
1471,0.0878890976,-0.0132702999,-0.359412998
1472,0.0878890976,-0.0132702999,0.359412998
1473,0.0879764035,-0.0136094,-0.367208987
1474,0.0879764035,-0.0136094,0.367208987
1475,0.0880291015,-0.0143200997,-0.382831007
1476,0.0880291015,-0.0143200997,0.382831007
1477,0.088063702,-0.0139483996,-0.37500599
1478,0.088063702,-0.0139483996,0.37500599
1479,0.0881363004,-0.0146385999,-0.390294999
1480,0.0881363004,-0.0146385999,0.390294999
1481,0.0883435011,-0.0150351999,-0.351561993
1482,0.0883435011,-0.0150351999,-0.34375
1483,0.0883435011,-0.0150351999,-0.335938007
1484,0.0883435011,-0.0150351999,-0.328125
1485,0.0883435011,-0.0150351999,-0.320311993
1486,0.0883435011,-0.0150351999,-0.3125
1487,0.0883435011,-0.0150351999,-0.304688007
1488,0.0883435011,-0.0150351999,-0.296875
1489,0.0883435011,-0.0150351999,-0.289063007
1490,0.0883435011,-0.0150351999,-0.28125
1491,0.0883435011,-0.0150351999,-0.273438007
1492,0.0883435011,-0.0150351999,-0.265625
1493,0.0883435011,-0.0150351999,-0.257811993
1494,0.0883435011,-0.0150351999,-0.25
1495,0.0883435011,-0.0150351999,-0.242188007
1496,0.0883435011,-0.0150351999,-0.234375
1497,0.0883435011,-0.0150351999,-0.226563007
1498,0.0883435011,-0.0150351999,-0.21875
1499,0.0883435011,-0.0150351999,-0.210938007
1500,0.0883435011,-0.0150351999,-0.203125
1501,0.0883435011,-0.0150351999,-0.195311993
1502,0.0883435011,-0.0150351999,-0.1875
1503,0.0883435011,-0.0150351999,-0.179688007
1504,0.0883435011,-0.0150351999,-0.171875
1505,0.0883435011,-0.0150351999,-0.164063007
1506,0.0883435011,-0.0150351999,-0.15625
1507,0.0883435011,-0.0150351999,-0.148438007
1508,0.0883435011,-0.0150351999,-0.140625
1509,0.0883435011,-0.0150351999,-0.132813007
1510,0.0883435011,-0.0150351999,-0.125
1511,0.0883435011,-0.0150351999,-0.117187001
1512,0.0883435011,-0.0150351999,-0.109375
1513,0.0883435011,-0.0150351999,-0.101562001
1514,0.0883435011,-0.0150351999,-0.09375
1515,0.0883435011,-0.0150351999,-0.0859375
1516,0.0883435011,-0.0150351999,-0.078125
1517,0.0883435011,-0.0150351999,-0.0703125
1518,0.0883435011,-0.0150351999,-0.0625
1519,0.0883435011,-0.0150351999,-0.0546875
1520,0.0883435011,-0.0150351999,-0.046875
1521,0.0883435011,-0.0150351999,-0.0390625
1522,0.0883435011,-0.0150351999,-0.03125
1523,0.0883435011,-0.0150351999,-0.0234375
1524,0.0883435011,-0.0150351999,-0.015625
1525,0.0883435011,-0.0150351999,-0.0078125
1526,0.0883435011,-0.0150351999,0
1527,0.0883435011,-0.0150351999,0.0078125
1528,0.0883435011,-0.0150351999,0.015625
1529,0.0883435011,-0.0150351999,0.0234375
1530,0.0883435011,-0.0150351999,0.03125
1531,0.0883435011,-0.0150351999,0.0390625
1532,0.0883435011,-0.0150351999,0.046875
1533,0.0883435011,-0.0150351999,0.0546875
1534,0.0883435011,-0.0150351999,0.0625
1535,0.0883435011,-0.0150351999,0.0703125
1536,0.0883435011,-0.0150351999,0.078125
1537,0.0883435011,-0.0150351999,0.0859375
1538,0.0883435011,-0.0150351999,0.09375
1539,0.0883435011,-0.0150351999,0.101562999
1540,0.0883435011,-0.0150351999,0.109375
1541,0.0883435011,-0.0150351999,0.117187999
1542,0.0883435011,-0.0150351999,0.125
1543,0.0883435011,-0.0150351999,0.132811993
1544,0.0883435011,-0.0150351999,0.140625
1545,0.0883435011,-0.0150351999,0.148436993
1546,0.0883435011,-0.0150351999,0.15625
1547,0.0883435011,-0.0150351999,0.164061993
1548,0.0883435011,-0.0150351999,0.171875
1549,0.0883435011,-0.0150351999,0.179688007
1550,0.0883435011,-0.0150351999,0.1875
1551,0.0883435011,-0.0150351999,0.195311993
1552,0.0883435011,-0.0150351999,0.203125
1553,0.0883435011,-0.0150351999,0.210936993
1554,0.0883435011,-0.0150351999,0.21875
1555,0.0883435011,-0.0150351999,0.226563007
1556,0.0883435011,-0.0150351999,0.234375
1557,0.0883435011,-0.0150351999,0.242188007
1558,0.0883435011,-0.0150351999,0.25
1559,0.0883435011,-0.0150351999,0.257811993
1560,0.0883435011,-0.0150351999,0.265625
1561,0.0883435011,-0.0150351999,0.273438007
1562,0.0883435011,-0.0150351999,0.28125
1563,0.0883435011,-0.0150351999,0.289061993
1564,0.0883435011,-0.0150351999,0.296875
1565,0.0883435011,-0.0150351999,0.304686993
1566,0.0883435011,-0.0150351999,0.3125
1567,0.0883435011,-0.0150351999,0.320313007
1568,0.0883435011,-0.0150351999,0.328125
1569,0.0883435011,-0.0150351999,0.335938007
1570,0.0883435011,-0.0150351999,0.34375
1571,0.0883435011,-0.0150351999,0.351563007
1572,0.0887295008,0.0223053005,-0.382600993
1573,0.0887295008,0.0223053005,0.382600993
1574,0.0887589008,0.0223130006,-0.375
1575,0.0887589008,0.0223130006,-0.367188007
1576,0.0887589008,0.0223130006,-0.359375
1577,0.0887589008,0.0223130006,-0.351561993
1578,0.0887589008,0.0223130006,-0.34375
1579,0.0887589008,0.0223130006,-0.335938007
1580,0.0887589008,0.0223130006,-0.328125
1581,0.0887589008,0.0223130006,-0.320311993
1582,0.0887589008,0.0223130006,-0.3125
1583,0.0887589008,0.0223130006,-0.304688007
1584,0.0887589008,0.0223130006,-0.296875
1585,0.0887589008,0.0223130006,-0.289063007
1586,0.0887589008,0.0223130006,-0.28125
1587,0.0887589008,0.0223130006,-0.273438007
1588,0.0887589008,0.0223130006,-0.265625
1589,0.0887589008,0.0223130006,-0.257811993
1590,0.0887589008,0.0223130006,-0.25
1591,0.0887589008,0.0223130006,-0.242188007
1592,0.0887589008,0.0223130006,-0.234375
1593,0.0887589008,0.0223130006,-0.226561993
1594,0.0887589008,0.0223130006,-0.21875
1595,0.0887589008,0.0223130006,-0.210938007
1596,0.0887589008,0.0223130006,-0.203125
1597,0.0887589008,0.0223130006,-0.195313007
1598,0.0887589008,0.0223130006,-0.1875
1599,0.0887589008,0.0223130006,-0.179688007
1600,0.0887589008,0.0223130006,-0.171875
1601,0.0887589008,0.0223130006,-0.164063007
1602,0.0887589008,0.0223130006,-0.15625
1603,0.0887589008,0.0223130006,-0.148438007
1604,0.0887589008,0.0223130006,-0.140625
1605,0.0887589008,0.0223130006,-0.132813007
1606,0.0887589008,0.0223130006,-0.125
1607,0.0887589008,0.0223130006,-0.117187999
1608,0.0887589008,0.0223130006,-0.109375
1609,0.0887589008,0.0223130006,-0.101562999
1610,0.0887589008,0.0223130006,-0.09375
1611,0.0887589008,0.0223130006,-0.0859375
1612,0.0887589008,0.0223130006,-0.078125
1613,0.0887589008,0.0223130006,-0.0703125
1614,0.0887589008,0.0223130006,-0.0625
1615,0.0887589008,0.0223130006,-0.0546875
1616,0.0887589008,0.0223130006,-0.046875
1617,0.0887589008,0.0223130006,-0.0390625
1618,0.0887589008,0.0223130006,-0.03125
1619,0.0887589008,0.0223130006,-0.0234375
1620,0.0887589008,0.0223130006,-0.015625
1621,0.0887589008,0.0223130006,-0.0078125
1622,0.0887589008,0.0223130006,1e-12
1623,0.0887589008,0.0223130006,0.0078125
1624,0.0887589008,0.0223130006,0.015625
1625,0.0887589008,0.0223130006,0.0234375
1626,0.0887589008,0.0223130006,0.03125
1627,0.0887589008,0.0223130006,0.0390625
1628,0.0887589008,0.0223130006,0.046875
1629,0.0887589008,0.0223130006,0.0546875
1630,0.0887589008,0.0223130006,0.0625
1631,0.0887589008,0.0223130006,0.0703125
1632,0.0887589008,0.0223130006,0.078125
1633,0.0887589008,0.0223130006,0.0859375
1634,0.0887589008,0.0223130006,0.09375
1635,0.0887589008,0.0223130006,0.101562001
1636,0.0887589008,0.0223130006,0.109375
1637,0.0887589008,0.0223130006,0.117187999
1638,0.0887589008,0.0223130006,0.125
1639,0.0887589008,0.0223130006,0.132813007
1640,0.0887589008,0.0223130006,0.140625
1641,0.0887589008,0.0223130006,0.148436993
1642,0.0887589008,0.0223130006,0.15625
1643,0.0887589008,0.0223130006,0.164063007
1644,0.0887589008,0.0223130006,0.171875
1645,0.0887589008,0.0223130006,0.179688007
1646,0.0887589008,0.0223130006,0.1875
1647,0.0887589008,0.0223130006,0.195313007
1648,0.0887589008,0.0223130006,0.203125
1649,0.0887589008,0.0223130006,0.210938007
1650,0.0887589008,0.0223130006,0.21875
1651,0.0887589008,0.0223130006,0.226561993
1652,0.0887589008,0.0223130006,0.234375
1653,0.0887589008,0.0223130006,0.242186993
1654,0.0887589008,0.0223130006,0.25
1655,0.0887589008,0.0223130006,0.257813007
1656,0.0887589008,0.0223130006,0.265625
1657,0.0887589008,0.0223130006,0.273438007
1658,0.0887589008,0.0223130006,0.28125
1659,0.0887589008,0.0223130006,0.289061993
1660,0.0887589008,0.0223130006,0.296875
1661,0.0887589008,0.0223130006,0.304686993
1662,0.0887589008,0.0223130006,0.3125
1663,0.0887589008,0.0223130006,0.320313007
1664,0.0887589008,0.0223130006,0.328125
1665,0.0887589008,0.0223130006,0.335938007
1666,0.0887589008,0.0223130006,0.34375
1667,0.0887589008,0.0223130006,0.351561993
1668,0.0887589008,0.0223130006,0.359375
1669,0.0887589008,0.0223130006,0.367186993
1670,0.0887589008,0.0223130006,0.375
1671,0.0890543982,-0.0146679003,-0.396025985
1672,0.0890543982,-0.0146679003,0.396025985
1673,0.0946962982,0.00540087977,-0.394044012
1674,0.0947579965,0.00517085008,0.394044012
1675,0.0978628024,0.00625364995,-0.393085986
1676,0.0979098976,0.00601112982,0.393085986
1677,0.0981300995,0.00632563978,-0.397136003
1678,0.0982080996,0.00609062985,0.397136003
1679,0.0994564965,0.0245859008,-0.39041099
1680,0.0994564965,0.0245859008,0.39041099
1681,0.0995649025,-0.0120329997,-0.382811993
1682,0.0995649025,-0.0120329997,-0.375
1683,0.0995649025,-0.0120329997,-0.367188007
1684,0.0995649025,-0.0120329997,-0.359375
1685,0.0995649025,-0.0120329997,-0.351561993
1686,0.0995649025,-0.0120329997,-0.34375
1687,0.0995649025,-0.0120329997,-0.335938007
1688,0.0995649025,-0.0120329997,-0.328125
1689,0.0995649025,-0.0120329997,-0.320311993
1690,0.0995649025,-0.0120329997,-0.3125
1691,0.0995649025,-0.0120329997,-0.304688007
1692,0.0995649025,-0.0120329997,-0.296875
1693,0.0995649025,-0.0120329997,-0.289063007
1694,0.0995649025,-0.0120329997,-0.28125
1695,0.0995649025,-0.0120329997,-0.273438007
1696,0.0995649025,-0.0120329997,-0.265625
1697,0.0995649025,-0.0120329997,-0.257811993
1698,0.0995649025,-0.0120329997,-0.25
1699,0.0995649025,-0.0120329997,-0.242188007
1700,0.0995649025,-0.0120329997,-0.234375
1701,0.0995649025,-0.0120329997,-0.226561993
1702,0.0995649025,-0.0120329997,-0.21875
1703,0.0995649025,-0.0120329997,-0.210938007
1704,0.0995649025,-0.0120329997,-0.203125
1705,0.0995649025,-0.0120329997,-0.195313007
1706,0.0995649025,-0.0120329997,-0.1875
1707,0.0995649025,-0.0120329997,-0.179688007
1708,0.0995649025,-0.0120329997,-0.171875
1709,0.0995649025,-0.0120329997,-0.164061993
1710,0.0995649025,-0.0120329997,-0.15625
1711,0.0995649025,-0.0120329997,-0.148438007
1712,0.0995649025,-0.0120329997,-0.140625
1713,0.0995649025,-0.0120329997,-0.132811993
1714,0.0995649025,-0.0120329997,-0.125
1715,0.0995649025,-0.0120329997,-0.117187999
1716,0.0995649025,-0.0120329997,-0.109375
1717,0.0995649025,-0.0120329997,-0.101562999
1718,0.0995649025,-0.0120329997,-0.09375
1719,0.0995649025,-0.0120329997,-0.0859375
1720,0.0995649025,-0.0120329997,-0.078125
1721,0.0995649025,-0.0120329997,-0.0703125
1722,0.0995649025,-0.0120329997,-0.0625
1723,0.0995649025,-0.0120329997,-0.0546875
1724,0.0995649025,-0.0120329997,-0.046875
1725,0.0995649025,-0.0120329997,-0.0390625
1726,0.0995649025,-0.0120329997,-0.03125
1727,0.0995649025,-0.0120329997,-0.0234375
1728,0.0995649025,-0.0120329997,-0.015625
1729,0.0995649025,-0.0120329997,-0.0078125
1730,0.0995649025,-0.0120329997,0
1731,0.0995649025,-0.0120329997,0.0078125
1732,0.0995649025,-0.0120329997,0.015625
1733,0.0995649025,-0.0120329997,0.0234375
1734,0.0995649025,-0.0120329997,0.03125
1735,0.0995649025,-0.0120329997,0.0390625
1736,0.0995649025,-0.0120329997,0.046875
1737,0.0995649025,-0.0120329997,0.0546875
1738,0.0995649025,-0.0120329997,0.0625
1739,0.0995649025,-0.0120329997,0.0703125
1740,0.0995649025,-0.0120329997,0.078125
1741,0.0995649025,-0.0120329997,0.0859375
1742,0.0995649025,-0.0120329997,0.09375
1743,0.0995649025,-0.0120329997,0.101562999
1744,0.0995649025,-0.0120329997,0.109375
1745,0.0995649025,-0.0120329997,0.117187001
1746,0.0995649025,-0.0120329997,0.125
1747,0.0995649025,-0.0120329997,0.132811993
1748,0.0995649025,-0.0120329997,0.140625
1749,0.0995649025,-0.0120329997,0.148438007
1750,0.0995649025,-0.0120329997,0.15625
1751,0.0995649025,-0.0120329997,0.164063007
1752,0.0995649025,-0.0120329997,0.171875
1753,0.0995649025,-0.0120329997,0.179686993
1754,0.0995649025,-0.0120329997,0.1875
1755,0.0995649025,-0.0120329997,0.195313007
1756,0.0995649025,-0.0120329997,0.203125
1757,0.0995649025,-0.0120329997,0.210936993
1758,0.0995649025,-0.0120329997,0.21875
1759,0.0995649025,-0.0120329997,0.226563007
1760,0.0995649025,-0.0120329997,0.234375
1761,0.0995649025,-0.0120329997,0.242188007
1762,0.0995649025,-0.0120329997,0.25
1763,0.0995649025,-0.0120329997,0.257811993
1764,0.0995649025,-0.0120329997,0.265625
1765,0.0995649025,-0.0120329997,0.273438007
1766,0.0995649025,-0.0120329997,0.28125
1767,0.0995649025,-0.0120329997,0.289061993
1768,0.0995649025,-0.0120329997,0.296875
1769,0.0995649025,-0.0120329997,0.304686993
1770,0.0995649025,-0.0120329997,0.3125
1771,0.0995649025,-0.0120329997,0.320311993
1772,0.0995649025,-0.0120329997,0.328125
1773,0.0995649025,-0.0120329997,0.335936993
1774,0.0995649025,-0.0120329997,0.34375
1775,0.0995649025,-0.0120329997,0.351561993
1776,0.0995649025,-0.0120329997,0.359375
1777,0.0995649025,-0.0120329997,0.367186993
1778,0.0995649025,-0.0120329997,0.375
1779,0.0995649025,-0.0120329997,0.382813007
1780,0.0996994972,-0.0119955996,-0.390372992
1781,0.0996994972,-0.0119955996,0.390372992
1782,0.100143999,0.0251941998,-0.382764012
1783,0.100143999,0.0251941998,0.382764012
1784,0.100217,0.0252122004,-0.375
1785,0.100217,0.0252122004,-0.367188007
1786,0.100217,0.0252122004,-0.359375
1787,0.100217,0.0252122004,-0.351561993
1788,0.100217,0.0252122004,-0.34375
1789,0.100217,0.0252122004,-0.335938007
1790,0.100217,0.0252122004,-0.328125
1791,0.100217,0.0252122004,-0.320311993
1792,0.100217,0.0252122004,-0.3125
1793,0.100217,0.0252122004,-0.304688007
1794,0.100217,0.0252122004,-0.296875
1795,0.100217,0.0252122004,-0.289063007
1796,0.100217,0.0252122004,-0.28125
1797,0.100217,0.0252122004,-0.273438007
1798,0.100217,0.0252122004,-0.265625
1799,0.100217,0.0252122004,-0.257811993
1800,0.100217,0.0252122004,-0.25
1801,0.100217,0.0252122004,-0.242188007
1802,0.100217,0.0252122004,-0.234375
1803,0.100217,0.0252122004,-0.226561993
1804,0.100217,0.0252122004,-0.21875
1805,0.100217,0.0252122004,-0.210936993
1806,0.100217,0.0252122004,-0.203125
1807,0.100217,0.0252122004,-0.195311993
1808,0.100217,0.0252122004,-0.1875
1809,0.100217,0.0252122004,-0.179688007
1810,0.100217,0.0252122004,-0.171875
1811,0.100217,0.0252122004,-0.164063007
1812,0.100217,0.0252122004,-0.15625
1813,0.100217,0.0252122004,-0.148436993
1814,0.100217,0.0252122004,-0.140625
1815,0.100217,0.0252122004,-0.132813007
1816,0.100217,0.0252122004,-0.125
1817,0.100217,0.0252122004,-0.117187001
1818,0.100217,0.0252122004,-0.109375
1819,0.100217,0.0252122004,-0.101562001
1820,0.100217,0.0252122004,-0.09375
1821,0.100217,0.0252122004,-0.0859375
1822,0.100217,0.0252122004,-0.078125
1823,0.100217,0.0252122004,-0.0703125
1824,0.100217,0.0252122004,-0.0625
1825,0.100217,0.0252122004,-0.0546875
1826,0.100217,0.0252122004,-0.046875
1827,0.100217,0.0252122004,-0.0390625
1828,0.100217,0.0252122004,-0.03125
1829,0.100217,0.0252122004,-0.0234375
1830,0.100217,0.0252122004,-0.015625
1831,0.100217,0.0252122004,-0.0078125
1832,0.100217,0.0252122004,0
1833,0.100217,0.0252122004,0.0078125
1834,0.100217,0.0252122004,0.015625
1835,0.100217,0.0252122004,0.0234375
1836,0.100217,0.0252122004,0.03125
1837,0.100217,0.0252122004,0.0390625
1838,0.100217,0.0252122004,0.046875
1839,0.100217,0.0252122004,0.0546875
1840,0.100217,0.0252122004,0.0625
1841,0.100217,0.0252122004,0.0703125
1842,0.100217,0.0252122004,0.078125
1843,0.100217,0.0252122004,0.0859375
1844,0.100217,0.0252122004,0.09375
1845,0.100217,0.0252122004,0.101562999
1846,0.100217,0.0252122004,0.109375
1847,0.100217,0.0252122004,0.117187999
1848,0.100217,0.0252122004,0.125
1849,0.100217,0.0252122004,0.132813007
1850,0.100217,0.0252122004,0.140625
1851,0.100217,0.0252122004,0.148436993
1852,0.100217,0.0252122004,0.15625
1853,0.100217,0.0252122004,0.164061993
1854,0.100217,0.0252122004,0.171875
1855,0.100217,0.0252122004,0.179688007
1856,0.100217,0.0252122004,0.1875
1857,0.100217,0.0252122004,0.195313007
1858,0.100217,0.0252122004,0.203125
1859,0.100217,0.0252122004,0.210938007
1860,0.100217,0.0252122004,0.21875
1861,0.100217,0.0252122004,0.226563007
1862,0.100217,0.0252122004,0.234375
1863,0.100217,0.0252122004,0.242186993
1864,0.100217,0.0252122004,0.25
1865,0.100217,0.0252122004,0.257811993
1866,0.100217,0.0252122004,0.265625
1867,0.100217,0.0252122004,0.273438007
1868,0.100217,0.0252122004,0.28125
1869,0.100217,0.0252122004,0.289061993
1870,0.100217,0.0252122004,0.296875
1871,0.100217,0.0252122004,0.304688007
1872,0.100217,0.0252122004,0.3125
1873,0.100217,0.0252122004,0.320311993
1874,0.100217,0.0252122004,0.328125
1875,0.100217,0.0252122004,0.335936993
1876,0.100217,0.0252122004,0.34375
1877,0.100217,0.0252122004,0.351563007
1878,0.100217,0.0252122004,0.359375
1879,0.100217,0.0252122004,0.367188007
1880,0.100217,0.0252122004,0.375
1881,0.100561999,-0.011585,-0.396331012
1882,0.100561999,-0.011585,0.396331012
1883,0.102358997,0.0255497005,-0.395954013
1884,0.102358997,0.0255497005,0.395954013
1885,0.103583001,0.00779407006,-0.396854997
1886,0.103638999,0.00753844017,0.396854997
1887,0.110853001,-0.00881506037,-0.382811993
1888,0.110853001,-0.00881506037,-0.375
1889,0.110853001,-0.00881506037,-0.367188007
1890,0.110853001,-0.00881506037,-0.359375
1891,0.110853001,-0.00881506037,-0.351561993
1892,0.110853001,-0.00881506037,-0.34375
1893,0.110853001,-0.00881506037,-0.335938007
1894,0.110853001,-0.00881506037,-0.328125
1895,0.110853001,-0.00881506037,-0.320311993
1896,0.110853001,-0.00881506037,-0.3125
1897,0.110853001,-0.00881506037,-0.304686993
1898,0.110853001,-0.00881506037,-0.296875
1899,0.110853001,-0.00881506037,-0.289063007
1900,0.110853001,-0.00881506037,-0.28125
1901,0.110853001,-0.00881506037,-0.273436993
1902,0.110853001,-0.00881506037,-0.265625
1903,0.110853001,-0.00881506037,-0.257811993
1904,0.110853001,-0.00881506037,-0.25
1905,0.110853001,-0.00881506037,-0.242186993
1906,0.110853001,-0.00881506037,-0.234375
1907,0.110853001,-0.00881506037,-0.226561993
1908,0.110853001,-0.00881506037,-0.21875
1909,0.110853001,-0.00881506037,-0.210936993
1910,0.110853001,-0.00881506037,-0.203125
1911,0.110853001,-0.00881506037,-0.195313007
1912,0.110853001,-0.00881506037,-0.1875
1913,0.110853001,-0.00881506037,-0.179686993
1914,0.110853001,-0.00881506037,-0.171875
1915,0.110853001,-0.00881506037,-0.164061993
1916,0.110853001,-0.00881506037,-0.15625
1917,0.110853001,-0.00881506037,-0.148438007
1918,0.110853001,-0.00881506037,-0.140625
1919,0.110853001,-0.00881506037,-0.132813007
1920,0.110853001,-0.00881506037,-0.125
1921,0.110853001,-0.00881506037,-0.117187999
1922,0.110853001,-0.00881506037,-0.109375
1923,0.110853001,-0.00881506037,-0.101562999
1924,0.110853001,-0.00881506037,-0.09375
1925,0.110853001,-0.00881506037,-0.0859375
1926,0.110853001,-0.00881506037,-0.078125
1927,0.110853001,-0.00881506037,-0.0703125
1928,0.110853001,-0.00881506037,-0.0625
1929,0.110853001,-0.00881506037,-0.0546875
1930,0.110853001,-0.00881506037,-0.046875
1931,0.110853001,-0.00881506037,-0.0390625
1932,0.110853001,-0.00881506037,-0.03125
1933,0.110853001,-0.00881506037,-0.0234375
1934,0.110853001,-0.00881506037,-0.015625
1935,0.110853001,-0.00881506037,-0.0078125
1936,0.110853001,-0.00881506037,-1e-12
1937,0.110853001,-0.00881506037,0.0078125
1938,0.110853001,-0.00881506037,0.015625
1939,0.110853001,-0.00881506037,0.0234375
1940,0.110853001,-0.00881506037,0.03125
1941,0.110853001,-0.00881506037,0.0390625
1942,0.110853001,-0.00881506037,0.046875
1943,0.110853001,-0.00881506037,0.0546875
1944,0.110853001,-0.00881506037,0.0625
1945,0.110853001,-0.00881506037,0.0703125
1946,0.110853001,-0.00881506037,0.078125
1947,0.110853001,-0.00881506037,0.0859375
1948,0.110853001,-0.00881506037,0.09375
1949,0.110853001,-0.00881506037,0.101562999
1950,0.110853001,-0.00881506037,0.109375
1951,0.110853001,-0.00881506037,0.117187999
1952,0.110853001,-0.00881506037,0.125
1953,0.110853001,-0.00881506037,0.132813007
1954,0.110853001,-0.00881506037,0.140625
1955,0.110853001,-0.00881506037,0.148436993
1956,0.110853001,-0.00881506037,0.15625
1957,0.110853001,-0.00881506037,0.164063007
1958,0.110853001,-0.00881506037,0.171875
1959,0.110853001,-0.00881506037,0.179688007
1960,0.110853001,-0.00881506037,0.1875
1961,0.110853001,-0.00881506037,0.195313007
1962,0.110853001,-0.00881506037,0.203125
1963,0.110853001,-0.00881506037,0.210938007
1964,0.110853001,-0.00881506037,0.21875
1965,0.110853001,-0.00881506037,0.226563007
1966,0.110853001,-0.00881506037,0.234375
1967,0.110853001,-0.00881506037,0.242188007
1968,0.110853001,-0.00881506037,0.25
1969,0.110853001,-0.00881506037,0.257813007
1970,0.110853001,-0.00881506037,0.265625
1971,0.110853001,-0.00881506037,0.273438007
1972,0.110853001,-0.00881506037,0.28125
1973,0.110853001,-0.00881506037,0.289061993
1974,0.110853001,-0.00881506037,0.296875
1975,0.110853001,-0.00881506037,0.304688007
1976,0.110853001,-0.00881506037,0.3125
1977,0.110853001,-0.00881506037,0.320313007
1978,0.110853001,-0.00881506037,0.328125
1979,0.110853001,-0.00881506037,0.335938007
1980,0.110853001,-0.00881506037,0.34375
1981,0.110853001,-0.00881506037,0.351561993
1982,0.110853001,-0.00881506037,0.359375
1983,0.110853001,-0.00881506037,0.367186993
1984,0.110853001,-0.00881506037,0.375
1985,0.110853001,-0.00881506037,0.382813007
1986,0.110922001,-0.00879507977,-0.390347004
1987,0.110922001,-0.00879507977,0.390347004
1988,0.111254998,0.0276666991,-0.396135002
1989,0.111254998,0.0276666991,0.396135002
1990,0.111594997,0.027919,-0.335936993
1991,0.111594997,0.027919,-0.328125
1992,0.111594997,0.027919,-0.320311993
1993,0.111594997,0.027919,-0.3125
1994,0.111594997,0.027919,-0.304688007
1995,0.111594997,0.027919,-0.296875
1996,0.111594997,0.027919,-0.289061993
1997,0.111594997,0.027919,-0.28125
1998,0.111594997,0.027919,-0.273438007
1999,0.111594997,0.027919,-0.265625
2000,0.111594997,0.027919,-0.257811993
2001,0.111594997,0.027919,-0.25
2002,0.111594997,0.027919,-0.242188007
2003,0.111594997,0.027919,-0.234375
2004,0.111594997,0.027919,-0.226561993
2005,0.111594997,0.027919,-0.21875
2006,0.111594997,0.027919,-0.210938007
2007,0.111594997,0.027919,-0.203125
2008,0.111594997,0.027919,-0.195311993
2009,0.111594997,0.027919,-0.1875
2010,0.111594997,0.027919,-0.179688007
2011,0.111594997,0.027919,-0.171875
2012,0.111594997,0.027919,-0.164063007
2013,0.111594997,0.027919,-0.15625
2014,0.111594997,0.027919,-0.148438007
2015,0.111594997,0.027919,-0.140625
2016,0.111594997,0.027919,-0.132813007
2017,0.111594997,0.027919,-0.125
2018,0.111594997,0.027919,-0.117187001
2019,0.111594997,0.027919,-0.109375
2020,0.111594997,0.027919,-0.101562999
2021,0.111594997,0.027919,-0.09375
2022,0.111594997,0.027919,-0.0859375
2023,0.111594997,0.027919,-0.078125
2024,0.111594997,0.027919,-0.0703125
2025,0.111594997,0.027919,-0.0625
2026,0.111594997,0.027919,-0.0546875
2027,0.111594997,0.027919,-0.046875
2028,0.111594997,0.027919,-0.0390625
2029,0.111594997,0.027919,-0.03125
2030,0.111594997,0.027919,-0.0234375
2031,0.111594997,0.027919,-0.015625
2032,0.111594997,0.027919,-0.0078125
2033,0.111594997,0.027919,0
2034,0.111594997,0.027919,0.0078125
2035,0.111594997,0.027919,0.015625
2036,0.111594997,0.027919,0.0234375
2037,0.111594997,0.027919,0.03125
2038,0.111594997,0.027919,0.0390625
2039,0.111594997,0.027919,0.046875
2040,0.111594997,0.027919,0.0546875
2041,0.111594997,0.027919,0.0625
2042,0.111594997,0.027919,0.0703125
2043,0.111594997,0.027919,0.078125
2044,0.111594997,0.027919,0.0859375
2045,0.111594997,0.027919,0.09375
2046,0.111594997,0.027919,0.101562001
2047,0.111594997,0.027919,0.109375
2048,0.111594997,0.027919,0.117187001
2049,0.111594997,0.027919,0.125
2050,0.111594997,0.027919,0.132811993
2051,0.111594997,0.027919,0.140625
2052,0.111594997,0.027919,0.148436993
2053,0.111594997,0.027919,0.15625
2054,0.111594997,0.027919,0.164063007
2055,0.111594997,0.027919,0.171875
2056,0.111594997,0.027919,0.179688007
2057,0.111594997,0.027919,0.1875
2058,0.111594997,0.027919,0.195311993
2059,0.111594997,0.027919,0.203125
2060,0.111594997,0.027919,0.210938007
2061,0.111594997,0.027919,0.21875
2062,0.111594997,0.027919,0.226563007
2063,0.111594997,0.027919,0.234375
2064,0.111594997,0.027919,0.242188007
2065,0.111594997,0.027919,0.25
2066,0.111594997,0.027919,0.257811993
2067,0.111594997,0.027919,0.265625
2068,0.111594997,0.027919,0.273438007
2069,0.111594997,0.027919,0.28125
2070,0.111594997,0.027919,0.289061993
2071,0.111594997,0.027919,0.296875
2072,0.111594997,0.027919,0.304688007
2073,0.111594997,0.027919,0.3125
2074,0.111594997,0.027919,0.320311993
2075,0.111594997,0.027919,0.328125
2076,0.111594997,0.027919,0.335938007
2077,0.111819997,0.0268498007,-0.37498799
2078,0.111819997,0.0268498007,0.37498799
2079,0.111850999,0.0272110999,-0.382815987
2080,0.111850999,0.0272110999,0.382815987
2081,0.111863002,-0.00851789024,-0.396467
2082,0.111863002,-0.00851789024,0.396467
2083,0.111873001,0.0275471993,-0.390235007
2084,0.111873001,0.0275471993,0.390235007
2085,0.111919999,0.0265238993,-0.367190003
2086,0.111919999,0.0265238993,0.367190003
2087,0.112020001,0.0261979997,-0.359393001
2088,0.112020001,0.0261979997,0.359393001
2089,0.112120003,0.0258721001,-0.351595014
2090,0.112120003,0.0258721001,0.351595014
2091,0.112219997,0.0255462006,-0.343796998
2092,0.112219997,0.0255462006,0.343796998
2093,0.113154002,0.0103716003,-0.398326993
2094,0.113223001,0.0100935996,0.398326993
2095,0.114850998,-0.00753901014,-0.397985011
2096,0.114850998,-0.00753901014,0.397985011
2097,0.120136,0.0296720993,-0.395886987
2098,0.120136,0.0296720993,0.395886987
2099,0.120697998,-0.00586696994,-0.396117002
2100,0.120697998,-0.00586696994,0.396117002
2101,0.121108003,-0.00574102998,-0.390363008
2102,0.121108003,-0.00574102998,0.390363008
2103,0.121191002,-0.0057157902,-0.382813007
2104,0.121191002,-0.0057157902,-0.375
2105,0.121191002,-0.0057157902,-0.367188007
2106,0.121191002,-0.0057157902,-0.359375
2107,0.121191002,-0.0057157902,-0.351561993
2108,0.121191002,-0.0057157902,-0.34375
2109,0.121191002,-0.0057157902,-0.335938007
2110,0.121191002,-0.0057157902,-0.328125
2111,0.121191002,-0.0057157902,-0.320311993
2112,0.121191002,-0.0057157902,-0.3125
2113,0.121191002,-0.0057157902,-0.304688007
2114,0.121191002,-0.0057157902,-0.296875
2115,0.121191002,-0.0057157902,-0.289061993
2116,0.121191002,-0.0057157902,-0.28125
2117,0.121191002,-0.0057157902,-0.273438007
2118,0.121191002,-0.0057157902,-0.265625
2119,0.121191002,-0.0057157902,-0.257811993
2120,0.121191002,-0.0057157902,-0.25
2121,0.121191002,-0.0057157902,-0.242188007
2122,0.121191002,-0.0057157902,-0.234375
2123,0.121191002,-0.0057157902,-0.226563007
2124,0.121191002,-0.0057157902,-0.21875
2125,0.121191002,-0.0057157902,-0.210938007
2126,0.121191002,-0.0057157902,-0.203125
2127,0.121191002,-0.0057157902,-0.195311993
2128,0.121191002,-0.0057157902,-0.1875
2129,0.121191002,-0.0057157902,-0.179688007
2130,0.121191002,-0.0057157902,-0.171875
2131,0.121191002,-0.0057157902,-0.164061993
2132,0.121191002,-0.0057157902,-0.15625
2133,0.121191002,-0.0057157902,-0.148436993
2134,0.121191002,-0.0057157902,-0.140625
2135,0.121191002,-0.0057157902,-0.132811993
2136,0.121191002,-0.0057157902,-0.125
2137,0.121191002,-0.0057157902,-0.117187999
2138,0.121191002,-0.0057157902,-0.109375
2139,0.121191002,-0.0057157902,-0.101562001
2140,0.121191002,-0.0057157902,-0.09375
2141,0.121191002,-0.0057157902,-0.0859375
2142,0.121191002,-0.0057157902,-0.078125
2143,0.121191002,-0.0057157902,-0.0703125
2144,0.121191002,-0.0057157902,-0.0625
2145,0.121191002,-0.0057157902,-0.0546875
2146,0.121191002,-0.0057157902,-0.046875
2147,0.121191002,-0.0057157902,-0.0390625
2148,0.121191002,-0.0057157902,-0.03125
2149,0.121191002,-0.0057157902,-0.0234375
2150,0.121191002,-0.0057157902,-0.015625
2151,0.121191002,-0.0057157902,-0.0078125
2152,0.121191002,-0.0057157902,0
2153,0.121191002,-0.0057157902,0.0078125
2154,0.121191002,-0.0057157902,0.015625
2155,0.121191002,-0.0057157902,0.0234375
2156,0.121191002,-0.0057157902,0.03125
2157,0.121191002,-0.0057157902,0.0390625
2158,0.121191002,-0.0057157902,0.046875
2159,0.121191002,-0.0057157902,0.0546875
2160,0.121191002,-0.0057157902,0.0625
2161,0.121191002,-0.0057157902,0.0703125
2162,0.121191002,-0.0057157902,0.078125
2163,0.121191002,-0.0057157902,0.0859375
2164,0.121191002,-0.0057157902,0.09375
2165,0.121191002,-0.0057157902,0.101562999
2166,0.121191002,-0.0057157902,0.109375
2167,0.121191002,-0.0057157902,0.117187001
2168,0.121191002,-0.0057157902,0.125
2169,0.121191002,-0.0057157902,0.132811993
2170,0.121191002,-0.0057157902,0.140625
2171,0.121191002,-0.0057157902,0.148438007
2172,0.121191002,-0.0057157902,0.15625
2173,0.121191002,-0.0057157902,0.164063007
2174,0.121191002,-0.0057157902,0.171875
2175,0.121191002,-0.0057157902,0.179688007
2176,0.121191002,-0.0057157902,0.1875
2177,0.121191002,-0.0057157902,0.195313007
2178,0.121191002,-0.0057157902,0.203125
2179,0.121191002,-0.0057157902,0.210936993
2180,0.121191002,-0.0057157902,0.21875
2181,0.121191002,-0.0057157902,0.226563007
2182,0.121191002,-0.0057157902,0.234375
2183,0.121191002,-0.0057157902,0.242186993
2184,0.121191002,-0.0057157902,0.25
2185,0.121191002,-0.0057157902,0.257811993
2186,0.121191002,-0.0057157902,0.265625
2187,0.121191002,-0.0057157902,0.273438007
2188,0.121191002,-0.0057157902,0.28125
2189,0.121191002,-0.0057157902,0.289061993
2190,0.121191002,-0.0057157902,0.296875
2191,0.121191002,-0.0057157902,0.304686993
2192,0.121191002,-0.0057157902,0.3125
2193,0.121191002,-0.0057157902,0.320313007
2194,0.121191002,-0.0057157902,0.328125
2195,0.121191002,-0.0057157902,0.335938007
2196,0.121191002,-0.0057157902,0.34375
2197,0.121191002,-0.0057157902,0.351561993
2198,0.121191002,-0.0057157902,0.359375
2199,0.121191002,-0.0057157902,0.367188007
2200,0.121191002,-0.0057157902,0.375
2201,0.121191002,-0.0057157902,0.382811993
2202,0.124047004,0.0303025004,-0.390478998
2203,0.124047004,0.0303025004,0.390478998
2204,0.124935001,0.0135442996,-0.39704299
2205,0.125018999,0.0132382,0.39704299
2206,0.126311004,-0.00397829013,-0.396595001
2207,0.126311004,-0.00397829013,0.396595001
2208,0.128206998,0.0316116996,-0.375
2209,0.128206998,0.0316116996,-0.367188007
2210,0.128206998,0.0316116996,-0.359375
2211,0.128206998,0.0316116996,-0.351561993
2212,0.128206998,0.0316116996,-0.34375
2213,0.128206998,0.0316116996,-0.335936993
2214,0.128206998,0.0316116996,-0.328125
2215,0.128206998,0.0316116996,-0.320311993
2216,0.128206998,0.0316116996,-0.3125
2217,0.128206998,0.0316116996,-0.304688007
2218,0.128206998,0.0316116996,-0.296875
2219,0.128206998,0.0316116996,-0.289063007
2220,0.128206998,0.0316116996,-0.28125
2221,0.128206998,0.0316116996,-0.273436993
2222,0.128206998,0.0316116996,-0.265625
2223,0.128206998,0.0316116996,-0.257811993
2224,0.128206998,0.0316116996,-0.25
2225,0.128206998,0.0316116996,-0.242188007
2226,0.128206998,0.0316116996,-0.234375
2227,0.128206998,0.0316116996,-0.226563007
2228,0.128206998,0.0316116996,-0.21875
2229,0.128206998,0.0316116996,-0.210936993
2230,0.128206998,0.0316116996,-0.203125
2231,0.128206998,0.0316116996,-0.195313007
2232,0.128206998,0.0316116996,-0.1875
2233,0.128206998,0.0316116996,-0.179686993
2234,0.128206998,0.0316116996,-0.171875
2235,0.128206998,0.0316116996,-0.164063007
2236,0.128206998,0.0316116996,-0.15625
2237,0.128206998,0.0316116996,-0.148438007
2238,0.128206998,0.0316116996,-0.140625
2239,0.128206998,0.0316116996,-0.132811993
2240,0.128206998,0.0316116996,-0.125
2241,0.128206998,0.0316116996,-0.117187001
2242,0.128206998,0.0316116996,-0.109375
2243,0.128206998,0.0316116996,-0.101562999
2244,0.128206998,0.0316116996,-0.09375
2245,0.128206998,0.0316116996,-0.0859375
2246,0.128206998,0.0316116996,-0.078125
2247,0.128206998,0.0316116996,-0.0703125
2248,0.128206998,0.0316116996,-0.0625
2249,0.128206998,0.0316116996,-0.0546875
2250,0.128206998,0.0316116996,-0.046875
2251,0.128206998,0.0316116996,-0.0390625
2252,0.128206998,0.0316116996,-0.03125
2253,0.128206998,0.0316116996,-0.0234375
2254,0.128206998,0.0316116996,-0.015625
2255,0.128206998,0.0316116996,-0.0078125
2256,0.128206998,0.0316116996,1e-12
2257,0.128206998,0.0316116996,0.0078125
2258,0.128206998,0.0316116996,0.015625
2259,0.128206998,0.0316116996,0.0234375
2260,0.128206998,0.0316116996,0.03125
2261,0.128206998,0.0316116996,0.0390625
2262,0.128206998,0.0316116996,0.046875
2263,0.128206998,0.0316116996,0.0546875
2264,0.128206998,0.0316116996,0.0625
2265,0.128206998,0.0316116996,0.0703125
2266,0.128206998,0.0316116996,0.078125
2267,0.128206998,0.0316116996,0.0859375
2268,0.128206998,0.0316116996,0.09375
2269,0.128206998,0.0316116996,0.101562999
2270,0.128206998,0.0316116996,0.109375
2271,0.128206998,0.0316116996,0.117187001
2272,0.128206998,0.0316116996,0.125
2273,0.128206998,0.0316116996,0.132811993
2274,0.128206998,0.0316116996,0.140625
2275,0.128206998,0.0316116996,0.148436993
2276,0.128206998,0.0316116996,0.15625
2277,0.128206998,0.0316116996,0.164063007
2278,0.128206998,0.0316116996,0.171875
2279,0.128206998,0.0316116996,0.179688007
2280,0.128206998,0.0316116996,0.1875
2281,0.128206998,0.0316116996,0.195311993
2282,0.128206998,0.0316116996,0.203125
2283,0.128206998,0.0316116996,0.210938007
2284,0.128206998,0.0316116996,0.21875
2285,0.128206998,0.0316116996,0.226561993
2286,0.128206998,0.0316116996,0.234375
2287,0.128206998,0.0316116996,0.242188007
2288,0.128206998,0.0316116996,0.25
2289,0.128206998,0.0316116996,0.257811993
2290,0.128206998,0.0316116996,0.265625
2291,0.128206998,0.0316116996,0.273436993
2292,0.128206998,0.0316116996,0.28125
2293,0.128206998,0.0316116996,0.289063007
2294,0.128206998,0.0316116996,0.296875
2295,0.128206998,0.0316116996,0.304688007
2296,0.128206998,0.0316116996,0.3125
2297,0.128206998,0.0316116996,0.320311993
2298,0.128206998,0.0316116996,0.328125
2299,0.128206998,0.0316116996,0.335938007
2300,0.128206998,0.0316116996,0.34375
2301,0.128206998,0.0316116996,0.351563007
2302,0.128206998,0.0316116996,0.359375
2303,0.128206998,0.0316116996,0.367186993
2304,0.128206998,0.0316116996,0.375
2305,0.128317997,0.0316355005,-0.382604003
2306,0.128317997,0.0316355005,0.382604003
2307,0.128831998,0.0317455009,-0.388446003
2308,0.128831998,0.0317455009,0.388446003
2309,0.135752007,0.0328352004,-0.391187996
2310,0.135752007,0.0328352004,0.391187996
2311,0.135934994,0.0165066998,-0.396831006
2312,0.136039004,0.0161760002,0.396831006
2313,0.137744993,-0.000494444976,-0.382811993
2314,0.137744993,-0.000494444976,-0.375
2315,0.137744993,-0.000494444976,-0.367188007
2316,0.137744993,-0.000494444976,-0.359375
2317,0.137744993,-0.000494444976,-0.351561993
2318,0.137744993,-0.000494444976,-0.34375
2319,0.137744993,-0.000494444976,-0.335938007
2320,0.137744993,-0.000494444976,-0.328125
2321,0.137744993,-0.000494444976,-0.320311993
2322,0.137744993,-0.000494444976,-0.3125
2323,0.137744993,-0.000494444976,-0.304688007
2324,0.137744993,-0.000494444976,-0.296875
2325,0.137744993,-0.000494444976,-0.289063007
2326,0.137744993,-0.000494444976,-0.28125
2327,0.137744993,-0.000494444976,-0.273438007
2328,0.137744993,-0.000494444976,-0.265625
2329,0.137744993,-0.000494444976,-0.257811993
2330,0.137744993,-0.000494444976,-0.25
2331,0.137744993,-0.000494444976,-0.242188007
2332,0.137744993,-0.000494444976,-0.234375
2333,0.137744993,-0.000494444976,-0.226561993
2334,0.137744993,-0.000494444976,-0.21875
2335,0.137744993,-0.000494444976,-0.210936993
2336,0.137744993,-0.000494444976,-0.203125
2337,0.137744993,-0.000494444976,-0.195311993
2338,0.137744993,-0.000494444976,-0.1875
2339,0.137744993,-0.000494444976,-0.179688007
2340,0.137744993,-0.000494444976,-0.171875
2341,0.137744993,-0.000494444976,-0.164061993
2342,0.137744993,-0.000494444976,-0.15625
2343,0.137744993,-0.000494444976,-0.148436993
2344,0.137744993,-0.000494444976,-0.140625
2345,0.137744993,-0.000494444976,-0.132811993
2346,0.137744993,-0.000494444976,-0.125
2347,0.137744993,-0.000494444976,-0.117187001
2348,0.137744993,-0.000494444976,-0.109375
2349,0.137744993,-0.000494444976,-0.101562999
2350,0.137744993,-0.000494444976,-0.09375
2351,0.137744993,-0.000494444976,-0.0859375
2352,0.137744993,-0.000494444976,-0.078125
2353,0.137744993,-0.000494444976,-0.0703125
2354,0.137744993,-0.000494444976,-0.0625
2355,0.137744993,-0.000494444976,-0.0546875
2356,0.137744993,-0.000494444976,-0.046875
2357,0.137744993,-0.000494444976,-0.0390625
2358,0.137744993,-0.000494444976,-0.03125
2359,0.137744993,-0.000494444976,-0.0234375
2360,0.137744993,-0.000494444976,-0.015625
2361,0.137744993,-0.000494444976,-0.0078125
2362,0.137744993,-0.000494444976,0
2363,0.137744993,-0.000494444976,0.0078125
2364,0.137744993,-0.000494444976,0.015625
2365,0.137744993,-0.000494444976,0.0234375
2366,0.137744993,-0.000494444976,0.03125
2367,0.137744993,-0.000494444976,0.0390625
2368,0.137744993,-0.000494444976,0.046875
2369,0.137744993,-0.000494444976,0.0546875
2370,0.137744993,-0.000494444976,0.0625
2371,0.137744993,-0.000494444976,0.0703125
2372,0.137744993,-0.000494444976,0.078125
2373,0.137744993,-0.000494444976,0.0859375
2374,0.137744993,-0.000494444976,0.09375
2375,0.137744993,-0.000494444976,0.101562999
2376,0.137744993,-0.000494444976,0.109375
2377,0.137744993,-0.000494444976,0.117187001
2378,0.137744993,-0.000494444976,0.125
2379,0.137744993,-0.000494444976,0.132813007
2380,0.137744993,-0.000494444976,0.140625
2381,0.137744993,-0.000494444976,0.148438007
2382,0.137744993,-0.000494444976,0.15625
2383,0.137744993,-0.000494444976,0.164063007
2384,0.137744993,-0.000494444976,0.171875
2385,0.137744993,-0.000494444976,0.179688007
2386,0.137744993,-0.000494444976,0.1875
2387,0.137744993,-0.000494444976,0.195313007
2388,0.137744993,-0.000494444976,0.203125
2389,0.137744993,-0.000494444976,0.210938007
2390,0.137744993,-0.000494444976,0.21875
2391,0.137744993,-0.000494444976,0.226563007
2392,0.137744993,-0.000494444976,0.234375
2393,0.137744993,-0.000494444976,0.242188007
2394,0.137744993,-0.000494444976,0.25
2395,0.137744993,-0.000494444976,0.257813007
2396,0.137744993,-0.000494444976,0.265625
2397,0.137744993,-0.000494444976,0.273438007
2398,0.137744993,-0.000494444976,0.28125
2399,0.137744993,-0.000494444976,0.289061993
2400,0.137744993,-0.000494444976,0.296875
2401,0.137744993,-0.000494444976,0.304686993
2402,0.137744993,-0.000494444976,0.3125
2403,0.137744993,-0.000494444976,0.320311993
2404,0.137744993,-0.000494444976,0.328125
2405,0.137744993,-0.000494444976,0.335938007
2406,0.137744993,-0.000494444976,0.34375
2407,0.137744993,-0.000494444976,0.351563007
2408,0.137744993,-0.000494444976,0.359375
2409,0.137744993,-0.000494444976,0.367188007
2410,0.137744993,-0.000494444976,0.375
2411,0.137744993,-0.000494444976,0.382813007
2412,0.137760997,-0.000489334983,-0.39041099
2413,0.137760997,-0.000489334983,0.39041099
2414,0.137944996,0.033654999,-0.388965011
2415,0.137944996,0.033654999,0.388965011
2416,0.138412997,-0.000113916998,-0.396281004
2417,0.138412997,-0.000113916998,0.396281004
2418,0.138763994,0.0338234007,-0.382600993
2419,0.138763994,0.0338234007,0.382600993
2420,0.138772994,0.0338250995,-0.375
2421,0.138772994,0.0338250995,-0.367188007
2422,0.138772994,0.0338250995,-0.359375
2423,0.138772994,0.0338250995,-0.351561993
2424,0.138772994,0.0338250995,-0.34375
2425,0.138772994,0.0338250995,-0.335936993
2426,0.138772994,0.0338250995,-0.328125
2427,0.138772994,0.0338250995,-0.320311993
2428,0.138772994,0.0338250995,-0.3125
2429,0.138772994,0.0338250995,-0.304688007
2430,0.138772994,0.0338250995,-0.296875
2431,0.138772994,0.0338250995,-0.289063007
2432,0.138772994,0.0338250995,-0.28125
2433,0.138772994,0.0338250995,-0.273436993
2434,0.138772994,0.0338250995,-0.265625
2435,0.138772994,0.0338250995,-0.257811993
2436,0.138772994,0.0338250995,-0.25
2437,0.138772994,0.0338250995,-0.242186993
2438,0.138772994,0.0338250995,-0.234375
2439,0.138772994,0.0338250995,-0.226561993
2440,0.138772994,0.0338250995,-0.21875
2441,0.138772994,0.0338250995,-0.210936993
2442,0.138772994,0.0338250995,-0.203125
2443,0.138772994,0.0338250995,-0.195311993
2444,0.138772994,0.0338250995,-0.1875
2445,0.138772994,0.0338250995,-0.179686993
2446,0.138772994,0.0338250995,-0.171875
2447,0.138772994,0.0338250995,-0.164061993
2448,0.138772994,0.0338250995,-0.15625
2449,0.138772994,0.0338250995,-0.148436993
2450,0.138772994,0.0338250995,-0.140625
2451,0.138772994,0.0338250995,-0.132811993
2452,0.138772994,0.0338250995,-0.125
2453,0.138772994,0.0338250995,-0.117187001
2454,0.138772994,0.0338250995,-0.109375
2455,0.138772994,0.0338250995,-0.101562999
2456,0.138772994,0.0338250995,-0.09375
2457,0.138772994,0.0338250995,-0.0859375
2458,0.138772994,0.0338250995,-0.078125
2459,0.138772994,0.0338250995,-0.0703125
2460,0.138772994,0.0338250995,-0.0625
2461,0.138772994,0.0338250995,-0.0546875
2462,0.138772994,0.0338250995,-0.046875
2463,0.138772994,0.0338250995,-0.0390625
2464,0.138772994,0.0338250995,-0.03125
2465,0.138772994,0.0338250995,-0.0234375
2466,0.138772994,0.0338250995,-0.015625
2467,0.138772994,0.0338250995,-0.0078125
2468,0.138772994,0.0338250995,0
2469,0.138772994,0.0338250995,0.0078125
2470,0.138772994,0.0338250995,0.015625
2471,0.138772994,0.0338250995,0.0234375
2472,0.138772994,0.0338250995,0.03125
2473,0.138772994,0.0338250995,0.0390625
2474,0.138772994,0.0338250995,0.046875
2475,0.138772994,0.0338250995,0.0546875
2476,0.138772994,0.0338250995,0.0625
2477,0.138772994,0.0338250995,0.0703125
2478,0.138772994,0.0338250995,0.078125
2479,0.138772994,0.0338250995,0.0859375
2480,0.138772994,0.0338250995,0.09375
2481,0.138772994,0.0338250995,0.101562001
2482,0.138772994,0.0338250995,0.109375
2483,0.138772994,0.0338250995,0.117187001
2484,0.138772994,0.0338250995,0.125
2485,0.138772994,0.0338250995,0.132813007
2486,0.138772994,0.0338250995,0.140625
2487,0.138772994,0.0338250995,0.148438007
2488,0.138772994,0.0338250995,0.15625
2489,0.138772994,0.0338250995,0.164063007
2490,0.138772994,0.0338250995,0.171875
2491,0.138772994,0.0338250995,0.179686993
2492,0.138772994,0.0338250995,0.1875
2493,0.138772994,0.0338250995,0.195311993
2494,0.138772994,0.0338250995,0.203125
2495,0.138772994,0.0338250995,0.210938007
2496,0.138772994,0.0338250995,0.21875
2497,0.138772994,0.0338250995,0.226561993
2498,0.138772994,0.0338250995,0.234375
2499,0.138772994,0.0338250995,0.242186993
2500,0.138772994,0.0338250995,0.25
2501,0.138772994,0.0338250995,0.257813007
2502,0.138772994,0.0338250995,0.265625
2503,0.138772994,0.0338250995,0.273438007
2504,0.138772994,0.0338250995,0.28125
2505,0.138772994,0.0338250995,0.289061993
2506,0.138772994,0.0338250995,0.296875
2507,0.138772994,0.0338250995,0.304688007
2508,0.138772994,0.0338250995,0.3125
2509,0.138772994,0.0338250995,0.320311993
2510,0.138772994,0.0338250995,0.328125
2511,0.138772994,0.0338250995,0.335938007
2512,0.138772994,0.0338250995,0.34375
2513,0.138772994,0.0338250995,0.351561993
2514,0.138772994,0.0338250995,0.359375
2515,0.138772994,0.0338250995,0.367188007
2516,0.138772994,0.0338250995,0.375
2517,0.147810996,0.0197049994,-0.397008002
2518,0.147925004,0.0193447992,0.397008002
2519,0.148398995,0.00301239989,-0.382811993
2520,0.148398995,0.00301239989,-0.375
2521,0.148398995,0.00301239989,-0.367188007
2522,0.148398995,0.00301239989,-0.359375
2523,0.148398995,0.00301239989,-0.351561993
2524,0.148398995,0.00301239989,-0.34375
2525,0.148398995,0.00301239989,-0.335938007
2526,0.148398995,0.00301239989,-0.328125
2527,0.148398995,0.00301239989,-0.320311993
2528,0.148398995,0.00301239989,-0.3125
2529,0.148398995,0.00301239989,-0.304688007
2530,0.148398995,0.00301239989,-0.296875
2531,0.148398995,0.00301239989,-0.289061993
2532,0.148398995,0.00301239989,-0.28125
2533,0.148398995,0.00301239989,-0.273436993
2534,0.148398995,0.00301239989,-0.265625
2535,0.148398995,0.00301239989,-0.257811993
2536,0.148398995,0.00301239989,-0.25
2537,0.148398995,0.00301239989,-0.242188007
2538,0.148398995,0.00301239989,-0.234375
2539,0.148398995,0.00301239989,-0.226561993
2540,0.148398995,0.00301239989,-0.21875
2541,0.148398995,0.00301239989,-0.210936993
2542,0.148398995,0.00301239989,-0.203125
2543,0.148398995,0.00301239989,-0.195311993
2544,0.148398995,0.00301239989,-0.1875
2545,0.148398995,0.00301239989,-0.179686993
2546,0.148398995,0.00301239989,-0.171875
2547,0.148398995,0.00301239989,-0.164061993
2548,0.148398995,0.00301239989,-0.15625
2549,0.148398995,0.00301239989,-0.148436993
2550,0.148398995,0.00301239989,-0.140625
2551,0.148398995,0.00301239989,-0.132811993
2552,0.148398995,0.00301239989,-0.125
2553,0.148398995,0.00301239989,-0.117187999
2554,0.148398995,0.00301239989,-0.109375
2555,0.148398995,0.00301239989,-0.101562001
2556,0.148398995,0.00301239989,-0.09375
2557,0.148398995,0.00301239989,-0.0859375
2558,0.148398995,0.00301239989,-0.078125
2559,0.148398995,0.00301239989,-0.0703125
2560,0.148398995,0.00301239989,-0.0625
2561,0.148398995,0.00301239989,-0.0546875
2562,0.148398995,0.00301239989,-0.046875
2563,0.148398995,0.00301239989,-0.0390625
2564,0.148398995,0.00301239989,-0.03125
2565,0.148398995,0.00301239989,-0.0234375
2566,0.148398995,0.00301239989,-0.015625
2567,0.148398995,0.00301239989,-0.0078125
2568,0.148398995,0.00301239989,-0
2569,0.148398995,0.00301239989,0.0078125
2570,0.148398995,0.00301239989,0.015625
2571,0.148398995,0.00301239989,0.0234375
2572,0.148398995,0.00301239989,0.03125
2573,0.148398995,0.00301239989,0.0390625
2574,0.148398995,0.00301239989,0.046875
2575,0.148398995,0.00301239989,0.0546875
2576,0.148398995,0.00301239989,0.0625
2577,0.148398995,0.00301239989,0.0703125
2578,0.148398995,0.00301239989,0.078125
2579,0.148398995,0.00301239989,0.0859375
2580,0.148398995,0.00301239989,0.09375
2581,0.148398995,0.00301239989,0.101562999
2582,0.148398995,0.00301239989,0.109375
2583,0.148398995,0.00301239989,0.117187999
2584,0.148398995,0.00301239989,0.125
2585,0.148398995,0.00301239989,0.132811993
2586,0.148398995,0.00301239989,0.140625
2587,0.148398995,0.00301239989,0.148436993
2588,0.148398995,0.00301239989,0.15625
2589,0.148398995,0.00301239989,0.164063007
2590,0.148398995,0.00301239989,0.171875
2591,0.148398995,0.00301239989,0.179688007
2592,0.148398995,0.00301239989,0.1875
2593,0.148398995,0.00301239989,0.195313007
2594,0.148398995,0.00301239989,0.203125
2595,0.148398995,0.00301239989,0.210936993
2596,0.148398995,0.00301239989,0.21875
2597,0.148398995,0.00301239989,0.226561993
2598,0.148398995,0.00301239989,0.234375
2599,0.148398995,0.00301239989,0.242188007
2600,0.148398995,0.00301239989,0.25
2601,0.148398995,0.00301239989,0.257811993
2602,0.148398995,0.00301239989,0.265625
2603,0.148398995,0.00301239989,0.273436993
2604,0.148398995,0.00301239989,0.28125
2605,0.148398995,0.00301239989,0.289063007
2606,0.148398995,0.00301239989,0.296875
2607,0.148398995,0.00301239989,0.304686993
2608,0.148398995,0.00301239989,0.3125
2609,0.148398995,0.00301239989,0.320313007
2610,0.148398995,0.00301239989,0.328125
2611,0.148398995,0.00301239989,0.335938007
2612,0.148398995,0.00301239989,0.34375
2613,0.148398995,0.00301239989,0.351563007
2614,0.148398995,0.00301239989,0.359375
2615,0.148398995,0.00301239989,0.367188007
2616,0.148398995,0.00301239989,0.375
2617,0.148398995,0.00301239989,0.382813007
2618,0.148480996,0.00303997006,-0.390347004
2619,0.148480996,0.00303997006,0.390347004
2620,0.149533004,0.00339182001,-0.396319985
2621,0.149533004,0.00339182001,0.396319985
2622,0.149835005,0.0356729999,-0.390480012
2623,0.149835005,0.0356729999,0.390480012
2624,0.150418997,0.0361604989,-0.382764012
2625,0.150418997,0.0361604989,0.382764012
2626,0.150478005,0.0361719988,-0.375
2627,0.150478005,0.0361719988,-0.367188007
2628,0.150478005,0.0361719988,-0.359375
2629,0.150478005,0.0361719988,-0.351561993
2630,0.150478005,0.0361719988,-0.34375
2631,0.150478005,0.0361719988,-0.335938007
2632,0.150478005,0.0361719988,-0.328125
2633,0.150478005,0.0361719988,-0.320313007
2634,0.150478005,0.0361719988,-0.3125
2635,0.150478005,0.0361719988,-0.304688007
2636,0.150478005,0.0361719988,-0.296875
2637,0.150478005,0.0361719988,-0.289061993
2638,0.150478005,0.0361719988,-0.28125
2639,0.150478005,0.0361719988,-0.273438007
2640,0.150478005,0.0361719988,-0.265625
2641,0.150478005,0.0361719988,-0.257813007
2642,0.150478005,0.0361719988,-0.25
2643,0.150478005,0.0361719988,-0.242186993
2644,0.150478005,0.0361719988,-0.234375
2645,0.150478005,0.0361719988,-0.226561993
2646,0.150478005,0.0361719988,-0.21875
2647,0.150478005,0.0361719988,-0.210936993
2648,0.150478005,0.0361719988,-0.203125
2649,0.150478005,0.0361719988,-0.195313007
2650,0.150478005,0.0361719988,-0.1875
2651,0.150478005,0.0361719988,-0.179688007
2652,0.150478005,0.0361719988,-0.171875
2653,0.150478005,0.0361719988,-0.164061993
2654,0.150478005,0.0361719988,-0.15625
2655,0.150478005,0.0361719988,-0.148436993
2656,0.150478005,0.0361719988,-0.140625
2657,0.150478005,0.0361719988,-0.132811993
2658,0.150478005,0.0361719988,-0.125
2659,0.150478005,0.0361719988,-0.117187999
2660,0.150478005,0.0361719988,-0.109375
2661,0.150478005,0.0361719988,-0.101562999
2662,0.150478005,0.0361719988,-0.09375
2663,0.150478005,0.0361719988,-0.0859375
2664,0.150478005,0.0361719988,-0.078125
2665,0.150478005,0.0361719988,-0.0703125
2666,0.150478005,0.0361719988,-0.0625
2667,0.150478005,0.0361719988,-0.0546875
2668,0.150478005,0.0361719988,-0.046875
2669,0.150478005,0.0361719988,-0.0390625
2670,0.150478005,0.0361719988,-0.03125
2671,0.150478005,0.0361719988,-0.0234375
2672,0.150478005,0.0361719988,-0.015625
2673,0.150478005,0.0361719988,-0.0078125
2674,0.150478005,0.0361719988,0
2675,0.150478005,0.0361719988,0.0078125
2676,0.150478005,0.0361719988,0.015625
2677,0.150478005,0.0361719988,0.0234375
2678,0.150478005,0.0361719988,0.03125
2679,0.150478005,0.0361719988,0.0390625
2680,0.150478005,0.0361719988,0.046875
2681,0.150478005,0.0361719988,0.0546875
2682,0.150478005,0.0361719988,0.0625
2683,0.150478005,0.0361719988,0.0703125
2684,0.150478005,0.0361719988,0.078125
2685,0.150478005,0.0361719988,0.0859375
2686,0.150478005,0.0361719988,0.09375
2687,0.150478005,0.0361719988,0.101562999
2688,0.150478005,0.0361719988,0.109375
2689,0.150478005,0.0361719988,0.117187001
2690,0.150478005,0.0361719988,0.125
2691,0.150478005,0.0361719988,0.132811993
2692,0.150478005,0.0361719988,0.140625
2693,0.150478005,0.0361719988,0.148436993
2694,0.150478005,0.0361719988,0.15625
2695,0.150478005,0.0361719988,0.164061993
2696,0.150478005,0.0361719988,0.171875
2697,0.150478005,0.0361719988,0.179686993
2698,0.150478005,0.0361719988,0.1875
2699,0.150478005,0.0361719988,0.195313007
2700,0.150478005,0.0361719988,0.203125
2701,0.150478005,0.0361719988,0.210938007
2702,0.150478005,0.0361719988,0.21875
2703,0.150478005,0.0361719988,0.226561993
2704,0.150478005,0.0361719988,0.234375
2705,0.150478005,0.0361719988,0.242186993
2706,0.150478005,0.0361719988,0.25
2707,0.150478005,0.0361719988,0.257813007
2708,0.150478005,0.0361719988,0.265625
2709,0.150478005,0.0361719988,0.273438007
2710,0.150478005,0.0361719988,0.28125
2711,0.150478005,0.0361719988,0.289061993
2712,0.150478005,0.0361719988,0.296875
2713,0.150478005,0.0361719988,0.304688007
2714,0.150478005,0.0361719988,0.3125
2715,0.150478005,0.0361719988,0.320311993
2716,0.150478005,0.0361719988,0.328125
2717,0.150478005,0.0361719988,0.335936993
2718,0.150478005,0.0361719988,0.34375
2719,0.150478005,0.0361719988,0.351563007
2720,0.150478005,0.0361719988,0.359375
2721,0.150478005,0.0361719988,0.367186993
2722,0.150478005,0.0361719988,0.375
2723,0.152861997,0.0364848003,-0.396043986
2724,0.152861997,0.0364848003,0.396043986
2725,0.153346002,0.0211957004,-0.396789998
2726,0.153438002,0.0208145995,0.396789998
2727,0.158196002,0.0063256002,-0.396037996
2728,0.158196002,0.0063256002,0.396037996
2729,0.158570006,0.00645340979,-0.390363008
2730,0.158570006,0.00645340979,0.390363008
2731,0.158639997,0.00647747982,-0.382813007
2732,0.158639997,0.00647747982,-0.375
2733,0.158639997,0.00647747982,-0.367188007
2734,0.158639997,0.00647747982,-0.359375
2735,0.158639997,0.00647747982,-0.351563007
2736,0.158639997,0.00647747982,-0.34375
2737,0.158639997,0.00647747982,-0.335938007
2738,0.158639997,0.00647747982,-0.328125
2739,0.158639997,0.00647747982,-0.320311993
2740,0.158639997,0.00647747982,-0.3125
2741,0.158639997,0.00647747982,-0.304686993
2742,0.158639997,0.00647747982,-0.296875
2743,0.158639997,0.00647747982,-0.289061993
2744,0.158639997,0.00647747982,-0.28125
2745,0.158639997,0.00647747982,-0.273436993
2746,0.158639997,0.00647747982,-0.265625
2747,0.158639997,0.00647747982,-0.257811993
2748,0.158639997,0.00647747982,-0.25
2749,0.158639997,0.00647747982,-0.242186993
2750,0.158639997,0.00647747982,-0.234375
2751,0.158639997,0.00647747982,-0.226563007
2752,0.158639997,0.00647747982,-0.21875
2753,0.158639997,0.00647747982,-0.210938007
2754,0.158639997,0.00647747982,-0.203125
2755,0.158639997,0.00647747982,-0.195313007
2756,0.158639997,0.00647747982,-0.1875
2757,0.158639997,0.00647747982,-0.179688007
2758,0.158639997,0.00647747982,-0.171875
2759,0.158639997,0.00647747982,-0.164063007
2760,0.158639997,0.00647747982,-0.15625
2761,0.158639997,0.00647747982,-0.148438007
2762,0.158639997,0.00647747982,-0.140625
2763,0.158639997,0.00647747982,-0.132811993
2764,0.158639997,0.00647747982,-0.125
2765,0.158639997,0.00647747982,-0.117187999
2766,0.158639997,0.00647747982,-0.109375
2767,0.158639997,0.00647747982,-0.101562999
2768,0.158639997,0.00647747982,-0.09375
2769,0.158639997,0.00647747982,-0.0859375
2770,0.158639997,0.00647747982,-0.078125
2771,0.158639997,0.00647747982,-0.0703125
2772,0.158639997,0.00647747982,-0.0625
2773,0.158639997,0.00647747982,-0.0546875
2774,0.158639997,0.00647747982,-0.046875
2775,0.158639997,0.00647747982,-0.0390625
2776,0.158639997,0.00647747982,-0.03125
2777,0.158639997,0.00647747982,-0.0234375
2778,0.158639997,0.00647747982,-0.015625
2779,0.158639997,0.00647747982,-0.0078125
2780,0.158639997,0.00647747982,0
2781,0.158639997,0.00647747982,0.0078125
2782,0.158639997,0.00647747982,0.015625
2783,0.158639997,0.00647747982,0.0234375
2784,0.158639997,0.00647747982,0.03125
2785,0.158639997,0.00647747982,0.0390625
2786,0.158639997,0.00647747982,0.046875
2787,0.158639997,0.00647747982,0.0546875
2788,0.158639997,0.00647747982,0.0625
2789,0.158639997,0.00647747982,0.0703125
2790,0.158639997,0.00647747982,0.078125
2791,0.158639997,0.00647747982,0.0859375
2792,0.158639997,0.00647747982,0.09375
2793,0.158639997,0.00647747982,0.101562001
2794,0.158639997,0.00647747982,0.109375
2795,0.158639997,0.00647747982,0.117187999
2796,0.158639997,0.00647747982,0.125
2797,0.158639997,0.00647747982,0.132811993
2798,0.158639997,0.00647747982,0.140625
2799,0.158639997,0.00647747982,0.148438007
2800,0.158639997,0.00647747982,0.15625
2801,0.158639997,0.00647747982,0.164063007
2802,0.158639997,0.00647747982,0.171875
2803,0.158639997,0.00647747982,0.179686993
2804,0.158639997,0.00647747982,0.1875
2805,0.158639997,0.00647747982,0.195313007
2806,0.158639997,0.00647747982,0.203125
2807,0.158639997,0.00647747982,0.210938007
2808,0.158639997,0.00647747982,0.21875
2809,0.158639997,0.00647747982,0.226561993
2810,0.158639997,0.00647747982,0.234375
2811,0.158639997,0.00647747982,0.242186993
2812,0.158639997,0.00647747982,0.25
2813,0.158639997,0.00647747982,0.257813007
2814,0.158639997,0.00647747982,0.265625
2815,0.158639997,0.00647747982,0.273436993
2816,0.158639997,0.00647747982,0.28125
2817,0.158639997,0.00647747982,0.289061993
2818,0.158639997,0.00647747982,0.296875
2819,0.158639997,0.00647747982,0.304686993
2820,0.158639997,0.00647747982,0.3125
2821,0.158639997,0.00647747982,0.320313007
2822,0.158639997,0.00647747982,0.328125
2823,0.158639997,0.00647747982,0.335938007
2824,0.158639997,0.00647747982,0.34375
2825,0.158639997,0.00647747982,0.351561993
2826,0.158639997,0.00647747982,0.359375
2827,0.158639997,0.00647747982,0.367188007
2828,0.158639997,0.00647747982,0.375
2829,0.158639997,0.00647747982,0.382813007
2830,0.162149996,0.0382805988,-0.39636001
2831,0.162149996,0.0382805988,0.39636001
2832,0.162487,0.0384779982,-0.382818997
2833,0.162487,0.0384779982,0.382818997
2834,0.162522003,0.0384844989,-0.375
2835,0.162522003,0.0384844989,-0.367188007
2836,0.162522003,0.0384844989,-0.359375
2837,0.162522003,0.0384844989,-0.351561993
2838,0.162522003,0.0384844989,-0.34375
2839,0.162522003,0.0384844989,-0.335938007
2840,0.162522003,0.0384844989,-0.328125
2841,0.162522003,0.0384844989,-0.320311993
2842,0.162522003,0.0384844989,-0.3125
2843,0.162522003,0.0384844989,-0.304688007
2844,0.162522003,0.0384844989,-0.296875
2845,0.162522003,0.0384844989,-0.289061993
2846,0.162522003,0.0384844989,-0.28125
2847,0.162522003,0.0384844989,-0.273438007
2848,0.162522003,0.0384844989,-0.265625
2849,0.162522003,0.0384844989,-0.257811993
2850,0.162522003,0.0384844989,-0.25
2851,0.162522003,0.0384844989,-0.242186993
2852,0.162522003,0.0384844989,-0.234375
2853,0.162522003,0.0384844989,-0.226561993
2854,0.162522003,0.0384844989,-0.21875
2855,0.162522003,0.0384844989,-0.210938007
2856,0.162522003,0.0384844989,-0.203125
2857,0.162522003,0.0384844989,-0.195313007
2858,0.162522003,0.0384844989,-0.1875
2859,0.162522003,0.0384844989,-0.179688007
2860,0.162522003,0.0384844989,-0.171875
2861,0.162522003,0.0384844989,-0.164061993
2862,0.162522003,0.0384844989,-0.15625
2863,0.162522003,0.0384844989,-0.148436993
2864,0.162522003,0.0384844989,-0.140625
2865,0.162522003,0.0384844989,-0.132813007
2866,0.162522003,0.0384844989,-0.125
2867,0.162522003,0.0384844989,-0.117187999
2868,0.162522003,0.0384844989,-0.109375
2869,0.162522003,0.0384844989,-0.101562001
2870,0.162522003,0.0384844989,-0.09375
2871,0.162522003,0.0384844989,-0.0859375
2872,0.162522003,0.0384844989,-0.078125
2873,0.162522003,0.0384844989,-0.0703125
2874,0.162522003,0.0384844989,-0.0625
2875,0.162522003,0.0384844989,-0.0546875
2876,0.162522003,0.0384844989,-0.046875
2877,0.162522003,0.0384844989,-0.0390625
2878,0.162522003,0.0384844989,-0.03125
2879,0.162522003,0.0384844989,-0.0234375
2880,0.162522003,0.0384844989,-0.015625
2881,0.162522003,0.0384844989,-0.0078125
2882,0.162522003,0.0384844989,-0
2883,0.162522003,0.0384844989,0.0078125
2884,0.162522003,0.0384844989,0.015625
2885,0.162522003,0.0384844989,0.0234375
2886,0.162522003,0.0384844989,0.03125
2887,0.162522003,0.0384844989,0.0390625
2888,0.162522003,0.0384844989,0.046875
2889,0.162522003,0.0384844989,0.0546875
2890,0.162522003,0.0384844989,0.0625
2891,0.162522003,0.0384844989,0.0703125
2892,0.162522003,0.0384844989,0.078125
2893,0.162522003,0.0384844989,0.0859375
2894,0.162522003,0.0384844989,0.09375
2895,0.162522003,0.0384844989,0.101562999
2896,0.162522003,0.0384844989,0.109375
2897,0.162522003,0.0384844989,0.117187999
2898,0.162522003,0.0384844989,0.125
2899,0.162522003,0.0384844989,0.132811993
2900,0.162522003,0.0384844989,0.140625
2901,0.162522003,0.0384844989,0.148436993
2902,0.162522003,0.0384844989,0.15625
2903,0.162522003,0.0384844989,0.164061993
2904,0.162522003,0.0384844989,0.171875
2905,0.162522003,0.0384844989,0.179688007
2906,0.162522003,0.0384844989,0.1875
2907,0.162522003,0.0384844989,0.195313007
2908,0.162522003,0.0384844989,0.203125
2909,0.162522003,0.0384844989,0.210938007
2910,0.162522003,0.0384844989,0.21875
2911,0.162522003,0.0384844989,0.226563007
2912,0.162522003,0.0384844989,0.234375
2913,0.162522003,0.0384844989,0.242188007
2914,0.162522003,0.0384844989,0.25
2915,0.162522003,0.0384844989,0.257813007
2916,0.162522003,0.0384844989,0.265625
2917,0.162522003,0.0384844989,0.273438007
2918,0.162522003,0.0384844989,0.28125
2919,0.162522003,0.0384844989,0.289061993
2920,0.162522003,0.0384844989,0.296875
2921,0.162522003,0.0384844989,0.304686993
2922,0.162522003,0.0384844989,0.3125
2923,0.162522003,0.0384844989,0.320313007
2924,0.162522003,0.0384844989,0.328125
2925,0.162522003,0.0384844989,0.335938007
2926,0.162522003,0.0384844989,0.34375
2927,0.162522003,0.0384844989,0.351563007
2928,0.162522003,0.0384844989,0.359375
2929,0.162522003,0.0384844989,0.367186993
2930,0.162522003,0.0384844989,0.375
2931,0.162560001,0.0381364003,-0.39032799
2932,0.162560001,0.0381364003,0.39032799
2933,0.163029999,0.0238035992,-0.398324996
2934,0.163135007,0.0233998001,0.398324996
2935,0.164074004,0.00848541036,-0.396609992
2936,0.164074004,0.00848541036,0.396609992
2937,0.173906997,0.0404633991,-0.396414995
2938,0.173906997,0.0404633991,0.396414995
2939,0.174123004,0.0406248011,-0.304688007
2940,0.174123004,0.0406248011,-0.296875
2941,0.174123004,0.0406248011,-0.289063007
2942,0.174123004,0.0406248011,-0.28125
2943,0.174123004,0.0406248011,-0.273438007
2944,0.174123004,0.0406248011,-0.265625
2945,0.174123004,0.0406248011,-0.257811993
2946,0.174123004,0.0406248011,-0.25
2947,0.174123004,0.0406248011,-0.242188007
2948,0.174123004,0.0406248011,-0.234375
2949,0.174123004,0.0406248011,-0.226561993
2950,0.174123004,0.0406248011,-0.21875
2951,0.174123004,0.0406248011,-0.210936993
2952,0.174123004,0.0406248011,-0.203125
2953,0.174123004,0.0406248011,-0.195311993
2954,0.174123004,0.0406248011,-0.1875
2955,0.174123004,0.0406248011,-0.179686993
2956,0.174123004,0.0406248011,-0.171875
2957,0.174123004,0.0406248011,-0.164061993
2958,0.174123004,0.0406248011,-0.15625
2959,0.174123004,0.0406248011,-0.148438007
2960,0.174123004,0.0406248011,-0.140625
2961,0.174123004,0.0406248011,-0.132811993
2962,0.174123004,0.0406248011,-0.125
2963,0.174123004,0.0406248011,-0.117187999
2964,0.174123004,0.0406248011,-0.109375
2965,0.174123004,0.0406248011,-0.101562001
2966,0.174123004,0.0406248011,-0.09375
2967,0.174123004,0.0406248011,-0.0859375
2968,0.174123004,0.0406248011,-0.078125
2969,0.174123004,0.0406248011,-0.0703125
2970,0.174123004,0.0406248011,-0.0625
2971,0.174123004,0.0406248011,-0.0546875
2972,0.174123004,0.0406248011,-0.046875
2973,0.174123004,0.0406248011,-0.0390625
2974,0.174123004,0.0406248011,-0.03125
2975,0.174123004,0.0406248011,-0.0234375
2976,0.174123004,0.0406248011,-0.015625
2977,0.174123004,0.0406248011,-0.0078125
2978,0.174123004,0.0406248011,0
2979,0.174123004,0.0406248011,0.0078125
2980,0.174123004,0.0406248011,0.015625
2981,0.174123004,0.0406248011,0.0234375
2982,0.174123004,0.0406248011,0.03125
2983,0.174123004,0.0406248011,0.0390625
2984,0.174123004,0.0406248011,0.046875
2985,0.174123004,0.0406248011,0.0546875
2986,0.174123004,0.0406248011,0.0625
2987,0.174123004,0.0406248011,0.0703125
2988,0.174123004,0.0406248011,0.078125
2989,0.174123004,0.0406248011,0.0859375
2990,0.174123004,0.0406248011,0.09375
2991,0.174123004,0.0406248011,0.101562999
2992,0.174123004,0.0406248011,0.109375
2993,0.174123004,0.0406248011,0.117187001
2994,0.174123004,0.0406248011,0.125
2995,0.174123004,0.0406248011,0.132811993
2996,0.174123004,0.0406248011,0.140625
2997,0.174123004,0.0406248011,0.148436993
2998,0.174123004,0.0406248011,0.15625
2999,0.174123004,0.0406248011,0.164063007
3000,0.174123004,0.0406248011,0.171875
3001,0.174123004,0.0406248011,0.179686993
3002,0.174123004,0.0406248011,0.1875
3003,0.174123004,0.0406248011,0.195311993
3004,0.174123004,0.0406248011,0.203125
3005,0.174123004,0.0406248011,0.210936993
3006,0.174123004,0.0406248011,0.21875
3007,0.174123004,0.0406248011,0.226563007
3008,0.174123004,0.0406248011,0.234375
3009,0.174123004,0.0406248011,0.242186993
3010,0.174123004,0.0406248011,0.25
3011,0.174123004,0.0406248011,0.257811993
3012,0.174123004,0.0406248011,0.265625
3013,0.174123004,0.0406248011,0.273436993
3014,0.174123004,0.0406248011,0.28125
3015,0.174123004,0.0406248011,0.289061993
3016,0.174123004,0.0406248011,0.296875
3017,0.174123004,0.0406248011,0.304688007
3018,0.174226001,0.0400555991,-0.382779002
3019,0.174226001,0.0400555991,0.382779002
3020,0.174238995,0.0403164998,-0.390350997
3021,0.174238995,0.0403164998,0.390350997
3022,0.174272001,0.0397977009,-0.374976009
3023,0.174272001,0.0397977009,0.374976009
3024,0.174318999,0.0395396985,-0.367172003
3025,0.174318999,0.0395396985,0.367172003
3026,0.174365997,0.0392818004,-0.359367996
3027,0.174365997,0.0392818004,0.359367996
3028,0.174393997,0.0268638991,-0.398341
3029,0.174411997,0.0390238017,-0.35156399
3030,0.174411997,0.0390238017,0.35156399
3031,0.174458995,0.0387658998,-0.343760997
3032,0.174458995,0.0387658998,0.343760997
3033,0.174505994,0.0385079011,-0.335956991
3034,0.174505994,0.0385079011,0.335956991
3035,0.174513996,0.0264331996,0.398341
3036,0.174553007,0.0382499993,-0.328153014
3037,0.174553007,0.0382499993,0.328153014
3038,0.174599007,0.0379920006,-0.320349991
3039,0.174599007,0.0379920006,0.320349991
3040,0.174646005,0.0377340987,-0.312546015
3041,0.174646005,0.0377340987,0.312546015
3042,0.174893007,0.0121454997,-0.390385985
3043,0.174893007,0.0121454997,0.390385985
3044,0.174939007,0.0121616004,-0.382811993
3045,0.174939007,0.0121616004,-0.375
3046,0.174939007,0.0121616004,-0.367188007
3047,0.174939007,0.0121616004,-0.359375
3048,0.174939007,0.0121616004,-0.351561993
3049,0.174939007,0.0121616004,-0.34375
3050,0.174939007,0.0121616004,-0.335938007
3051,0.174939007,0.0121616004,-0.328125
3052,0.174939007,0.0121616004,-0.320311993
3053,0.174939007,0.0121616004,-0.3125
3054,0.174939007,0.0121616004,-0.304688007
3055,0.174939007,0.0121616004,-0.296875
3056,0.174939007,0.0121616004,-0.289061993
3057,0.174939007,0.0121616004,-0.28125
3058,0.174939007,0.0121616004,-0.273438007
3059,0.174939007,0.0121616004,-0.265625
3060,0.174939007,0.0121616004,-0.257811993
3061,0.174939007,0.0121616004,-0.25
3062,0.174939007,0.0121616004,-0.242188007
3063,0.174939007,0.0121616004,-0.234375
3064,0.174939007,0.0121616004,-0.226563007
3065,0.174939007,0.0121616004,-0.21875
3066,0.174939007,0.0121616004,-0.210938007
3067,0.174939007,0.0121616004,-0.203125
3068,0.174939007,0.0121616004,-0.195311993
3069,0.174939007,0.0121616004,-0.1875
3070,0.174939007,0.0121616004,-0.179686993
3071,0.174939007,0.0121616004,-0.171875
3072,0.174939007,0.0121616004,-0.164061993
3073,0.174939007,0.0121616004,-0.15625
3074,0.174939007,0.0121616004,-0.148438007
3075,0.174939007,0.0121616004,-0.140625
3076,0.174939007,0.0121616004,-0.132813007
3077,0.174939007,0.0121616004,-0.125
3078,0.174939007,0.0121616004,-0.117187001
3079,0.174939007,0.0121616004,-0.109375
3080,0.174939007,0.0121616004,-0.101562001
3081,0.174939007,0.0121616004,-0.09375
3082,0.174939007,0.0121616004,-0.0859375
3083,0.174939007,0.0121616004,-0.078125
3084,0.174939007,0.0121616004,-0.0703125
3085,0.174939007,0.0121616004,-0.0625
3086,0.174939007,0.0121616004,-0.0546875
3087,0.174939007,0.0121616004,-0.046875
3088,0.174939007,0.0121616004,-0.0390625
3089,0.174939007,0.0121616004,-0.03125
3090,0.174939007,0.0121616004,-0.0234375
3091,0.174939007,0.0121616004,-0.015625
3092,0.174939007,0.0121616004,-0.0078125
3093,0.174939007,0.0121616004,-0
3094,0.174939007,0.0121616004,0.0078125
3095,0.174939007,0.0121616004,0.015625
3096,0.174939007,0.0121616004,0.0234375
3097,0.174939007,0.0121616004,0.03125
3098,0.174939007,0.0121616004,0.0390625
3099,0.174939007,0.0121616004,0.046875
3100,0.174939007,0.0121616004,0.0546875
3101,0.174939007,0.0121616004,0.0625
3102,0.174939007,0.0121616004,0.0703125
3103,0.174939007,0.0121616004,0.078125
3104,0.174939007,0.0121616004,0.0859375
3105,0.174939007,0.0121616004,0.09375
3106,0.174939007,0.0121616004,0.101562999
3107,0.174939007,0.0121616004,0.109375
3108,0.174939007,0.0121616004,0.117187001
3109,0.174939007,0.0121616004,0.125
3110,0.174939007,0.0121616004,0.132813007
3111,0.174939007,0.0121616004,0.140625
3112,0.174939007,0.0121616004,0.148436993
3113,0.174939007,0.0121616004,0.15625
3114,0.174939007,0.0121616004,0.164061993
3115,0.174939007,0.0121616004,0.171875
3116,0.174939007,0.0121616004,0.179686993
3117,0.174939007,0.0121616004,0.1875
3118,0.174939007,0.0121616004,0.195313007
3119,0.174939007,0.0121616004,0.203125
3120,0.174939007,0.0121616004,0.210936993
3121,0.174939007,0.0121616004,0.21875
3122,0.174939007,0.0121616004,0.226563007
3123,0.174939007,0.0121616004,0.234375
3124,0.174939007,0.0121616004,0.242188007
3125,0.174939007,0.0121616004,0.25
3126,0.174939007,0.0121616004,0.257813007
3127,0.174939007,0.0121616004,0.265625
3128,0.174939007,0.0121616004,0.273436993
3129,0.174939007,0.0121616004,0.28125
3130,0.174939007,0.0121616004,0.289061993
3131,0.174939007,0.0121616004,0.296875
3132,0.174939007,0.0121616004,0.304688007
3133,0.174939007,0.0121616004,0.3125
3134,0.174939007,0.0121616004,0.320313007
3135,0.174939007,0.0121616004,0.328125
3136,0.174939007,0.0121616004,0.335936993
3137,0.174939007,0.0121616004,0.34375
3138,0.174939007,0.0121616004,0.351563007
3139,0.174939007,0.0121616004,0.359375
3140,0.174939007,0.0121616004,0.367188007
3141,0.174939007,0.0121616004,0.375
3142,0.174939007,0.0121616004,0.382811993
3143,0.175688997,0.0125591997,-0.396470994
3144,0.175688997,0.0125591997,0.396470994
3145,0.184294999,0.0156481005,-0.396097988
3146,0.184294999,0.0156481005,0.396097988
3147,0.184689,0.0156504009,-0.390363008
3148,0.184689,0.0156504009,0.390363008
3149,0.184752002,0.0156734996,-0.382813007
3150,0.184752002,0.0156734996,-0.375
3151,0.184752002,0.0156734996,-0.367188007
3152,0.184752002,0.0156734996,-0.359375
3153,0.184752002,0.0156734996,-0.351561993
3154,0.184752002,0.0156734996,-0.34375
3155,0.184752002,0.0156734996,-0.335938007
3156,0.184752002,0.0156734996,-0.328125
3157,0.184752002,0.0156734996,-0.320311993
3158,0.184752002,0.0156734996,-0.3125
3159,0.184752002,0.0156734996,-0.304688007
3160,0.184752002,0.0156734996,-0.296875
3161,0.184752002,0.0156734996,-0.289063007
3162,0.184752002,0.0156734996,-0.28125
3163,0.184752002,0.0156734996,-0.273438007
3164,0.184752002,0.0156734996,-0.265625
3165,0.184752002,0.0156734996,-0.257811993
3166,0.184752002,0.0156734996,-0.25
3167,0.184752002,0.0156734996,-0.242188007
3168,0.184752002,0.0156734996,-0.234375
3169,0.184752002,0.0156734996,-0.226563007
3170,0.184752002,0.0156734996,-0.21875
3171,0.184752002,0.0156734996,-0.210938007
3172,0.184752002,0.0156734996,-0.203125
3173,0.184752002,0.0156734996,-0.195311993
3174,0.184752002,0.0156734996,-0.1875
3175,0.184752002,0.0156734996,-0.179688007
3176,0.184752002,0.0156734996,-0.171875
3177,0.184752002,0.0156734996,-0.164063007
3178,0.184752002,0.0156734996,-0.15625
3179,0.184752002,0.0156734996,-0.148438007
3180,0.184752002,0.0156734996,-0.140625
3181,0.184752002,0.0156734996,-0.132813007
3182,0.184752002,0.0156734996,-0.125
3183,0.184752002,0.0156734996,-0.117187001
3184,0.184752002,0.0156734996,-0.109375
3185,0.184752002,0.0156734996,-0.101562999
3186,0.184752002,0.0156734996,-0.09375
3187,0.184752002,0.0156734996,-0.0859375
3188,0.184752002,0.0156734996,-0.078125
3189,0.184752002,0.0156734996,-0.0703125
3190,0.184752002,0.0156734996,-0.0625
3191,0.184752002,0.0156734996,-0.0546875
3192,0.184752002,0.0156734996,-0.046875
3193,0.184752002,0.0156734996,-0.0390625
3194,0.184752002,0.0156734996,-0.03125
3195,0.184752002,0.0156734996,-0.0234375
3196,0.184752002,0.0156734996,-0.015625
3197,0.184752002,0.0156734996,-0.0078125
3198,0.184752002,0.0156734996,0
3199,0.184752002,0.0156734996,0.0078125
3200,0.184752002,0.0156734996,0.015625
3201,0.184752002,0.0156734996,0.0234375
3202,0.184752002,0.0156734996,0.03125
3203,0.184752002,0.0156734996,0.0390625
3204,0.184752002,0.0156734996,0.046875
3205,0.184752002,0.0156734996,0.0546875
3206,0.184752002,0.0156734996,0.0625
3207,0.184752002,0.0156734996,0.0703125
3208,0.184752002,0.0156734996,0.078125
3209,0.184752002,0.0156734996,0.0859375
3210,0.184752002,0.0156734996,0.09375
3211,0.184752002,0.0156734996,0.101562001
3212,0.184752002,0.0156734996,0.109375
3213,0.184752002,0.0156734996,0.117187001
3214,0.184752002,0.0156734996,0.125
3215,0.184752002,0.0156734996,0.132811993
3216,0.184752002,0.0156734996,0.140625
3217,0.184752002,0.0156734996,0.148436993
3218,0.184752002,0.0156734996,0.15625
3219,0.184752002,0.0156734996,0.164063007
3220,0.184752002,0.0156734996,0.171875
3221,0.184752002,0.0156734996,0.179686993
3222,0.184752002,0.0156734996,0.1875
3223,0.184752002,0.0156734996,0.195313007
3224,0.184752002,0.0156734996,0.203125
3225,0.184752002,0.0156734996,0.210936993
3226,0.184752002,0.0156734996,0.21875
3227,0.184752002,0.0156734996,0.226561993
3228,0.184752002,0.0156734996,0.234375
3229,0.184752002,0.0156734996,0.242186993
3230,0.184752002,0.0156734996,0.25
3231,0.184752002,0.0156734996,0.257813007
3232,0.184752002,0.0156734996,0.265625
3233,0.184752002,0.0156734996,0.273436993
3234,0.184752002,0.0156734996,0.28125
3235,0.184752002,0.0156734996,0.289061993
3236,0.184752002,0.0156734996,0.296875
3237,0.184752002,0.0156734996,0.304686993
3238,0.184752002,0.0156734996,0.3125
3239,0.184752002,0.0156734996,0.320311993
3240,0.184752002,0.0156734996,0.328125
3241,0.184752002,0.0156734996,0.335936993
3242,0.184752002,0.0156734996,0.34375
3243,0.184752002,0.0156734996,0.351561993
3244,0.184752002,0.0156734996,0.359375
3245,0.184752002,0.0156734996,0.367186993
3246,0.184752002,0.0156734996,0.375
3247,0.184752002,0.0156734996,0.382813007
3248,0.186243996,0.0300552007,-0.396777987
3249,0.186379001,0.0295965001,0.396777987
3250,0.186499,0.0427173004,-0.396609992
3251,0.186499,0.0427173004,0.396609992
3252,0.190651998,0.0435432009,-0.382813007
3253,0.190651998,0.0435432009,-0.375
3254,0.190651998,0.0435432009,-0.367188007
3255,0.190651998,0.0435432009,-0.359375
3256,0.190651998,0.0435432009,-0.351561993
3257,0.190651998,0.0435432009,-0.34375
3258,0.190651998,0.0435432009,-0.335938007
3259,0.190651998,0.0435432009,-0.328125
3260,0.190651998,0.0435432009,-0.320311993
3261,0.190651998,0.0435432009,-0.3125
3262,0.190651998,0.0435432009,-0.304688007
3263,0.190651998,0.0435432009,-0.296875
3264,0.190651998,0.0435432009,-0.289063007
3265,0.190651998,0.0435432009,-0.28125
3266,0.190651998,0.0435432009,-0.273438007
3267,0.190651998,0.0435432009,-0.265625
3268,0.190651998,0.0435432009,-0.257811993
3269,0.190651998,0.0435432009,-0.25
3270,0.190651998,0.0435432009,-0.242188007
3271,0.190651998,0.0435432009,-0.234375
3272,0.190651998,0.0435432009,-0.226563007
3273,0.190651998,0.0435432009,-0.21875
3274,0.190651998,0.0435432009,-0.210938007
3275,0.190651998,0.0435432009,-0.203125
3276,0.190651998,0.0435432009,-0.195311993
3277,0.190651998,0.0435432009,-0.1875
3278,0.190651998,0.0435432009,-0.179688007
3279,0.190651998,0.0435432009,-0.171875
3280,0.190651998,0.0435432009,-0.164061993
3281,0.190651998,0.0435432009,-0.15625
3282,0.190651998,0.0435432009,-0.148438007
3283,0.190651998,0.0435432009,-0.140625
3284,0.190651998,0.0435432009,-0.132813007
3285,0.190651998,0.0435432009,-0.125
3286,0.190651998,0.0435432009,-0.117187999
3287,0.190651998,0.0435432009,-0.109375
3288,0.190651998,0.0435432009,-0.101562999
3289,0.190651998,0.0435432009,-0.09375
3290,0.190651998,0.0435432009,-0.0859375
3291,0.190651998,0.0435432009,-0.078125
3292,0.190651998,0.0435432009,-0.0703125
3293,0.190651998,0.0435432009,-0.0625
3294,0.190651998,0.0435432009,-0.0546875
3295,0.190651998,0.0435432009,-0.046875
3296,0.190651998,0.0435432009,-0.0390625
3297,0.190651998,0.0435432009,-0.03125
3298,0.190651998,0.0435432009,-0.0234375
3299,0.190651998,0.0435432009,-0.015625
3300,0.190651998,0.0435432009,-0.0078125
3301,0.190651998,0.0435432009,0
3302,0.190651998,0.0435432009,0.0078125
3303,0.190651998,0.0435432009,0.015625
3304,0.190651998,0.0435432009,0.0234375
3305,0.190651998,0.0435432009,0.03125
3306,0.190651998,0.0435432009,0.0390625
3307,0.190651998,0.0435432009,0.046875
3308,0.190651998,0.0435432009,0.0546875
3309,0.190651998,0.0435432009,0.0625
3310,0.190651998,0.0435432009,0.0703125
3311,0.190651998,0.0435432009,0.078125
3312,0.190651998,0.0435432009,0.0859375
3313,0.190651998,0.0435432009,0.09375
3314,0.190651998,0.0435432009,0.101562001
3315,0.190651998,0.0435432009,0.109375
3316,0.190651998,0.0435432009,0.117187001
3317,0.190651998,0.0435432009,0.125
3318,0.190651998,0.0435432009,0.132811993
3319,0.190651998,0.0435432009,0.140625
3320,0.190651998,0.0435432009,0.148436993
3321,0.190651998,0.0435432009,0.15625
3322,0.190651998,0.0435432009,0.164063007
3323,0.190651998,0.0435432009,0.171875
3324,0.190651998,0.0435432009,0.179686993
3325,0.190651998,0.0435432009,0.1875
3326,0.190651998,0.0435432009,0.195313007
3327,0.190651998,0.0435432009,0.203125
3328,0.190651998,0.0435432009,0.210936993
3329,0.190651998,0.0435432009,0.21875
3330,0.190651998,0.0435432009,0.226561993
3331,0.190651998,0.0435432009,0.234375
3332,0.190651998,0.0435432009,0.242186993
3333,0.190651998,0.0435432009,0.25
3334,0.190651998,0.0435432009,0.257813007
3335,0.190651998,0.0435432009,0.265625
3336,0.190651998,0.0435432009,0.273436993
3337,0.190651998,0.0435432009,0.28125
3338,0.190651998,0.0435432009,0.289061993
3339,0.190651998,0.0435432009,0.296875
3340,0.190651998,0.0435432009,0.304686993
3341,0.190651998,0.0435432009,0.3125
3342,0.190651998,0.0435432009,0.320311993
3343,0.190651998,0.0435432009,0.328125
3344,0.190651998,0.0435432009,0.335938007
3345,0.190651998,0.0435432009,0.34375
3346,0.190651998,0.0435432009,0.351561993
3347,0.190651998,0.0435432009,0.359375
3348,0.190651998,0.0435432009,0.367186993
3349,0.190651998,0.0435432009,0.375
3350,0.190651998,0.0435432009,0.382813007
3351,0.190781996,0.0435655005,-0.390363008
3352,0.190781996,0.0435655005,0.390363008
3353,0.191350996,0.0436634012,-0.396117002
3354,0.191350996,0.0436634012,0.396117002
3355,0.198678002,0.0328751989,0.396605015
3356,0.200286999,0.0250463001,-0.281298012
3357,0.200286999,0.0250463001,0.281298012
3358,0.200345993,0.0248256009,-0.289104015
3359,0.200345993,0.0248256009,0.289104015
3360,0.200396001,0.0246034004,-0.296909988
3361,0.200396001,0.0246034004,0.296909988
3362,0.200433999,0.0243791007,-0.304715991
3363,0.200433999,0.0243791007,0.304715991
3364,0.200471997,0.0241548009,-0.312521994
3365,0.200471997,0.0241548009,0.312521994
3366,0.200510994,0.0239305999,-0.320327997
3367,0.200510994,0.0239305999,0.320327997
3368,0.200549006,0.0237063002,-0.328134
3369,0.200549006,0.0237063002,0.328134
3370,0.200587004,0.0234820992,-0.33593899
3371,0.200587004,0.0234820992,0.33593899
3372,0.200625002,0.0232577994,-0.343744993
3373,0.200625002,0.0232577994,0.343744993
3374,0.200651005,0.0452398993,-0.396530002
3375,0.200651005,0.0452403016,0.396530002
3376,0.200669006,0.0230345,-0.351550996
3377,0.200669006,0.0230345,0.351550996
3378,0.200752005,0.0228179004,-0.359356999
3379,0.200752005,0.0228179004,0.359356999
3380,0.200835004,0.0226013009,-0.367161989
3381,0.200835004,0.0226013009,0.367161989
3382,0.200919002,0.0223848,-0.374967992
3383,0.200919002,0.0223848,0.374967992
3384,0.200981006,0.0340238996,-0.398328006
3385,0.201002002,0.0221682005,-0.382773995
3386,0.201002002,0.0221682005,0.382773995
3387,0.201083004,0.0219579991,-0.390349001
3388,0.201083004,0.0219579991,0.390349001
3389,0.201104999,0.0335235,0.398328006
3390,0.201233998,0.0217080005,-0.273438007
3391,0.201233998,0.0217080005,-0.265625
3392,0.201233998,0.0217080005,-0.257811993
3393,0.201233998,0.0217080005,-0.25
3394,0.201233998,0.0217080005,-0.242188007
3395,0.201233998,0.0217080005,-0.234375
3396,0.201233998,0.0217080005,-0.226561993
3397,0.201233998,0.0217080005,-0.21875
3398,0.201233998,0.0217080005,-0.210938007
3399,0.201233998,0.0217080005,-0.203125
3400,0.201233998,0.0217080005,-0.195311993
3401,0.201233998,0.0217080005,-0.1875
3402,0.201233998,0.0217080005,-0.179688007
3403,0.201233998,0.0217080005,-0.171875
3404,0.201233998,0.0217080005,-0.164061993
3405,0.201233998,0.0217080005,-0.15625
3406,0.201233998,0.0217080005,-0.148438007
3407,0.201233998,0.0217080005,-0.140625
3408,0.201233998,0.0217080005,-0.132813007
3409,0.201233998,0.0217080005,-0.125
3410,0.201233998,0.0217080005,-0.117187999
3411,0.201233998,0.0217080005,-0.109375
3412,0.201233998,0.0217080005,-0.101562001
3413,0.201233998,0.0217080005,-0.09375
3414,0.201233998,0.0217080005,-0.0859375
3415,0.201233998,0.0217080005,-0.078125
3416,0.201233998,0.0217080005,-0.0703125
3417,0.201233998,0.0217080005,-0.0625
3418,0.201233998,0.0217080005,-0.0546875
3419,0.201233998,0.0217080005,-0.046875
3420,0.201233998,0.0217080005,-0.0390625
3421,0.201233998,0.0217080005,-0.03125
3422,0.201233998,0.0217080005,-0.0234375
3423,0.201233998,0.0217080005,-0.015625
3424,0.201233998,0.0217080005,-0.0078125
3425,0.201233998,0.0217080005,0
3426,0.201233998,0.0217080005,0.0078125
3427,0.201233998,0.0217080005,0.015625
3428,0.201233998,0.0217080005,0.0234375
3429,0.201233998,0.0217080005,0.03125
3430,0.201233998,0.0217080005,0.0390625
3431,0.201233998,0.0217080005,0.046875
3432,0.201233998,0.0217080005,0.0546875
3433,0.201233998,0.0217080005,0.0625
3434,0.201233998,0.0217080005,0.0703125
3435,0.201233998,0.0217080005,0.078125
3436,0.201233998,0.0217080005,0.0859375
3437,0.201233998,0.0217080005,0.09375
3438,0.201233998,0.0217080005,0.101562001
3439,0.201233998,0.0217080005,0.109375
3440,0.201233998,0.0217080005,0.117187999
3441,0.201233998,0.0217080005,0.125
3442,0.201233998,0.0217080005,0.132811993
3443,0.201233998,0.0217080005,0.140625
3444,0.201233998,0.0217080005,0.148436993
3445,0.201233998,0.0217080005,0.15625
3446,0.201233998,0.0217080005,0.164063007
3447,0.201233998,0.0217080005,0.171875
3448,0.201233998,0.0217080005,0.179686993
3449,0.201233998,0.0217080005,0.1875
3450,0.201233998,0.0217080005,0.195313007
3451,0.201233998,0.0217080005,0.203125
3452,0.201233998,0.0217080005,0.210938007
3453,0.201233998,0.0217080005,0.21875
3454,0.201233998,0.0217080005,0.226561993
3455,0.201233998,0.0217080005,0.234375
3456,0.201233998,0.0217080005,0.242188007
3457,0.201233998,0.0217080005,0.25
3458,0.201233998,0.0217080005,0.257811993
3459,0.201233998,0.0217080005,0.265625
3460,0.201233998,0.0217080005,0.273438007
3461,0.201254994,0.0453407988,-0.390347004
3462,0.201254994,0.0453411005,0.390347004
3463,0.201277003,0.0453444012,-0.382811993
3464,0.201277003,0.0453444012,-0.375
3465,0.201277003,0.0453444012,-0.367188007
3466,0.201277003,0.0453444012,-0.359375
3467,0.201277003,0.0453444012,-0.351561993
3468,0.201277003,0.0453444012,-0.34375
3469,0.201277003,0.0453444012,-0.335938007
3470,0.201277003,0.0453444012,-0.328125
3471,0.201277003,0.0453444012,-0.320311993
3472,0.201277003,0.0453444012,-0.3125
3473,0.201277003,0.0453444012,-0.304688007
3474,0.201277003,0.0453444012,-0.296875
3475,0.201277003,0.0453444012,-0.289063007
3476,0.201277003,0.0453444012,-0.28125
3477,0.201277003,0.0453444012,-0.273438007
3478,0.201277003,0.0453444012,-0.265625
3479,0.201277003,0.0453444012,-0.257811993
3480,0.201277003,0.0453444012,-0.25
3481,0.201277003,0.0453444012,-0.242188007
3482,0.201277003,0.0453444012,-0.234375
3483,0.201277003,0.0453444012,-0.226563007
3484,0.201277003,0.0453444012,-0.21875
3485,0.201277003,0.0453444012,-0.210936993
3486,0.201277003,0.0453444012,-0.203125
3487,0.201277003,0.0453444012,-0.195311993
3488,0.201277003,0.0453444012,-0.1875
3489,0.201277003,0.0453444012,-0.179688007
3490,0.201277003,0.0453444012,-0.171875
3491,0.201277003,0.0453444012,-0.164061993
3492,0.201277003,0.0453444012,-0.15625
3493,0.201277003,0.0453444012,-0.148438007
3494,0.201277003,0.0453444012,-0.140625
3495,0.201277003,0.0453444012,-0.132811993
3496,0.201277003,0.0453444012,-0.125
3497,0.201277003,0.0453444012,-0.117187999
3498,0.201277003,0.0453444012,-0.109375
3499,0.201277003,0.0453444012,-0.101562001
3500,0.201277003,0.0453444012,-0.09375
3501,0.201277003,0.0453444012,-0.0859375
3502,0.201277003,0.0453444012,-0.078125
3503,0.201277003,0.0453444012,-0.0703125
3504,0.201277003,0.0453444012,-0.0625
3505,0.201277003,0.0453444012,-0.0546875
3506,0.201277003,0.0453444012,-0.046875
3507,0.201277003,0.0453444012,-0.0390625
3508,0.201277003,0.0453444012,-0.03125
3509,0.201277003,0.0453444012,-0.0234375
3510,0.201277003,0.0453444012,-0.015625
3511,0.201277003,0.0453444012,-0.0078125
3512,0.201277003,0.0453444012,0
3513,0.201277003,0.0453444012,0.0078125
3514,0.201277003,0.0453444012,0.015625
3515,0.201277003,0.0453444012,0.0234375
3516,0.201277003,0.0453444012,0.03125
3517,0.201277003,0.0453444012,0.0390625
3518,0.201277003,0.0453444012,0.046875
3519,0.201277003,0.0453444012,0.0546875
3520,0.201277003,0.0453444012,0.0625
3521,0.201277003,0.0453444012,0.0703125
3522,0.201277003,0.0453444012,0.078125
3523,0.201277003,0.0453444012,0.0859375
3524,0.201277003,0.0453444012,0.09375
3525,0.201277003,0.0453444012,0.101562999
3526,0.201277003,0.0453444012,0.109375
3527,0.201277003,0.0453444012,0.117187999
3528,0.201277003,0.0453444012,0.125
3529,0.201277003,0.0453444012,0.132811993
3530,0.201277003,0.0453444012,0.140625
3531,0.201277003,0.0453444012,0.148436993
3532,0.201277003,0.0453444012,0.15625
3533,0.201277003,0.0453444012,0.164061993
3534,0.201277003,0.0453444012,0.171875
3535,0.201277003,0.0453444012,0.179686993
3536,0.201277003,0.0453444012,0.1875
3537,0.201277003,0.0453444012,0.195313007
3538,0.201277003,0.0453444012,0.203125
3539,0.201277003,0.0453444012,0.210936993
3540,0.201277003,0.0453444012,0.21875
3541,0.201277003,0.0453444012,0.226561993
3542,0.201277003,0.0453444012,0.234375
3543,0.201277003,0.0453444012,0.242186993
3544,0.201277003,0.0453444012,0.25
3545,0.201277003,0.0453444012,0.257811993
3546,0.201277003,0.0453444012,0.265625
3547,0.201277003,0.0453444012,0.273438007
3548,0.201277003,0.0453444012,0.28125
3549,0.201277003,0.0453444012,0.289063007
3550,0.201277003,0.0453444012,0.296875
3551,0.201277003,0.0453444012,0.304688007
3552,0.201277003,0.0453444012,0.3125
3553,0.201277003,0.0453444012,0.320311993
3554,0.201277003,0.0453444012,0.328125
3555,0.201277003,0.0453444012,0.335938007
3556,0.201277003,0.0453444012,0.34375
3557,0.201277003,0.0453444012,0.351561993
3558,0.201277003,0.0453444012,0.359375
3559,0.201277003,0.0453444012,0.367188007
3560,0.201277003,0.0453444012,0.375
3561,0.201277003,0.0453444012,0.382811993
3562,0.202112004,0.0221450999,-0.396434993
3563,0.211650997,0.0256043002,-0.382811993
3564,0.211650997,0.0256043002,-0.375
3565,0.211650997,0.0256043002,-0.367188007
3566,0.211650997,0.0256043002,-0.359375
3567,0.211650997,0.0256043002,-0.351561993
3568,0.211650997,0.0256043002,-0.34375
3569,0.211650997,0.0256043002,-0.335938007
3570,0.211650997,0.0256043002,-0.328125
3571,0.211650997,0.0256043002,-0.320311993
3572,0.211650997,0.0256043002,-0.3125
3573,0.211650997,0.0256043002,-0.304688007
3574,0.211650997,0.0256043002,-0.296875
3575,0.211650997,0.0256043002,-0.289063007
3576,0.211650997,0.0256043002,-0.28125
3577,0.211650997,0.0256043002,-0.273438007
3578,0.211650997,0.0256043002,-0.265625
3579,0.211650997,0.0256043002,-0.257811993
3580,0.211650997,0.0256043002,-0.25
3581,0.211650997,0.0256043002,-0.242188007
3582,0.211650997,0.0256043002,-0.234375
3583,0.211650997,0.0256043002,-0.226561993
3584,0.211650997,0.0256043002,-0.21875
3585,0.211650997,0.0256043002,-0.210938007
3586,0.211650997,0.0256043002,-0.203125
3587,0.211650997,0.0256043002,-0.195311993
3588,0.211650997,0.0256043002,-0.1875
3589,0.211650997,0.0256043002,-0.179686993
3590,0.211650997,0.0256043002,-0.171875
3591,0.211650997,0.0256043002,-0.164061993
3592,0.211650997,0.0256043002,-0.15625
3593,0.211650997,0.0256043002,-0.148438007
3594,0.211650997,0.0256043002,-0.140625
3595,0.211650997,0.0256043002,-0.132813007
3596,0.211650997,0.0256043002,-0.125
3597,0.211650997,0.0256043002,-0.117187999
3598,0.211650997,0.0256043002,-0.109375
3599,0.211650997,0.0256043002,-0.101562999
3600,0.211650997,0.0256043002,-0.09375
3601,0.211650997,0.0256043002,-0.0859375
3602,0.211650997,0.0256043002,-0.078125
3603,0.211650997,0.0256043002,-0.0703125
3604,0.211650997,0.0256043002,-0.0625
3605,0.211650997,0.0256043002,-0.0546875
3606,0.211650997,0.0256043002,-0.046875
3607,0.211650997,0.0256043002,-0.0390625
3608,0.211650997,0.0256043002,-0.03125
3609,0.211650997,0.0256043002,-0.0234375
3610,0.211650997,0.0256043002,-0.015625
3611,0.211650997,0.0256043002,-0.0078125
3612,0.211650997,0.0256043002,0
3613,0.211650997,0.0256043002,0.0078125
3614,0.211650997,0.0256043002,0.015625
3615,0.211650997,0.0256043002,0.0234375
3616,0.211650997,0.0256043002,0.03125
3617,0.211650997,0.0256043002,0.0390625
3618,0.211650997,0.0256043002,0.046875
3619,0.211650997,0.0256043002,0.0546875
3620,0.211650997,0.0256043002,0.0625
3621,0.211650997,0.0256043002,0.0703125
3622,0.211650997,0.0256043002,0.078125
3623,0.211650997,0.0256043002,0.0859375
3624,0.211650997,0.0256043002,0.09375
3625,0.211650997,0.0256043002,0.101562999
3626,0.211650997,0.0256043002,0.109375
3627,0.211650997,0.0256043002,0.117187999
3628,0.211650997,0.0256043002,0.125
3629,0.211650997,0.0256043002,0.132811993
3630,0.211650997,0.0256043002,0.140625
3631,0.211650997,0.0256043002,0.148438007
3632,0.211650997,0.0256043002,0.15625
3633,0.211650997,0.0256043002,0.164063007
3634,0.211650997,0.0256043002,0.171875
3635,0.211650997,0.0256043002,0.179688007
3636,0.211650997,0.0256043002,0.1875
3637,0.211650997,0.0256043002,0.195311993
3638,0.211650997,0.0256043002,0.203125
3639,0.211650997,0.0256043002,0.210938007
3640,0.211650997,0.0256043002,0.21875
3641,0.211650997,0.0256043002,0.226563007
3642,0.211650997,0.0256043002,0.234375
3643,0.211650997,0.0256043002,0.242188007
3644,0.211650997,0.0256043002,0.25
3645,0.211650997,0.0256043002,0.257811993
3646,0.211650997,0.0256043002,0.265625
3647,0.211650997,0.0256043002,0.273438007
3648,0.211650997,0.0256043002,0.28125
3649,0.211650997,0.0256043002,0.289063007
3650,0.211650997,0.0256043002,0.296875
3651,0.211650997,0.0256043002,0.304688007
3652,0.211650997,0.0256043002,0.3125
3653,0.211650997,0.0256043002,0.320311993
3654,0.211650997,0.0256043002,0.328125
3655,0.211650997,0.0256043002,0.335936993
3656,0.211650997,0.0256043002,0.34375
3657,0.211650997,0.0256043002,0.351563007
3658,0.211650997,0.0256043002,0.359375
3659,0.211650997,0.0256043002,0.367186993
3660,0.211650997,0.0256043002,0.375
3661,0.211650997,0.0256043002,0.382811993
3662,0.211747006,0.0256404001,0.390347004
3663,0.211747006,0.0256405007,-0.390347004
3664,0.212495998,0.0371249989,-0.398317993
3665,0.212502003,0.0471037999,0.396564007
3666,0.212502003,0.0471039005,-0.396564007
3667,0.212633997,0.0366006009,0.398317993
3668,0.212855995,0.0261611994,0.396474004
3669,0.212856993,0.0261595994,-0.396474004
3670,0.213030994,0.0472792014,0.390372992
3671,0.213032007,0.0472741984,-0.390372992
3672,0.213113993,0.0472874008,-0.382811993
3673,0.213113993,0.0472874008,-0.375
3674,0.213113993,0.0472874008,-0.367188007
3675,0.213113993,0.0472874008,-0.359375
3676,0.213113993,0.0472874008,-0.351561993
3677,0.213113993,0.0472874008,-0.34375
3678,0.213113993,0.0472874008,-0.335938007
3679,0.213113993,0.0472874008,-0.328125
3680,0.213113993,0.0472874008,-0.320311993
3681,0.213113993,0.0472874008,-0.3125
3682,0.213113993,0.0472874008,-0.304688007
3683,0.213113993,0.0472874008,-0.296875
3684,0.213113993,0.0472874008,-0.289063007
3685,0.213113993,0.0472874008,-0.28125
3686,0.213113993,0.0472874008,-0.273438007
3687,0.213113993,0.0472874008,-0.265625
3688,0.213113993,0.0472874008,-0.257813007
3689,0.213113993,0.0472874008,-0.25
3690,0.213113993,0.0472874008,-0.242188007
3691,0.213113993,0.0472874008,-0.234375
3692,0.213113993,0.0472874008,-0.226561993
3693,0.213113993,0.0472874008,-0.21875
3694,0.213113993,0.0472874008,-0.210938007
3695,0.213113993,0.0472874008,-0.203125
3696,0.213113993,0.0472874008,-0.195311993
3697,0.213113993,0.0472874008,-0.1875
3698,0.213113993,0.0472874008,-0.179688007
3699,0.213113993,0.0472874008,-0.171875
3700,0.213113993,0.0472874008,-0.164061993
3701,0.213113993,0.0472874008,-0.15625
3702,0.213113993,0.0472874008,-0.148438007
3703,0.213113993,0.0472874008,-0.140625
3704,0.213113993,0.0472874008,-0.132813007
3705,0.213113993,0.0472874008,-0.125
3706,0.213113993,0.0472874008,-0.117187999
3707,0.213113993,0.0472874008,-0.109375
3708,0.213113993,0.0472874008,-0.101562999
3709,0.213113993,0.0472874008,-0.09375
3710,0.213113993,0.0472874008,-0.0859375
3711,0.213113993,0.0472874008,-0.078125
3712,0.213113993,0.0472874008,-0.0703125
3713,0.213113993,0.0472874008,-0.0625
3714,0.213113993,0.0472874008,-0.0546875
3715,0.213113993,0.0472874008,-0.046875
3716,0.213113993,0.0472874008,-0.0390625
3717,0.213113993,0.0472874008,-0.03125
3718,0.213113993,0.0472874008,-0.0234375
3719,0.213113993,0.0472874008,-0.015625
3720,0.213113993,0.0472874008,-0.0078125
3721,0.213113993,0.0472874008,-0
3722,0.213113993,0.0472874008,0.0078125
3723,0.213113993,0.0472874008,0.015625
3724,0.213113993,0.0472874008,0.0234375
3725,0.213113993,0.0472874008,0.03125
3726,0.213113993,0.0472874008,0.0390625
3727,0.213113993,0.0472874008,0.046875
3728,0.213113993,0.0472874008,0.0546875
3729,0.213113993,0.0472874008,0.0625
3730,0.213113993,0.0472874008,0.0703125
3731,0.213113993,0.0472874008,0.078125
3732,0.213113993,0.0472874008,0.0859375
3733,0.213113993,0.0472874008,0.09375
3734,0.213113993,0.0472874008,0.101562001
3735,0.213113993,0.0472874008,0.109375
3736,0.213113993,0.0472874008,0.117187001
3737,0.213113993,0.0472874008,0.125
3738,0.213113993,0.0472874008,0.132811993
3739,0.213113993,0.0472874008,0.140625
3740,0.213113993,0.0472874008,0.148436993
3741,0.213113993,0.0472874008,0.15625
3742,0.213113993,0.0472874008,0.164061993
3743,0.213113993,0.0472874008,0.171875
3744,0.213113993,0.0472874008,0.179686993
3745,0.213113993,0.0472874008,0.1875
3746,0.213113993,0.0472874008,0.195313007
3747,0.213113993,0.0472874008,0.203125
3748,0.213113993,0.0472874008,0.210936993
3749,0.213113993,0.0472874008,0.21875
3750,0.213113993,0.0472874008,0.226563007
3751,0.213113993,0.0472874008,0.234375
3752,0.213113993,0.0472874008,0.242186993
3753,0.213113993,0.0472874008,0.25
3754,0.213113993,0.0472874008,0.257811993
3755,0.213113993,0.0472874008,0.265625
3756,0.213113993,0.0472874008,0.273438007
3757,0.213113993,0.0472874008,0.28125
3758,0.213113993,0.0472874008,0.289063007
3759,0.213113993,0.0472874008,0.296875
3760,0.213113993,0.0472874008,0.304688007
3761,0.213113993,0.0472874008,0.3125
3762,0.213113993,0.0472874008,0.320313007
3763,0.213113993,0.0472874008,0.328125
3764,0.213113993,0.0472874008,0.335938007
3765,0.213113993,0.0472874008,0.34375
3766,0.213113993,0.0472874008,0.351563007
3767,0.213113993,0.0472874008,0.359375
3768,0.213113993,0.0472874008,0.367188007
3769,0.213113993,0.0472874008,0.375
3770,0.213113993,0.0472880006,0.382813007
3771,0.221368998,0.0292930007,-0.396117002
3772,0.221370995,0.0292885005,0.396117002
3773,0.221693993,0.0294173006,-0.390363008
3774,0.221696004,0.0294121001,0.390363008
3775,0.221752003,0.0294383001,0.382811993
3776,0.221752003,0.0294390991,-0.382813007
3777,0.221752003,0.0294390991,-0.375
3778,0.221752003,0.0294390991,-0.367188007
3779,0.221752003,0.0294390991,-0.359375
3780,0.221752003,0.0294390991,-0.351561993
3781,0.221752003,0.0294390991,-0.34375
3782,0.221752003,0.0294390991,-0.335938007
3783,0.221752003,0.0294390991,-0.328125
3784,0.221752003,0.0294390991,-0.320311993
3785,0.221752003,0.0294390991,-0.3125
3786,0.221752003,0.0294390991,-0.304688007
3787,0.221752003,0.0294390991,-0.296875
3788,0.221752003,0.0294390991,-0.289063007
3789,0.221752003,0.0294390991,-0.28125
3790,0.221752003,0.0294390991,-0.273438007
3791,0.221752003,0.0294390991,-0.265625
3792,0.221752003,0.0294390991,-0.257811993
3793,0.221752003,0.0294390991,-0.25
3794,0.221752003,0.0294390991,-0.242188007
3795,0.221752003,0.0294390991,-0.234375
3796,0.221752003,0.0294390991,-0.226563007
3797,0.221752003,0.0294390991,-0.21875
3798,0.221752003,0.0294390991,-0.210936993
3799,0.221752003,0.0294390991,-0.203125
3800,0.221752003,0.0294390991,-0.195313007
3801,0.221752003,0.0294390991,-0.1875
3802,0.221752003,0.0294390991,-0.179688007
3803,0.221752003,0.0294390991,-0.171875
3804,0.221752003,0.0294390991,-0.164063007
3805,0.221752003,0.0294390991,-0.15625
3806,0.221752003,0.0294390991,-0.148436993
3807,0.221752003,0.0294390991,-0.140625
3808,0.221752003,0.0294390991,-0.132813007
3809,0.221752003,0.0294390991,-0.125
3810,0.221752003,0.0294390991,-0.117187999
3811,0.221752003,0.0294390991,-0.109375
3812,0.221752003,0.0294390991,-0.101562001
3813,0.221752003,0.0294390991,-0.09375
3814,0.221752003,0.0294390991,-0.0859375
3815,0.221752003,0.0294390991,-0.078125
3816,0.221752003,0.0294390991,-0.0703125
3817,0.221752003,0.0294390991,-0.0625
3818,0.221752003,0.0294390991,-0.0546875
3819,0.221752003,0.0294390991,-0.046875
3820,0.221752003,0.0294390991,-0.0390625
3821,0.221752003,0.0294390991,-0.03125
3822,0.221752003,0.0294390991,-0.0234375
3823,0.221752003,0.0294390991,-0.015625
3824,0.221752003,0.0294390991,-0.0078125
3825,0.221752003,0.0294390991,-0
3826,0.221752003,0.0294390991,0.0078125
3827,0.221752003,0.0294390991,0.015625
3828,0.221752003,0.0294390991,0.0234375
3829,0.221752003,0.0294390991,0.03125
3830,0.221752003,0.0294390991,0.0390625
3831,0.221752003,0.0294390991,0.046875
3832,0.221752003,0.0294390991,0.0546875
3833,0.221752003,0.0294390991,0.0625
3834,0.221752003,0.0294390991,0.0703125
3835,0.221752003,0.0294390991,0.078125
3836,0.221752003,0.0294390991,0.0859375
3837,0.221752003,0.0294390991,0.09375
3838,0.221752003,0.0294390991,0.101562001
3839,0.221752003,0.0294390991,0.109375
3840,0.221752003,0.0294390991,0.117187999
3841,0.221752003,0.0294390991,0.125
3842,0.221752003,0.0294390991,0.132813007
3843,0.221752003,0.0294390991,0.140625
3844,0.221752003,0.0294390991,0.148438007
3845,0.221752003,0.0294390991,0.15625
3846,0.221752003,0.0294390991,0.164063007
3847,0.221752003,0.0294390991,0.171875
3848,0.221752003,0.0294390991,0.179686993
3849,0.221752003,0.0294390991,0.1875
3850,0.221752003,0.0294390991,0.195313007
3851,0.221752003,0.0294390991,0.203125
3852,0.221752003,0.0294390991,0.210936993
3853,0.221752003,0.0294390991,0.21875
3854,0.221752003,0.0294390991,0.226561993
3855,0.221752003,0.0294390991,0.234375
3856,0.221752003,0.0294390991,0.242188007
3857,0.221752003,0.0294390991,0.25
3858,0.221752003,0.0294390991,0.257813007
3859,0.221752003,0.0294390991,0.265625
3860,0.221752003,0.0294390991,0.273436993
3861,0.221752003,0.0294390991,0.28125
3862,0.221752003,0.0294390991,0.289061993
3863,0.221752003,0.0294390991,0.296875
3864,0.221752003,0.0294390991,0.304688007
3865,0.221752003,0.0294390991,0.3125
3866,0.221752003,0.0294390991,0.320313007
3867,0.221752003,0.0294390991,0.328125
3868,0.221752003,0.0294390991,0.335938007
3869,0.221752003,0.0294390991,0.34375
3870,0.221752003,0.0294390991,0.351563007
3871,0.221752003,0.0294390991,0.359375
3872,0.221752003,0.0294390991,0.367188007
3873,0.221752003,0.0294390991,0.375
3874,0.224255994,0.0402921997,-0.396699011
3875,0.224436998,0.0396440998,0.396699011
3876,0.224675998,0.0490438007,-0.396380007
3877,0.224687994,0.0489673018,0.396380991
3878,0.225209996,0.0492284,0.390372992
3879,0.225213006,0.0492065996,-0.390372992
3880,0.225291997,0.0492189005,-0.382811993
3881,0.225291997,0.0492189005,-0.375
3882,0.225291997,0.0492189005,-0.367188007
3883,0.225291997,0.0492189005,-0.359375
3884,0.225291997,0.0492189005,-0.351561993
3885,0.225291997,0.0492189005,-0.34375
3886,0.225291997,0.0492189005,-0.335938007
3887,0.225291997,0.0492189005,-0.328125
3888,0.225291997,0.0492189005,-0.320311993
3889,0.225291997,0.0492189005,-0.3125
3890,0.225291997,0.0492189005,-0.304688007
3891,0.225291997,0.0492189005,-0.296875
3892,0.225291997,0.0492189005,-0.289063007
3893,0.225291997,0.0492189005,-0.28125
3894,0.225291997,0.0492189005,-0.273438007
3895,0.225291997,0.0492189005,-0.265625
3896,0.225291997,0.0492189005,-0.257811993
3897,0.225291997,0.0492189005,-0.25
3898,0.225291997,0.0492189005,-0.242186993
3899,0.225291997,0.0492189005,-0.234375
3900,0.225291997,0.0492189005,-0.226561993
3901,0.225291997,0.0492189005,-0.21875
3902,0.225291997,0.0492189005,-0.210938007
3903,0.225291997,0.0492189005,-0.203125
3904,0.225291997,0.0492189005,-0.195311993
3905,0.225291997,0.0492189005,-0.1875
3906,0.225291997,0.0492189005,-0.179686993
3907,0.225291997,0.0492189005,-0.171875
3908,0.225291997,0.0492189005,-0.164061993
3909,0.225291997,0.0492189005,-0.15625
3910,0.225291997,0.0492189005,-0.148438007
3911,0.225291997,0.0492189005,-0.140625
3912,0.225291997,0.0492189005,-0.132811993
3913,0.225291997,0.0492189005,-0.125
3914,0.225291997,0.0492189005,-0.117187001
3915,0.225291997,0.0492189005,-0.109375
3916,0.225291997,0.0492189005,-0.101562999
3917,0.225291997,0.0492189005,-0.09375
3918,0.225291997,0.0492189005,-0.0859375
3919,0.225291997,0.0492189005,-0.078125
3920,0.225291997,0.0492189005,-0.0703125
3921,0.225291997,0.0492189005,-0.0625
3922,0.225291997,0.0492189005,-0.0546875
3923,0.225291997,0.0492189005,-0.046875
3924,0.225291997,0.0492189005,-0.0390625
3925,0.225291997,0.0492189005,-0.03125
3926,0.225291997,0.0492189005,-0.0234375
3927,0.225291997,0.0492189005,-0.015625
3928,0.225291997,0.0492189005,-0.0078125
3929,0.225291997,0.0492189005,0
3930,0.225291997,0.0492189005,0.0078125
3931,0.225291997,0.0492189005,0.015625
3932,0.225291997,0.0492189005,0.0234375
3933,0.225291997,0.0492189005,0.03125
3934,0.225291997,0.0492189005,0.0390625
3935,0.225291997,0.0492189005,0.046875
3936,0.225291997,0.0492189005,0.0546875
3937,0.225291997,0.0492189005,0.0625
3938,0.225291997,0.0492189005,0.0703125
3939,0.225291997,0.0492189005,0.078125
3940,0.225291997,0.0492189005,0.0859375
3941,0.225291997,0.0492189005,0.09375
3942,0.225291997,0.0492189005,0.101562001
3943,0.225291997,0.0492189005,0.109375
3944,0.225291997,0.0492189005,0.117187001
3945,0.225291997,0.0492189005,0.125
3946,0.225291997,0.0492189005,0.132813007
3947,0.225291997,0.0492189005,0.140625
3948,0.225291997,0.0492189005,0.148436993
3949,0.225291997,0.0492189005,0.15625
3950,0.225291997,0.0492189005,0.164061993
3951,0.225291997,0.0492189005,0.171875
3952,0.225291997,0.0492189005,0.179686993
3953,0.225291997,0.0492189005,0.1875
3954,0.225291997,0.0492189005,0.195311993
3955,0.225291997,0.0492189005,0.203125
3956,0.225291997,0.0492189005,0.210938007
3957,0.225291997,0.0492189005,0.21875
3958,0.225291997,0.0492189005,0.226561993
3959,0.225291997,0.0492189005,0.234375
3960,0.225291997,0.0492189005,0.242186993
3961,0.225291997,0.0492189005,0.25
3962,0.225291997,0.0492189005,0.257813007
3963,0.225291997,0.0492189005,0.265625
3964,0.225291997,0.0492189005,0.273436993
3965,0.225291997,0.0492189005,0.28125
3966,0.225291997,0.0492189005,0.289063007
3967,0.225291997,0.0492189005,0.296875
3968,0.225291997,0.0492189005,0.304686993
3969,0.225291997,0.0492189005,0.3125
3970,0.225291997,0.0492189005,0.320313007
3971,0.225291997,0.0492189005,0.328125
3972,0.225291997,0.0492189005,0.335938007
3973,0.225291997,0.0492189005,0.34375
3974,0.225291997,0.0492189005,0.351561993
3975,0.225291997,0.0492189005,0.359375
3976,0.225291997,0.0492189005,0.367186993
3977,0.225291997,0.0492192991,0.375
3978,0.225291997,0.0492240004,0.382813007
3979,0.236881003,0.0421652012,0.396389991
3980,0.237027004,0.0500479005,0.396308988
3981,0.237360999,0.0508899018,-0.390354991
3982,0.237368003,0.0508680008,0.390354991
3983,0.237501994,0.0510880984,-0.382811993
3984,0.237501994,0.0510880984,-0.375
3985,0.237501994,0.0510880984,-0.367188007
3986,0.237501994,0.0510880984,-0.359375
3987,0.237501994,0.0510880984,-0.351561993
3988,0.237501994,0.0510880984,-0.34375
3989,0.237501994,0.0510880984,-0.335938007
3990,0.237501994,0.0510880984,-0.328125
3991,0.237501994,0.0510880984,-0.320311993
3992,0.237501994,0.0510880984,-0.3125
3993,0.237501994,0.0510880984,-0.304688007
3994,0.237501994,0.0510880984,-0.296875
3995,0.237501994,0.0510880984,-0.289063007
3996,0.237501994,0.0510880984,-0.28125
3997,0.237501994,0.0510880984,-0.273438007
3998,0.237501994,0.0510880984,-0.265625
3999,0.237501994,0.0510880984,-0.257811993
4000,0.237501994,0.0510880984,-0.25
4001,0.237501994,0.0510880984,-0.242186993
4002,0.237501994,0.0510880984,-0.234375
4003,0.237501994,0.0510880984,-0.226561993
4004,0.237501994,0.0510880984,-0.21875
4005,0.237501994,0.0510880984,-0.210938007
4006,0.237501994,0.0510880984,-0.203125
4007,0.237501994,0.0510880984,-0.195311993
4008,0.237501994,0.0510880984,-0.1875
4009,0.237501994,0.0510880984,-0.179688007
4010,0.237501994,0.0510880984,-0.171875
4011,0.237501994,0.0510880984,-0.164061993
4012,0.237501994,0.0510880984,-0.15625
4013,0.237501994,0.0510880984,-0.148438007
4014,0.237501994,0.0510880984,-0.140625
4015,0.237501994,0.0510880984,-0.132813007
4016,0.237501994,0.0510880984,-0.125
4017,0.237501994,0.0510880984,-0.117187001
4018,0.237501994,0.0510880984,-0.109375
4019,0.237501994,0.0510880984,-0.101562001
4020,0.237501994,0.0510880984,-0.09375
4021,0.237501994,0.0510880984,-0.0859375
4022,0.237501994,0.0510880984,-0.078125
4023,0.237501994,0.0510880984,-0.0703125
4024,0.237501994,0.0510880984,-0.0625
4025,0.237501994,0.0510880984,-0.0546875
4026,0.237501994,0.0510880984,-0.046875
4027,0.237501994,0.0510880984,-0.0390625
4028,0.237501994,0.0510880984,-0.03125
4029,0.237501994,0.0510880984,-0.0234375
4030,0.237501994,0.0510880984,-0.015625
4031,0.237501994,0.0510880984,-0.0078125
4032,0.237501994,0.0510880984,0
4033,0.237501994,0.0510880984,0.0078125
4034,0.237501994,0.0510880984,0.015625
4035,0.237501994,0.0510880984,0.0234375
4036,0.237501994,0.0510880984,0.03125
4037,0.237501994,0.0510880984,0.0390625
4038,0.237501994,0.0510880984,0.046875
4039,0.237501994,0.0510880984,0.0546875
4040,0.237501994,0.0510880984,0.0625
4041,0.237501994,0.0510880984,0.0703125
4042,0.237501994,0.0510880984,0.078125
4043,0.237501994,0.0510880984,0.0859375
4044,0.237501994,0.0510880984,0.09375
4045,0.237501994,0.0510880984,0.101562001
4046,0.237501994,0.0510880984,0.109375
4047,0.237501994,0.0510880984,0.117187001
4048,0.237501994,0.0510880984,0.125
4049,0.237501994,0.0510880984,0.132811993
4050,0.237501994,0.0510880984,0.140625
4051,0.237501994,0.0510880984,0.148436993
4052,0.237501994,0.0510880984,0.15625
4053,0.237501994,0.0510880984,0.164063007
4054,0.237501994,0.0510880984,0.171875
4055,0.237501994,0.0510880984,0.179686993
4056,0.237501994,0.0510880984,0.1875
4057,0.237501994,0.0510880984,0.195311993
4058,0.237501994,0.0510880984,0.203125
4059,0.237501994,0.0510880984,0.210938007
4060,0.237501994,0.0510880984,0.21875
4061,0.237501994,0.0510880984,0.226561993
4062,0.237501994,0.0510880984,0.234375
4063,0.237501994,0.0510880984,0.242186993
4064,0.237501994,0.0510880984,0.25
4065,0.237501994,0.0510880984,0.257811993
4066,0.237501994,0.0510880984,0.265625
4067,0.237501994,0.0510880984,0.273436993
4068,0.237501994,0.0510880984,0.28125
4069,0.237501994,0.0510880984,0.289063007
4070,0.237501994,0.0510880984,0.296875
4071,0.237501994,0.0510880984,0.304688007
4072,0.237501994,0.0510880984,0.3125
4073,0.237501994,0.0510880984,0.320311993
4074,0.237501994,0.0510880984,0.328125
4075,0.237501994,0.0510880984,0.335938007
4076,0.237501994,0.0510880984,0.34375
4077,0.237501994,0.0510880984,0.351563007
4078,0.237501994,0.0510880984,0.359375
4079,0.237501994,0.0510880984,0.367188007
4080,0.237501994,0.0510880984,0.375
4081,0.237501994,0.051088199,0.382811993
4082,0.238067001,0.0359916985,0.390392005
4083,0.238080993,0.0359571017,-0.390392005
4084,0.238150001,0.0357845984,0.382811993
4085,0.238150999,0.0357827991,-0.382811993
4086,0.238150999,0.0357827991,-0.375
4087,0.238150999,0.0357827991,-0.367188007
4088,0.238150999,0.0357827991,-0.359375
4089,0.238150999,0.0357827991,-0.351561993
4090,0.238150999,0.0357827991,-0.34375
4091,0.238150999,0.0357827991,-0.335938007
4092,0.238150999,0.0357827991,-0.328125
4093,0.238150999,0.0357827991,-0.320311993
4094,0.238150999,0.0357827991,-0.3125
4095,0.238150999,0.0357827991,-0.304688007
4096,0.238150999,0.0357827991,-0.296875
4097,0.238150999,0.0357827991,-0.289063007
4098,0.238150999,0.0357827991,-0.28125
4099,0.238150999,0.0357827991,-0.273438007
4100,0.238150999,0.0357827991,-0.265625
4101,0.238150999,0.0357827991,-0.257811993
4102,0.238150999,0.0357827991,-0.25
4103,0.238150999,0.0357827991,-0.242186993
4104,0.238150999,0.0357827991,-0.234375
4105,0.238150999,0.0357827991,-0.226561993
4106,0.238150999,0.0357827991,-0.21875
4107,0.238150999,0.0357827991,-0.210936993
4108,0.238150999,0.0357827991,-0.203125
4109,0.238150999,0.0357827991,-0.195311993
4110,0.238150999,0.0357827991,-0.1875
4111,0.238150999,0.0357827991,-0.179686993
4112,0.238150999,0.0357827991,-0.171875
4113,0.238150999,0.0357827991,-0.164063007
4114,0.238150999,0.0357827991,-0.15625
4115,0.238150999,0.0357827991,-0.148438007
4116,0.238150999,0.0357827991,-0.140625
4117,0.238150999,0.0357827991,-0.132813007
4118,0.238150999,0.0357827991,-0.125
4119,0.238150999,0.0357827991,-0.117187999
4120,0.238150999,0.0357827991,-0.109375
4121,0.238150999,0.0357827991,-0.101562001
4122,0.238150999,0.0357827991,-0.09375
4123,0.238150999,0.0357827991,-0.0859375
4124,0.238150999,0.0357827991,-0.078125
4125,0.238150999,0.0357827991,-0.0703125
4126,0.238150999,0.0357827991,-0.0625
4127,0.238150999,0.0357827991,-0.0546875
4128,0.238150999,0.0357827991,-0.046875
4129,0.238150999,0.0357827991,-0.0390625
4130,0.238150999,0.0357827991,-0.03125
4131,0.238150999,0.0357827991,-0.0234375
4132,0.238150999,0.0357827991,-0.015625
4133,0.238150999,0.0357827991,-0.0078125
4134,0.238150999,0.0357827991,-1e-12
4135,0.238150999,0.0357827991,0.0078125
4136,0.238150999,0.0357827991,0.015625
4137,0.238150999,0.0357827991,0.0234375
4138,0.238150999,0.0357827991,0.03125
4139,0.238150999,0.0357827991,0.0390625
4140,0.238150999,0.0357827991,0.046875
4141,0.238150999,0.0357827991,0.0546875
4142,0.238150999,0.0357827991,0.0625
4143,0.238150999,0.0357827991,0.0703125
4144,0.238150999,0.0357827991,0.078125
4145,0.238150999,0.0357827991,0.0859375
4146,0.238150999,0.0357827991,0.09375
4147,0.238150999,0.0357827991,0.101562999
4148,0.238150999,0.0357827991,0.109375
4149,0.238150999,0.0357827991,0.117187001
4150,0.238150999,0.0357827991,0.125
4151,0.238150999,0.0357827991,0.132813007
4152,0.238150999,0.0357827991,0.140625
4153,0.238150999,0.0357827991,0.148438007
4154,0.238150999,0.0357827991,0.15625
4155,0.238150999,0.0357827991,0.164063007
4156,0.238150999,0.0357827991,0.171875
4157,0.238150999,0.0357827991,0.179686993
4158,0.238150999,0.0357827991,0.1875
4159,0.238150999,0.0357827991,0.195313007
4160,0.238150999,0.0357827991,0.203125
4161,0.238150999,0.0357827991,0.210938007
4162,0.238150999,0.0357827991,0.21875
4163,0.238150999,0.0357827991,0.226561993
4164,0.238150999,0.0357827991,0.234375
4165,0.238150999,0.0357827991,0.242188007
4166,0.238150999,0.0357827991,0.25
4167,0.238150999,0.0357827991,0.257811993
4168,0.238150999,0.0357827991,0.265625
4169,0.238150999,0.0357827991,0.273436993
4170,0.238150999,0.0357827991,0.28125
4171,0.238150999,0.0357827991,0.289063007
4172,0.238150999,0.0357827991,0.296875
4173,0.238150999,0.0357827991,0.304688007
4174,0.238150999,0.0357827991,0.3125
4175,0.238150999,0.0357827991,0.320313007
4176,0.238150999,0.0357827991,0.328125
4177,0.238150999,0.0357827991,0.335936993
4178,0.238150999,0.0357827991,0.34375
4179,0.238150999,0.0357827991,0.351563007
4180,0.238150999,0.0357827991,0.359375
4181,0.238150999,0.0357827991,0.367188007
4182,0.238150999,0.0357828997,0.375
4183,0.238321006,0.0440800004,-0.396358013
4184,0.238922,0.0361588001,-0.396319002
4185,0.248411,0.039825201,-0.382811993
4186,0.248411,0.039825201,-0.375
4187,0.248411,0.039825201,-0.367188007
4188,0.248411,0.039825201,-0.359375
4189,0.248411,0.039825201,-0.351561993
4190,0.248411,0.039825201,-0.34375
4191,0.248411,0.039825201,-0.335938007
4192,0.248411,0.039825201,-0.328125
4193,0.248411,0.039825201,-0.320311993
4194,0.248411,0.039825201,-0.3125
4195,0.248411,0.039825201,-0.304688007
4196,0.248411,0.039825201,-0.296875
4197,0.248411,0.039825201,-0.289063007
4198,0.248411,0.039825201,-0.28125
4199,0.248411,0.039825201,-0.273438007
4200,0.248411,0.039825201,-0.265625
4201,0.248411,0.039825201,-0.257811993
4202,0.248411,0.039825201,-0.25
4203,0.248411,0.039825201,-0.242186993
4204,0.248411,0.039825201,-0.234375
4205,0.248411,0.039825201,-0.226561993
4206,0.248411,0.039825201,-0.21875
4207,0.248411,0.039825201,-0.210936993
4208,0.248411,0.039825201,-0.203125
4209,0.248411,0.039825201,-0.195311993
4210,0.248411,0.039825201,-0.1875
4211,0.248411,0.039825201,-0.179686993
4212,0.248411,0.039825201,-0.171875
4213,0.248411,0.039825201,-0.164063007
4214,0.248411,0.039825201,-0.15625
4215,0.248411,0.039825201,-0.148438007
4216,0.248411,0.039825201,-0.140625
4217,0.248411,0.039825201,-0.132813007
4218,0.248411,0.039825201,-0.125
4219,0.248411,0.039825201,-0.117187001
4220,0.248411,0.039825201,-0.109375
4221,0.248411,0.039825201,-0.101562999
4222,0.248411,0.039825201,-0.09375
4223,0.248411,0.039825201,-0.0859375
4224,0.248411,0.039825201,-0.078125
4225,0.248411,0.039825201,-0.0703125
4226,0.248411,0.039825201,-0.0625
4227,0.248411,0.039825201,-0.0546875
4228,0.248411,0.039825201,-0.046875
4229,0.248411,0.039825201,-0.0390625
4230,0.248411,0.039825201,-0.03125
4231,0.248411,0.039825201,-0.0234375
4232,0.248411,0.039825201,-0.015625
4233,0.248411,0.039825201,-0.0078125
4234,0.248411,0.039825201,0
4235,0.248411,0.039825201,0.0078125
4236,0.248411,0.039825201,0.015625
4237,0.248411,0.039825201,0.0234375
4238,0.248411,0.039825201,0.03125
4239,0.248411,0.039825201,0.0390625
4240,0.248411,0.039825201,0.046875
4241,0.248411,0.039825201,0.0546875
4242,0.248411,0.039825201,0.0625
4243,0.248411,0.039825201,0.0703125
4244,0.248411,0.039825201,0.078125
4245,0.248411,0.039825201,0.0859375
4246,0.248411,0.039825201,0.09375
4247,0.248411,0.039825201,0.101562001
4248,0.248411,0.039825201,0.109375
4249,0.248411,0.039825201,0.117187001
4250,0.248411,0.039825201,0.125
4251,0.248411,0.039825201,0.132813007
4252,0.248411,0.039825201,0.140625
4253,0.248411,0.039825201,0.148436993
4254,0.248411,0.039825201,0.15625
4255,0.248411,0.039825201,0.164061993
4256,0.248411,0.039825201,0.171875
4257,0.248411,0.039825201,0.179688007
4258,0.248411,0.039825201,0.1875
4259,0.248411,0.039825201,0.195311993
4260,0.248411,0.039825201,0.203125
4261,0.248411,0.039825201,0.210936993
4262,0.248411,0.039825201,0.21875
4263,0.248411,0.039825201,0.226561993
4264,0.248411,0.039825201,0.234375
4265,0.248411,0.039825201,0.242186993
4266,0.248411,0.039825201,0.25
4267,0.248411,0.039825201,0.257811993
4268,0.248411,0.039825201,0.265625
4269,0.248411,0.039825201,0.273436993
4270,0.248411,0.039825201,0.28125
4271,0.248411,0.039825201,0.289061993
4272,0.248411,0.039825201,0.296875
4273,0.248411,0.039825201,0.304688007
4274,0.248411,0.039825201,0.3125
4275,0.248411,0.039825201,0.320311993
4276,0.248411,0.039825201,0.328125
4277,0.248411,0.039825201,0.335936993
4278,0.248411,0.039825201,0.34375
4279,0.248411,0.039825201,0.351561993
4280,0.248411,0.039825201,0.359375
4281,0.248411,0.039825201,0.367188007
4282,0.248412997,0.0398207009,0.375
4283,0.248428002,0.0397816002,0.382811993
4284,0.248457998,0.0398440994,-0.390388995
4285,0.248541996,0.0396323018,0.390388995
4286,0.248754993,0.0399621017,-0.396429002
4287,0.248814002,0.0398137011,0.396429002
4288,0.249194995,0.0528145991,-0.1875
4289,0.249194995,0.0528145991,-0.179686993
4290,0.249194995,0.0528145991,-0.171875
4291,0.249194995,0.0528145991,-0.164061993
4292,0.249194995,0.0528145991,-0.15625
4293,0.249194995,0.0528145991,-0.148438007
4294,0.249194995,0.0528145991,-0.140625
4295,0.249194995,0.0528145991,-0.132811993
4296,0.249194995,0.0528145991,-0.125
4297,0.249194995,0.0528145991,-0.117187999
4298,0.249194995,0.0528145991,-0.109375
4299,0.249194995,0.0528145991,-0.101562001
4300,0.249194995,0.0528145991,-0.09375
4301,0.249194995,0.0528145991,-0.0859375
4302,0.249194995,0.0528145991,-0.078125
4303,0.249194995,0.0528145991,-0.0703125
4304,0.249194995,0.0528145991,-0.0625
4305,0.249194995,0.0528145991,-0.0546875
4306,0.249194995,0.0528145991,-0.046875
4307,0.249194995,0.0528145991,-0.0390625
4308,0.249194995,0.0528145991,-0.03125
4309,0.249194995,0.0528145991,-0.0234375
4310,0.249194995,0.0528145991,-0.015625
4311,0.249194995,0.0528145991,-0.0078125
4312,0.249194995,0.0528145991,-0
4313,0.249194995,0.0528145991,0.0078125
4314,0.249194995,0.0528145991,0.015625
4315,0.249194995,0.0528145991,0.0234375
4316,0.249194995,0.0528145991,0.03125
4317,0.249194995,0.0528145991,0.0390625
4318,0.249194995,0.0528145991,0.046875
4319,0.249194995,0.0528145991,0.0546875
4320,0.249194995,0.0528145991,0.0625
4321,0.249194995,0.0528145991,0.0703125
4322,0.249194995,0.0528145991,0.078125
4323,0.249194995,0.0528145991,0.0859375
4324,0.249194995,0.0528145991,0.09375
4325,0.249194995,0.0528145991,0.101562001
4326,0.249194995,0.0528145991,0.109375
4327,0.249194995,0.0528145991,0.117187999
4328,0.249194995,0.0528145991,0.125
4329,0.249194995,0.0528145991,0.132811993
4330,0.249194995,0.0528145991,0.140625
4331,0.249194995,0.0528145991,0.148438007
4332,0.249194995,0.0528145991,0.15625
4333,0.249194995,0.0528145991,0.164061993
4334,0.249194995,0.0528145991,0.171875
4335,0.249194995,0.0528145991,0.179688007
4336,0.249194995,0.0528145991,0.1875
4337,0.249200001,0.0526740998,-0.390397012
4338,0.249219999,0.0525395982,0.390399009
4339,0.249230996,0.047017999,-0.396421999
4340,0.249230996,0.0525668003,-0.382793993
4341,0.249234006,0.0525498018,0.382793993
4342,0.249247998,0.0524526984,0.374983013
4343,0.249247998,0.0524543002,-0.374983013
4344,0.249264002,0.0523418002,-0.367172003
4345,0.249264002,0.0523418002,0.367172003
4346,0.249280006,0.0468227006,0.396421999
4347,0.249280006,0.0522293001,-0.359360993
4348,0.249280006,0.0522293001,0.359360993
4349,0.249296993,0.0521166995,-0.351550996
4350,0.249296993,0.0521166995,0.351550996
4351,0.249312997,0.0520041995,-0.343739986
4352,0.249312997,0.0520041995,0.343739986
4353,0.249329001,0.0518916994,-0.335929006
4354,0.249329001,0.0518916994,0.335929006
4355,0.249346003,0.0517791994,-0.328117996
4356,0.249346003,0.0517791994,0.328117996
4357,0.249362007,0.0516666993,-0.320306987
4358,0.249362007,0.0516666993,0.320306987
4359,0.249378994,0.0515541993,-0.312496006
4360,0.249378994,0.0515541993,0.312496006
4361,0.249394998,0.0514416993,-0.304684997
4362,0.249394998,0.0514416993,0.304684997
4363,0.249411002,0.0513291992,-0.296875
4364,0.249411002,0.0513291992,0.296875
4365,0.249428004,0.0512166992,-0.28906399
4366,0.249428004,0.0512166992,0.28906399
4367,0.249443993,0.0511041991,-0.28125301
4368,0.249443993,0.0511041991,0.28125301
4369,0.249459997,0.0509916991,-0.273442
4370,0.249459997,0.0509916991,0.273442
4371,0.249476999,0.0508791991,-0.26563099
4372,0.249476999,0.0508791991,0.26563099
4373,0.249487996,0.0457165018,0.398086995
4374,0.249493003,0.050766699,-0.25782001
4375,0.249493003,0.050766699,0.25782001
4376,0.249509007,0.050654199,-0.250010014
4377,0.249509007,0.050654199,0.250010014
4378,0.249525994,0.0505415984,-0.242199004
4379,0.249525994,0.0505415984,0.242199004
4380,0.249541998,0.0504290983,-0.234387994
4381,0.249541998,0.0504290983,0.234387994
4382,0.249558002,0.0503165983,-0.226576999
4383,0.249558002,0.0503165983,0.226576999
4384,0.249575004,0.0502040982,-0.218766004
4385,0.249575004,0.0502040982,0.218766004
4386,0.249590993,0.0500915982,-0.210954994
4387,0.249590993,0.0500915982,0.210954994
4388,0.249606997,0.0499790981,-0.203143999
4389,0.249606997,0.0499790981,0.203143999
4390,0.249623999,0.0498666018,-0.195334002
4391,0.249623999,0.0498666018,0.195334002
4392,0.251130998,0.0409393013,-0.39804101
4393,0.254781991,0.0423647016,-0.397056997
4394,0.25483799,0.0422230996,0.397056997
4395,0.255793005,0.0487851985,-0.397224993
4396,0.255964011,0.0481485985,0.397224993
4397,0.256401986,0.0430914015,0.398202986
4398,0.256419003,0.0430480987,-0.398202002
4399,0.257573009,0.0434841998,0.375
4400,0.257573009,0.043484401,-0.382813007
4401,0.257573009,0.043484401,-0.375
4402,0.257573009,0.043484401,-0.367188007
4403,0.257573009,0.043484401,-0.359375
4404,0.257573009,0.043484401,-0.351561993
4405,0.257573009,0.043484401,-0.34375
4406,0.257573009,0.043484401,-0.335938007
4407,0.257573009,0.043484401,-0.328125
4408,0.257573009,0.043484401,-0.320311993
4409,0.257573009,0.043484401,-0.3125
4410,0.257573009,0.043484401,-0.304688007
4411,0.257573009,0.043484401,-0.296875
4412,0.257573009,0.043484401,-0.289063007
4413,0.257573009,0.043484401,-0.28125
4414,0.257573009,0.043484401,-0.273438007
4415,0.257573009,0.043484401,-0.265625
4416,0.257573009,0.043484401,-0.257811993
4417,0.257573009,0.043484401,-0.25
4418,0.257573009,0.043484401,-0.242186993
4419,0.257573009,0.043484401,-0.234375
4420,0.257573009,0.043484401,-0.226563007
4421,0.257573009,0.043484401,-0.21875
4422,0.257573009,0.043484401,-0.210938007
4423,0.257573009,0.043484401,-0.203125
4424,0.257573009,0.043484401,-0.195311993
4425,0.257573009,0.043484401,-0.1875
4426,0.257573009,0.043484401,-0.179688007
4427,0.257573009,0.043484401,-0.171875
4428,0.257573009,0.043484401,-0.164061993
4429,0.257573009,0.043484401,-0.15625
4430,0.257573009,0.043484401,-0.148438007
4431,0.257573009,0.043484401,-0.140625
4432,0.257573009,0.043484401,-0.132813007
4433,0.257573009,0.043484401,-0.125
4434,0.257573009,0.043484401,-0.117187001
4435,0.257573009,0.043484401,-0.109375
4436,0.257573009,0.043484401,-0.101562999
4437,0.257573009,0.043484401,-0.09375
4438,0.257573009,0.043484401,-0.0859375
4439,0.257573009,0.043484401,-0.078125
4440,0.257573009,0.043484401,-0.0703125
4441,0.257573009,0.043484401,-0.0625
4442,0.257573009,0.043484401,-0.0546875
4443,0.257573009,0.043484401,-0.046875
4444,0.257573009,0.043484401,-0.0390625
4445,0.257573009,0.043484401,-0.03125
4446,0.257573009,0.043484401,-0.0234375
4447,0.257573009,0.043484401,-0.015625
4448,0.257573009,0.043484401,-0.0078125
4449,0.257573009,0.043484401,0
4450,0.257573009,0.043484401,0.0078125
4451,0.257573009,0.043484401,0.015625
4452,0.257573009,0.043484401,0.0234375
4453,0.257573009,0.043484401,0.03125
4454,0.257573009,0.043484401,0.0390625
4455,0.257573009,0.043484401,0.046875
4456,0.257573009,0.043484401,0.0546875
4457,0.257573009,0.043484401,0.0625
4458,0.257573009,0.043484401,0.0703125
4459,0.257573009,0.043484401,0.078125
4460,0.257573009,0.043484401,0.0859375
4461,0.257573009,0.043484401,0.09375
4462,0.257573009,0.043484401,0.101562999
4463,0.257573009,0.043484401,0.109375
4464,0.257573009,0.043484401,0.117187001
4465,0.257573009,0.043484401,0.125
4466,0.257573009,0.043484401,0.132811993
4467,0.257573009,0.043484401,0.140625
4468,0.257573009,0.043484401,0.148438007
4469,0.257573009,0.043484401,0.15625
4470,0.257573009,0.043484401,0.164063007
4471,0.257573009,0.043484401,0.171875
4472,0.257573009,0.043484401,0.179688007
4473,0.257573009,0.043484401,0.1875
4474,0.257573009,0.043484401,0.195313007
4475,0.257573009,0.043484401,0.203125
4476,0.257573009,0.043484401,0.210938007
4477,0.257573009,0.043484401,0.21875
4478,0.257573009,0.043484401,0.226561993
4479,0.257573009,0.043484401,0.234375
4480,0.257573009,0.043484401,0.242186993
4481,0.257573009,0.043484401,0.25
4482,0.257573009,0.043484401,0.257811993
4483,0.257573009,0.043484401,0.265625
4484,0.257573009,0.043484401,0.273436993
4485,0.257573009,0.043484401,0.28125
4486,0.257573009,0.043484401,0.289063007
4487,0.257573009,0.043484401,0.296875
4488,0.257573009,0.043484401,0.304688007
4489,0.257573009,0.043484401,0.3125
4490,0.257573009,0.043484401,0.320311993
4491,0.257573009,0.043484401,0.328125
4492,0.257573009,0.043484401,0.335938007
4493,0.257573009,0.043484401,0.34375
4494,0.257573009,0.043484401,0.351561993
4495,0.257573009,0.043484401,0.359375
4496,0.257573009,0.043484401,0.367188007
4497,0.257573992,0.0434811004,0.382813007
4498,0.257580996,0.043487601,-0.390529007
4499,0.257591993,0.0434596017,0.390529007
4500,0.257957011,0.0436388999,-0.396690011
4501,0.257972002,0.0436006002,0.396690011
4502,0.258711994,0.0439429991,0.378906012
4503,0.258711994,0.0439430997,-0.386718988
4504,0.258711994,0.0439430997,-0.378906012
4505,0.258711994,0.0439430997,-0.371093988
4506,0.258711994,0.0439430997,-0.363281012
4507,0.258711994,0.0439430997,-0.355468988
4508,0.258711994,0.0439430997,-0.347656012
4509,0.258711994,0.0439430997,-0.339843988
4510,0.258711994,0.0439430997,-0.332031012
4511,0.258711994,0.0439430997,-0.324218988
4512,0.258711994,0.0439430997,-0.316406012
4513,0.258711994,0.0439430997,-0.308593988
4514,0.258711994,0.0439430997,-0.300781012
4515,0.258711994,0.0439430997,-0.292968988
4516,0.258711994,0.0439430997,-0.285156012
4517,0.258711994,0.0439430997,-0.277343988
4518,0.258711994,0.0439430997,-0.269531012
4519,0.258711994,0.0439430997,-0.261718988
4520,0.258711994,0.0439430997,-0.253906012
4521,0.258711994,0.0439430997,-0.246094003
4522,0.258711994,0.0439430997,-0.238280997
4523,0.258711994,0.0439430997,-0.230469003
4524,0.258711994,0.0439430997,-0.222655997
4525,0.258711994,0.0439430997,-0.214844003
4526,0.258711994,0.0439430997,-0.207030997
4527,0.258711994,0.0439430997,-0.199219003
4528,0.258711994,0.0439430997,-0.191405997
4529,0.258711994,0.0439430997,-0.183594003
4530,0.258711994,0.0439430997,-0.175780997
4531,0.258711994,0.0439430997,-0.167969003
4532,0.258711994,0.0439430997,-0.160155997
4533,0.258711994,0.0439430997,-0.152344003
4534,0.258711994,0.0439430997,-0.144530997
4535,0.258711994,0.0439430997,-0.136719003
4536,0.258711994,0.0439430997,-0.128905997
4537,0.258711994,0.0439430997,-0.121094003
4538,0.258711994,0.0439430997,-0.113280997
4539,0.258711994,0.0439430997,-0.105469003
4540,0.258711994,0.0439430997,-0.0976561978
4541,0.258711994,0.0439430997,-0.0898438022
4542,0.258711994,0.0439430997,-0.0820311978
4543,0.258711994,0.0439430997,-0.0742186978
4544,0.258711994,0.0439430997,-0.0664061978
4545,0.258711994,0.0439430997,-0.0585937016
4546,0.258711994,0.0439430997,-0.0507812016
4547,0.258711994,0.0439430997,-0.0429687016
4548,0.258711994,0.0439430997,-0.0351562016
4549,0.258711994,0.0439430997,-0.0273436997
4550,0.258711994,0.0439430997,-0.0195311997
4551,0.258711994,0.0439430997,-0.0117188003
4552,0.258711994,0.0439430997,-0.00390625
4553,0.258711994,0.0439430997,0.00390625
4554,0.258711994,0.0439430997,0.0117188003
4555,0.258711994,0.0439430997,0.0195311997
4556,0.258711994,0.0439430997,0.0273438003
4557,0.258711994,0.0439430997,0.0351562016
4558,0.258711994,0.0439430997,0.0429687016
4559,0.258711994,0.0439430997,0.0507812984
4560,0.258711994,0.0439430997,0.0585937984
4561,0.258711994,0.0439430997,0.0664061978
4562,0.258711994,0.0439430997,0.0742188022
4563,0.258711994,0.0439430997,0.0820313022
4564,0.258711994,0.0439430997,0.0898436978
4565,0.258711994,0.0439430997,0.0976563022
4566,0.258711994,0.0439430997,0.105469003
4567,0.258711994,0.0439430997,0.113280997
4568,0.258711994,0.0439430997,0.121094003
4569,0.258711994,0.0439430997,0.128905997
4570,0.258711994,0.0439430997,0.136719003
4571,0.258711994,0.0439430997,0.144530997
4572,0.258711994,0.0439430997,0.152344003
4573,0.258711994,0.0439430997,0.160155997
4574,0.258711994,0.0439430997,0.167969003
4575,0.258711994,0.0439430997,0.175780997
4576,0.258711994,0.0439430997,0.183594003
4577,0.258711994,0.0439430997,0.191405997
4578,0.258711994,0.0439430997,0.199219003
4579,0.258711994,0.0439430997,0.207030997
4580,0.258711994,0.0439430997,0.214844003
4581,0.258711994,0.0439430997,0.222655997
4582,0.258711994,0.0439430997,0.230469003
4583,0.258711994,0.0439430997,0.238280997
4584,0.258711994,0.0439430997,0.246094003
4585,0.258711994,0.0439430997,0.253906012
4586,0.258711994,0.0439430997,0.261718988
4587,0.258711994,0.0439430997,0.269531012
4588,0.258711994,0.0439430997,0.277343988
4589,0.258711994,0.0439430997,0.285156012
4590,0.258711994,0.0439430997,0.292968988
4591,0.258711994,0.0439430997,0.300781012
4592,0.258711994,0.0439430997,0.308593988
4593,0.258711994,0.0439430997,0.316406012
4594,0.258711994,0.0439430997,0.324218988
4595,0.258711994,0.0439430997,0.332031012
4596,0.258711994,0.0439430997,0.339843988
4597,0.258711994,0.0439430997,0.347656012
4598,0.258711994,0.0439430997,0.355468988
4599,0.258711994,0.0439430997,0.363281012
4600,0.258711994,0.0439430997,0.371093988
4601,0.25871399,0.0439396985,0.386718988
4602,0.258724988,0.0439483002,-0.39427799
4603,0.258729011,0.0439397991,0.39427799
4604,0.261537999,0.0503325015,-0.39666301
4605,0.261712998,0.0496818013,0.39666301
4606,0.261768997,0.0451764986,-0.397460014
4607,0.261772007,0.0451693013,0.397460014
4608,0.263900012,0.0548955016,-0.382811993
4609,0.263900012,0.0548955016,-0.375
4610,0.263900012,0.0548955016,-0.367188007
4611,0.263900012,0.0548955016,-0.359375
4612,0.263900012,0.0548955016,-0.351561993
4613,0.263900012,0.0548955016,-0.34375
4614,0.263900012,0.0548955016,-0.335938007
4615,0.263900012,0.0548955016,-0.328125
4616,0.263900012,0.0548955016,-0.320311993
4617,0.263900012,0.0548955016,-0.3125
4618,0.263900012,0.0548955016,-0.304688007
4619,0.263900012,0.0548955016,-0.296875
4620,0.263900012,0.0548955016,-0.289063007
4621,0.263900012,0.0548955016,-0.28125
4622,0.263900012,0.0548955016,-0.273438007
4623,0.263900012,0.0548955016,-0.265625
4624,0.263900012,0.0548955016,-0.257811993
4625,0.263900012,0.0548955016,-0.25
4626,0.263900012,0.0548955016,-0.242186993
4627,0.263900012,0.0548955016,-0.234375
4628,0.263900012,0.0548955016,-0.226561993
4629,0.263900012,0.0548955016,-0.21875
4630,0.263900012,0.0548955016,-0.210938007
4631,0.263900012,0.0548955016,-0.203125
4632,0.263900012,0.0548955016,-0.195311993
4633,0.263900012,0.0548955016,-0.1875
4634,0.263900012,0.0548955016,-0.179688007
4635,0.263900012,0.0548955016,-0.171875
4636,0.263900012,0.0548955016,-0.164061993
4637,0.263900012,0.0548955016,-0.15625
4638,0.263900012,0.0548955016,-0.148436993
4639,0.263900012,0.0548955016,-0.140625
4640,0.263900012,0.0548955016,-0.132813007
4641,0.263900012,0.0548955016,-0.125
4642,0.263900012,0.0548955016,-0.117187999
4643,0.263900012,0.0548955016,-0.109375
4644,0.263900012,0.0548955016,-0.101562999
4645,0.263900012,0.0548955016,-0.09375
4646,0.263900012,0.0548955016,-0.0859375
4647,0.263900012,0.0548955016,-0.078125
4648,0.263900012,0.0548955016,-0.0703125
4649,0.263900012,0.0548955016,-0.0625
4650,0.263900012,0.0548955016,-0.0546875
4651,0.263900012,0.0548955016,-0.046875
4652,0.263900012,0.0548955016,-0.0390625
4653,0.263900012,0.0548955016,-0.03125
4654,0.263900012,0.0548955016,-0.0234375
4655,0.263900012,0.0548955016,-0.015625
4656,0.263900012,0.0548955016,-0.0078125
4657,0.263900012,0.0548955016,0
4658,0.263900012,0.0548955016,0.0078125
4659,0.263900012,0.0548955016,0.015625
4660,0.263900012,0.0548955016,0.0234375
4661,0.263900012,0.0548955016,0.03125
4662,0.263900012,0.0548955016,0.0390625
4663,0.263900012,0.0548955016,0.046875
4664,0.263900012,0.0548955016,0.0546875
4665,0.263900012,0.0548955016,0.0625
4666,0.263900012,0.0548955016,0.0703125
4667,0.263900012,0.0548955016,0.078125
4668,0.263900012,0.0548955016,0.0859375
4669,0.263900012,0.0548955016,0.09375
4670,0.263900012,0.0548955016,0.101562001
4671,0.263900012,0.0548955016,0.109375
4672,0.263900012,0.0548955016,0.117187999
4673,0.263900012,0.0548955016,0.125
4674,0.263900012,0.0548955016,0.132813007
4675,0.263900012,0.0548955016,0.140625
4676,0.263900012,0.0548955016,0.148438007
4677,0.263900012,0.0548955016,0.15625
4678,0.263900012,0.0548955016,0.164063007
4679,0.263900012,0.0548955016,0.171875
4680,0.263900012,0.0548955016,0.179688007
4681,0.263900012,0.0548955016,0.1875
4682,0.263900012,0.0548955016,0.195313007
4683,0.263900012,0.0548955016,0.203125
4684,0.263900012,0.0548955016,0.210938007
4685,0.263900012,0.0548955016,0.21875
4686,0.263900012,0.0548955016,0.226561993
4687,0.263900012,0.0548955016,0.234375
4688,0.263900012,0.0548955016,0.242186993
4689,0.263900012,0.0548955016,0.25
4690,0.263900012,0.0548955016,0.257811993
4691,0.263900012,0.0548955016,0.265625
4692,0.263900012,0.0548955016,0.273436993
4693,0.263900012,0.0548955016,0.28125
4694,0.263900012,0.0548955016,0.289061993
4695,0.263900012,0.0548955016,0.296875
4696,0.263900012,0.0548955016,0.304686993
4697,0.263900012,0.0548955016,0.3125
4698,0.263900012,0.0548955016,0.320313007
4699,0.263900012,0.0548955016,0.328125
4700,0.263900012,0.0548955016,0.335936993
4701,0.263900012,0.0548955016,0.34375
4702,0.263900012,0.0548955016,0.351561993
4703,0.263900012,0.0548955016,0.359375
4704,0.263900012,0.0548955016,0.367186993
4705,0.263900012,0.0548955016,0.375
4706,0.263900012,0.0548955016,0.382811993
4707,0.263999999,0.0549093001,-0.390504986
4708,0.263999999,0.0549094006,0.390504986
4709,0.264232993,0.0549064986,0.396587014
4710,0.264232993,0.0549070016,-0.396587014
4711,0.264798999,0.055019699,-0.386718988
4712,0.264798999,0.055019699,-0.378906012
4713,0.264798999,0.055019699,-0.371093988
4714,0.264798999,0.055019699,-0.363281012
4715,0.264798999,0.055019699,-0.355468988
4716,0.264798999,0.055019699,-0.347656012
4717,0.264798999,0.055019699,-0.339843988
4718,0.264798999,0.055019699,-0.332031012
4719,0.264798999,0.055019699,-0.324218988
4720,0.264798999,0.055019699,-0.316406012
4721,0.264798999,0.055019699,-0.308593988
4722,0.264798999,0.055019699,-0.300781012
4723,0.264798999,0.055019699,-0.292968988
4724,0.264798999,0.055019699,-0.285156012
4725,0.264798999,0.055019699,-0.277343988
4726,0.264798999,0.055019699,-0.269531012
4727,0.264798999,0.055019699,-0.261718988
4728,0.264798999,0.055019699,-0.253906012
4729,0.264798999,0.055019699,-0.246094003
4730,0.264798999,0.055019699,-0.238280997
4731,0.264798999,0.055019699,-0.230469003
4732,0.264798999,0.055019699,-0.222655997
4733,0.264798999,0.055019699,-0.214844003
4734,0.264798999,0.055019699,-0.207030997
4735,0.264798999,0.055019699,-0.199219003
4736,0.264798999,0.055019699,-0.191405997
4737,0.264798999,0.055019699,-0.183594003
4738,0.264798999,0.055019699,-0.175780997
4739,0.264798999,0.055019699,-0.167969003
4740,0.264798999,0.055019699,-0.160155997
4741,0.264798999,0.055019699,-0.152344003
4742,0.264798999,0.055019699,-0.144530997
4743,0.264798999,0.055019699,-0.136719003
4744,0.264798999,0.055019699,-0.128905997
4745,0.264798999,0.055019699,-0.121094003
4746,0.264798999,0.055019699,-0.113280997
4747,0.264798999,0.055019699,-0.105469003
4748,0.264798999,0.055019699,-0.0976561978
4749,0.264798999,0.055019699,-0.0898436978
4750,0.264798999,0.055019699,-0.0820311978
4751,0.264798999,0.055019699,-0.0742186978
4752,0.264798999,0.055019699,-0.0664061978
4753,0.264798999,0.055019699,-0.0585937984
4754,0.264798999,0.055019699,-0.0507812984
4755,0.264798999,0.055019699,-0.0429687016
4756,0.264798999,0.055019699,-0.0351562016
4757,0.264798999,0.055019699,-0.0273436997
4758,0.264798999,0.055019699,-0.0195311997
4759,0.264798999,0.055019699,-0.0117186997
4760,0.264798999,0.055019699,-0.00390625
4761,0.264798999,0.055019699,0.00390625
4762,0.264798999,0.055019699,0.0117188003
4763,0.264798999,0.055019699,0.0195313003
4764,0.264798999,0.055019699,0.0273438003
4765,0.264798999,0.055019699,0.0351562984
4766,0.264798999,0.055019699,0.0429687984
4767,0.264798999,0.055019699,0.0507812016
4768,0.264798999,0.055019699,0.0585937016
4769,0.264798999,0.055019699,0.0664063022
4770,0.264798999,0.055019699,0.0742186978
4771,0.264798999,0.055019699,0.0820313022
4772,0.264798999,0.055019699,0.0898436978
4773,0.264798999,0.055019699,0.0976563022
4774,0.264798999,0.055019699,0.105469003
4775,0.264798999,0.055019699,0.113280997
4776,0.264798999,0.055019699,0.121094003
4777,0.264798999,0.055019699,0.128905997
4778,0.264798999,0.055019699,0.136719003
4779,0.264798999,0.055019699,0.144530997
4780,0.264798999,0.055019699,0.152344003
4781,0.264798999,0.055019699,0.160155997
4782,0.264798999,0.055019699,0.167969003
4783,0.264798999,0.055019699,0.175780997
4784,0.264798999,0.055019699,0.183594003
4785,0.264798999,0.055019699,0.191405997
4786,0.264798999,0.055019699,0.199219003
4787,0.264798999,0.055019699,0.207030997
4788,0.264798999,0.055019699,0.214844003
4789,0.264798999,0.055019699,0.222655997
4790,0.264798999,0.055019699,0.230469003
4791,0.264798999,0.055019699,0.238280997
4792,0.264798999,0.055019699,0.246094003
4793,0.264798999,0.055019699,0.253906012
4794,0.264798999,0.055019699,0.261718988
4795,0.264798999,0.055019699,0.269531012
4796,0.264798999,0.055019699,0.277343988
4797,0.264798999,0.055019699,0.285156012
4798,0.264798999,0.055019699,0.292968988
4799,0.264798999,0.055019699,0.300781012
4800,0.264798999,0.055019699,0.308593988
4801,0.264798999,0.055019699,0.316406012
4802,0.264798999,0.055019699,0.324218988
4803,0.264798999,0.055019699,0.332031012
4804,0.264798999,0.055019699,0.339843988
4805,0.264798999,0.055019699,0.347656012
4806,0.264798999,0.055019699,0.355468988
4807,0.264798999,0.055019699,0.363281012
4808,0.264798999,0.055019699,0.371093988
4809,0.264798999,0.055019699,0.378906012
4810,0.264798999,0.055019699,0.386718988
4811,0.264955997,0.0550411008,-0.394235998
4812,0.264955997,0.0550412014,0.394235998
4813,0.266398996,0.0470543988,0.397217005
4814,0.266398996,0.0470549986,-0.397217005
4815,0.26669699,0.0471763983,-0.394414991
4816,0.26669699,0.0471763983,0.394414991
4817,0.266775012,0.047208,0.390625
4818,0.266775012,0.0472081006,-0.390625
4819,0.266775012,0.0472081006,-0.382813007
4820,0.266775012,0.0472081006,-0.375
4821,0.266775012,0.0472081006,-0.367188007
4822,0.266775012,0.0472081006,-0.359375
4823,0.266775012,0.0472081006,-0.351561993
4824,0.266775012,0.0472081006,-0.34375
4825,0.266775012,0.0472081006,-0.335936993
4826,0.266775012,0.0472081006,-0.328125
4827,0.266775012,0.0472081006,-0.320311993
4828,0.266775012,0.0472081006,-0.3125
4829,0.266775012,0.0472081006,-0.304688007
4830,0.266775012,0.0472081006,-0.296875
4831,0.266775012,0.0472081006,-0.289063007
4832,0.266775012,0.0472081006,-0.28125
4833,0.266775012,0.0472081006,-0.273436993
4834,0.266775012,0.0472081006,-0.265625
4835,0.266775012,0.0472081006,-0.257813007
4836,0.266775012,0.0472081006,-0.25
4837,0.266775012,0.0472081006,-0.242186993
4838,0.266775012,0.0472081006,-0.234375
4839,0.266775012,0.0472081006,-0.226563007
4840,0.266775012,0.0472081006,-0.21875
4841,0.266775012,0.0472081006,-0.210936993
4842,0.266775012,0.0472081006,-0.203125
4843,0.266775012,0.0472081006,-0.195313007
4844,0.266775012,0.0472081006,-0.1875
4845,0.266775012,0.0472081006,-0.179686993
4846,0.266775012,0.0472081006,-0.171875
4847,0.266775012,0.0472081006,-0.164063007
4848,0.266775012,0.0472081006,-0.15625
4849,0.266775012,0.0472081006,-0.148438007
4850,0.266775012,0.0472081006,-0.140625
4851,0.266775012,0.0472081006,-0.132813007
4852,0.266775012,0.0472081006,-0.125
4853,0.266775012,0.0472081006,-0.117187001
4854,0.266775012,0.0472081006,-0.109375
4855,0.266775012,0.0472081006,-0.101562999
4856,0.266775012,0.0472081006,-0.09375
4857,0.266775012,0.0472081006,-0.0859375
4858,0.266775012,0.0472081006,-0.078125
4859,0.266775012,0.0472081006,-0.0703125
4860,0.266775012,0.0472081006,-0.0625
4861,0.266775012,0.0472081006,-0.0546875
4862,0.266775012,0.0472081006,-0.046875
4863,0.266775012,0.0472081006,-0.0390625
4864,0.266775012,0.0472081006,-0.03125
4865,0.266775012,0.0472081006,-0.0234375
4866,0.266775012,0.0472081006,-0.015625
4867,0.266775012,0.0472081006,-0.0078125
4868,0.266775012,0.0472081006,-0
4869,0.266775012,0.0472081006,0.0078125
4870,0.266775012,0.0472081006,0.015625
4871,0.266775012,0.0472081006,0.0234375
4872,0.266775012,0.0472081006,0.03125
4873,0.266775012,0.0472081006,0.0390625
4874,0.266775012,0.0472081006,0.046875
4875,0.266775012,0.0472081006,0.0546875
4876,0.266775012,0.0472081006,0.0625
4877,0.266775012,0.0472081006,0.0703125
4878,0.266775012,0.0472081006,0.078125
4879,0.266775012,0.0472081006,0.0859375
4880,0.266775012,0.0472081006,0.09375
4881,0.266775012,0.0472081006,0.101562999
4882,0.266775012,0.0472081006,0.109375
4883,0.266775012,0.0472081006,0.117187999
4884,0.266775012,0.0472081006,0.125
4885,0.266775012,0.0472081006,0.132813007
4886,0.266775012,0.0472081006,0.140625
4887,0.266775012,0.0472081006,0.148438007
4888,0.266775012,0.0472081006,0.15625
4889,0.266775012,0.0472081006,0.164061993
4890,0.266775012,0.0472081006,0.171875
4891,0.266775012,0.0472081006,0.179688007
4892,0.266775012,0.0472081006,0.1875
4893,0.266775012,0.0472081006,0.195313007
4894,0.266775012,0.0472081006,0.203125
4895,0.266775012,0.0472081006,0.210936993
4896,0.266775012,0.0472081006,0.21875
4897,0.266775012,0.0472081006,0.226563007
4898,0.266775012,0.0472081006,0.234375
4899,0.266775012,0.0472081006,0.242188007
4900,0.266775012,0.0472081006,0.25
4901,0.266775012,0.0472081006,0.257813007
4902,0.266775012,0.0472081006,0.265625
4903,0.266775012,0.0472081006,0.273438007
4904,0.266775012,0.0472081006,0.28125
4905,0.266775012,0.0472081006,0.289063007
4906,0.266775012,0.0472081006,0.296875
4907,0.266775012,0.0472081006,0.304686993
4908,0.266775012,0.0472081006,0.3125
4909,0.266775012,0.0472081006,0.320311993
4910,0.266775012,0.0472081006,0.328125
4911,0.266775012,0.0472081006,0.335938007
4912,0.266775012,0.0472081006,0.34375
4913,0.266775012,0.0472081006,0.351563007
4914,0.266775012,0.0472081006,0.359375
4915,0.266775012,0.0472081006,0.367186993
4916,0.266775012,0.0472081006,0.375
4917,0.266775012,0.0472081006,0.382813007
4918,0.266781986,0.0472108983,-0.386718988
4919,0.266781986,0.0472108983,-0.378906012
4920,0.266781986,0.0472108983,-0.371093988
4921,0.266781986,0.0472108983,-0.363281012
4922,0.266781986,0.0472108983,-0.355468988
4923,0.266781986,0.0472108983,-0.347656012
4924,0.266781986,0.0472108983,-0.339843988
4925,0.266781986,0.0472108983,-0.332031012
4926,0.266781986,0.0472108983,-0.324218988
4927,0.266781986,0.0472108983,-0.316406012
4928,0.266781986,0.0472108983,-0.308593988
4929,0.266781986,0.0472108983,-0.300781012
4930,0.266781986,0.0472108983,-0.292968988
4931,0.266781986,0.0472108983,-0.285156012
4932,0.266781986,0.0472108983,-0.277343988
4933,0.266781986,0.0472108983,-0.269531012
4934,0.266781986,0.0472108983,-0.261718988
4935,0.266781986,0.0472108983,-0.253906012
4936,0.266781986,0.0472108983,-0.246094003
4937,0.266781986,0.0472108983,-0.238280997
4938,0.266781986,0.0472108983,-0.230469003
4939,0.266781986,0.0472108983,-0.222655997
4940,0.266781986,0.0472108983,-0.214844003
4941,0.266781986,0.0472108983,-0.207030997
4942,0.266781986,0.0472108983,-0.199219003
4943,0.266781986,0.0472108983,-0.191405997
4944,0.266781986,0.0472108983,-0.183594003
4945,0.266781986,0.0472108983,-0.175780997
4946,0.266781986,0.0472108983,-0.167969003
4947,0.266781986,0.0472108983,-0.160155997
4948,0.266781986,0.0472108983,-0.152344003
4949,0.266781986,0.0472108983,-0.144530997
4950,0.266781986,0.0472108983,-0.136719003
4951,0.266781986,0.0472108983,-0.128905997
4952,0.266781986,0.0472108983,-0.121094003
4953,0.266781986,0.0472108983,-0.113280997
4954,0.266781986,0.0472108983,-0.105469003
4955,0.266781986,0.0472108983,-0.0976561978
4956,0.266781986,0.0472108983,-0.0898438022
4957,0.266781986,0.0472108983,-0.0820311978
4958,0.266781986,0.0472108983,-0.0742188022
4959,0.266781986,0.0472108983,-0.0664061978
4960,0.266781986,0.0472108983,-0.0585937016
4961,0.266781986,0.0472108983,-0.0507812016
4962,0.266781986,0.0472108983,-0.0429687016
4963,0.266781986,0.0472108983,-0.0351562984
4964,0.266781986,0.0472108983,-0.0273436997
4965,0.266781986,0.0472108983,-0.0195311997
4966,0.266781986,0.0472108983,-0.0117188003
4967,0.266781986,0.0472108983,-0.00390625
4968,0.266781986,0.0472108983,0.00390625
4969,0.266781986,0.0472108983,0.0117188003
4970,0.266781986,0.0472108983,0.0195311997
4971,0.266781986,0.0472108983,0.0273438003
4972,0.266781986,0.0472108983,0.0351562016
4973,0.266781986,0.0472108983,0.0429687984
4974,0.266781986,0.0472108983,0.0507812016
4975,0.266781986,0.0472108983,0.0585937016
4976,0.266781986,0.0472108983,0.0664061978
4977,0.266781986,0.0472108983,0.0742186978
4978,0.266781986,0.0472108983,0.0820313022
4979,0.266781986,0.0472108983,0.0898438022
4980,0.266781986,0.0472108983,0.0976561978
4981,0.266781986,0.0472108983,0.105469003
4982,0.266781986,0.0472108983,0.113280997
4983,0.266781986,0.0472108983,0.121094003
4984,0.266781986,0.0472108983,0.128905997
4985,0.266781986,0.0472108983,0.136719003
4986,0.266781986,0.0472108983,0.144530997
4987,0.266781986,0.0472108983,0.152344003
4988,0.266781986,0.0472108983,0.160155997
4989,0.266781986,0.0472108983,0.167969003
4990,0.266781986,0.0472108983,0.175780997
4991,0.266781986,0.0472108983,0.183594003
4992,0.266781986,0.0472108983,0.191405997
4993,0.266781986,0.0472108983,0.199219003
4994,0.266781986,0.0472108983,0.207030997
4995,0.266781986,0.0472108983,0.214844003
4996,0.266781986,0.0472108983,0.222655997
4997,0.266781986,0.0472108983,0.230469003
4998,0.266781986,0.0472108983,0.238280997
4999,0.266781986,0.0472108983,0.246094003
5000,0.266781986,0.0472108983,0.253906012
5001,0.266781986,0.0472108983,0.261718988
5002,0.266781986,0.0472108983,0.269531012
5003,0.266781986,0.0472108983,0.277343988
5004,0.266781986,0.0472108983,0.285156012
5005,0.266781986,0.0472108983,0.292968988
5006,0.266781986,0.0472108983,0.300781012
5007,0.266781986,0.0472108983,0.308593988
5008,0.266781986,0.0472108983,0.316406012
5009,0.266781986,0.0472108983,0.324218988
5010,0.266781986,0.0472108983,0.332031012
5011,0.266781986,0.0472108983,0.339843988
5012,0.266781986,0.0472108983,0.347656012
5013,0.266781986,0.0472108983,0.355468988
5014,0.266781986,0.0472108983,0.363281012
5015,0.266781986,0.0472108983,0.371093988
5016,0.266781986,0.0472108983,0.378906012
5017,0.266781986,0.0472108983,0.386718988
5018,0.268341988,0.0514467992,0.397435009
5019,0.268842995,0.0555485003,0.397307992
5020,0.268842995,0.0555486009,-0.397307992
5021,0.26918301,0.0556177013,-0.390625
5022,0.26918301,0.0556177013,-0.382811993
5023,0.26918301,0.0556177013,-0.375
5024,0.26918301,0.0556177013,-0.367188007
5025,0.26918301,0.0556177013,-0.359375
5026,0.26918301,0.0556177013,-0.351561993
5027,0.26918301,0.0556177013,-0.34375
5028,0.26918301,0.0556177013,-0.335938007
5029,0.26918301,0.0556177013,-0.328125
5030,0.26918301,0.0556177013,-0.320311993
5031,0.26918301,0.0556177013,-0.3125
5032,0.26918301,0.0556177013,-0.304688007
5033,0.26918301,0.0556177013,-0.296875
5034,0.26918301,0.0556177013,-0.289063007
5035,0.26918301,0.0556177013,-0.28125
5036,0.26918301,0.0556177013,-0.273438007
5037,0.26918301,0.0556177013,-0.265625
5038,0.26918301,0.0556177013,-0.257811993
5039,0.26918301,0.0556177013,-0.25
5040,0.26918301,0.0556177013,-0.242186993
5041,0.26918301,0.0556177013,-0.234375
5042,0.26918301,0.0556177013,-0.226563007
5043,0.26918301,0.0556177013,-0.21875
5044,0.26918301,0.0556177013,-0.210936993
5045,0.26918301,0.0556177013,-0.203125
5046,0.26918301,0.0556177013,-0.195313007
5047,0.26918301,0.0556177013,-0.1875
5048,0.26918301,0.0556177013,-0.179686993
5049,0.26918301,0.0556177013,-0.171875
5050,0.26918301,0.0556177013,-0.164063007
5051,0.26918301,0.0556177013,-0.15625
5052,0.26918301,0.0556177013,-0.148438007
5053,0.26918301,0.0556177013,-0.140625
5054,0.26918301,0.0556177013,-0.132811993
5055,0.26918301,0.0556177013,-0.125
5056,0.26918301,0.0556177013,-0.117187001
5057,0.26918301,0.0556177013,-0.109375
5058,0.26918301,0.0556177013,-0.101562001
5059,0.26918301,0.0556177013,-0.09375
5060,0.26918301,0.0556177013,-0.0859375
5061,0.26918301,0.0556177013,-0.078125
5062,0.26918301,0.0556177013,-0.0703125
5063,0.26918301,0.0556177013,-0.0625
5064,0.26918301,0.0556177013,-0.0546875
5065,0.26918301,0.0556177013,-0.046875
5066,0.26918301,0.0556177013,-0.0390625
5067,0.26918301,0.0556177013,-0.03125
5068,0.26918301,0.0556177013,-0.0234375
5069,0.26918301,0.0556177013,-0.015625
5070,0.26918301,0.0556177013,-0.0078125
5071,0.26918301,0.0556177013,-1e-12
5072,0.26918301,0.0556177013,0.0078125
5073,0.26918301,0.0556177013,0.015625
5074,0.26918301,0.0556177013,0.0234375
5075,0.26918301,0.0556177013,0.03125
5076,0.26918301,0.0556177013,0.0390625
5077,0.26918301,0.0556177013,0.046875
5078,0.26918301,0.0556177013,0.0546875
5079,0.26918301,0.0556177013,0.0625
5080,0.26918301,0.0556177013,0.0703125
5081,0.26918301,0.0556177013,0.078125
5082,0.26918301,0.0556177013,0.0859375
5083,0.26918301,0.0556177013,0.09375
5084,0.26918301,0.0556177013,0.101562999
5085,0.26918301,0.0556177013,0.109375
5086,0.26918301,0.0556177013,0.117187999
5087,0.26918301,0.0556177013,0.125
5088,0.26918301,0.0556177013,0.132813007
5089,0.26918301,0.0556177013,0.140625
5090,0.26918301,0.0556177013,0.148436993
5091,0.26918301,0.0556177013,0.15625
5092,0.26918301,0.0556177013,0.164061993
5093,0.26918301,0.0556177013,0.171875
5094,0.26918301,0.0556177013,0.179688007
5095,0.26918301,0.0556177013,0.1875
5096,0.26918301,0.0556177013,0.195311993
5097,0.26918301,0.0556177013,0.203125
5098,0.26918301,0.0556177013,0.210938007
5099,0.26918301,0.0556177013,0.21875
5100,0.26918301,0.0556177013,0.226561993
5101,0.26918301,0.0556177013,0.234375
5102,0.26918301,0.0556177013,0.242186993
5103,0.26918301,0.0556177013,0.25
5104,0.26918301,0.0556177013,0.257813007
5105,0.26918301,0.0556177013,0.265625
5106,0.26918301,0.0556177013,0.273438007
5107,0.26918301,0.0556177013,0.28125
5108,0.26918301,0.0556177013,0.289061993
5109,0.26918301,0.0556177013,0.296875
5110,0.26918301,0.0556177013,0.304688007
5111,0.26918301,0.0556177013,0.3125
5112,0.26918301,0.0556177013,0.320313007
5113,0.26918301,0.0556177013,0.328125
5114,0.26918301,0.0556177013,0.335938007
5115,0.26918301,0.0556177013,0.34375
5116,0.26918301,0.0556177013,0.351563007
5117,0.26918301,0.0556177013,0.359375
5118,0.26918301,0.0556177013,0.367186993
5119,0.26918301,0.0556177013,0.375
5120,0.26918301,0.0556177013,0.382811993
5121,0.26918301,0.0556177013,0.390625
5122,0.269187003,0.0556180999,-0.394371986
5123,0.269187003,0.0556180999,0.394371986
5124,0.269187003,0.055618301,-0.386718988
5125,0.269187003,0.055618301,-0.378906012
5126,0.269187003,0.055618301,-0.371093988
5127,0.269187003,0.055618301,-0.363281012
5128,0.269187003,0.055618301,-0.355468988
5129,0.269187003,0.055618301,-0.347656012
5130,0.269187003,0.055618301,-0.339843988
5131,0.269187003,0.055618301,-0.332031012
5132,0.269187003,0.055618301,-0.324218988
5133,0.269187003,0.055618301,-0.316406012
5134,0.269187003,0.055618301,-0.308593988
5135,0.269187003,0.055618301,-0.300781012
5136,0.269187003,0.055618301,-0.292968988
5137,0.269187003,0.055618301,-0.285156012
5138,0.269187003,0.055618301,-0.277343988
5139,0.269187003,0.055618301,-0.269531012
5140,0.269187003,0.055618301,-0.261718988
5141,0.269187003,0.055618301,-0.253906012
5142,0.269187003,0.055618301,-0.246094003
5143,0.269187003,0.055618301,-0.238280997
5144,0.269187003,0.055618301,-0.230469003
5145,0.269187003,0.055618301,-0.222655997
5146,0.269187003,0.055618301,-0.214844003
5147,0.269187003,0.055618301,-0.207030997
5148,0.269187003,0.055618301,-0.199219003
5149,0.269187003,0.055618301,-0.191405997
5150,0.269187003,0.055618301,-0.183594003
5151,0.269187003,0.055618301,-0.175780997
5152,0.269187003,0.055618301,-0.167969003
5153,0.269187003,0.055618301,-0.160155997
5154,0.269187003,0.055618301,-0.152344003
5155,0.269187003,0.055618301,-0.144530997
5156,0.269187003,0.055618301,-0.136719003
5157,0.269187003,0.055618301,-0.128905997
5158,0.269187003,0.055618301,-0.121094003
5159,0.269187003,0.055618301,-0.113280997
5160,0.269187003,0.055618301,-0.105469003
5161,0.269187003,0.055618301,-0.0976563022
5162,0.269187003,0.055618301,-0.0898436978
5163,0.269187003,0.055618301,-0.0820313022
5164,0.269187003,0.055618301,-0.0742186978
5165,0.269187003,0.055618301,-0.0664061978
5166,0.269187003,0.055618301,-0.0585937984
5167,0.269187003,0.055618301,-0.0507812984
5168,0.269187003,0.055618301,-0.0429687016
5169,0.269187003,0.055618301,-0.0351562984
5170,0.269187003,0.055618301,-0.0273436997
5171,0.269187003,0.055618301,-0.0195311997
5172,0.269187003,0.055618301,-0.0117186997
5173,0.269187003,0.055618301,-0.00390625
5174,0.269187003,0.055618301,0.00390625
5175,0.269187003,0.055618301,0.0117188003
5176,0.269187003,0.055618301,0.0195311997
5177,0.269187003,0.055618301,0.0273436997
5178,0.269187003,0.055618301,0.0351562984
5179,0.269187003,0.055618301,0.0429687984
5180,0.269187003,0.055618301,0.0507812984
5181,0.269187003,0.055618301,0.0585937984
5182,0.269187003,0.055618301,0.0664063022
5183,0.269187003,0.055618301,0.0742188022
5184,0.269187003,0.055618301,0.0820313022
5185,0.269187003,0.055618301,0.0898436978
5186,0.269187003,0.055618301,0.0976561978
5187,0.269187003,0.055618301,0.105469003
5188,0.269187003,0.055618301,0.113280997
5189,0.269187003,0.055618301,0.121094003
5190,0.269187003,0.055618301,0.128905997
5191,0.269187003,0.055618301,0.136719003
5192,0.269187003,0.055618301,0.144530997
5193,0.269187003,0.055618301,0.152344003
5194,0.269187003,0.055618301,0.160155997
5195,0.269187003,0.055618301,0.167969003
5196,0.269187003,0.055618301,0.175780997
5197,0.269187003,0.055618301,0.183594003
5198,0.269187003,0.055618301,0.191405997
5199,0.269187003,0.055618301,0.199219003
5200,0.269187003,0.055618301,0.207030997
5201,0.269187003,0.055618301,0.214844003
5202,0.269187003,0.055618301,0.222655997
5203,0.269187003,0.055618301,0.230469003
5204,0.269187003,0.055618301,0.238280997
5205,0.269187003,0.055618301,0.246094003
5206,0.269187003,0.055618301,0.253906012
5207,0.269187003,0.055618301,0.261718988
5208,0.269187003,0.055618301,0.269531012
5209,0.269187003,0.055618301,0.277343988
5210,0.269187003,0.055618301,0.285156012
5211,0.269187003,0.055618301,0.292968988
5212,0.269187003,0.055618301,0.300781012
5213,0.269187003,0.055618301,0.308593988
5214,0.269187003,0.055618301,0.316406012
5215,0.269187003,0.055618301,0.324218988
5216,0.269187003,0.055618301,0.332031012
5217,0.269187003,0.055618301,0.339843988
5218,0.269187003,0.055618301,0.347656012
5219,0.269187003,0.055618301,0.355468988
5220,0.269187003,0.055618301,0.363281012
5221,0.269187003,0.055618301,0.371093988
5222,0.269187003,0.055618301,0.378906012
5223,0.269187003,0.055618301,0.386718988
5224,0.269403994,0.0483070016,-0.397419006
5225,0.274599999,0.0563252009,0.397316992
5226,0.274681002,0.0504482985,-0.394412011
5227,0.274681002,0.0504482985,0.394412011
5228,0.274691999,0.0504527986,-0.390625
5229,0.274691999,0.0504527986,-0.386718988
5230,0.274691999,0.0504527986,-0.382811993
5231,0.274691999,0.0504527986,-0.378906012
5232,0.274691999,0.0504527986,-0.375
5233,0.274691999,0.0504527986,-0.371093988
5234,0.274691999,0.0504527986,-0.367188007
5235,0.274691999,0.0504527986,-0.363281012
5236,0.274691999,0.0504527986,-0.359375
5237,0.274691999,0.0504527986,-0.355468988
5238,0.274691999,0.0504527986,-0.351563007
5239,0.274691999,0.0504527986,-0.347656012
5240,0.274691999,0.0504527986,-0.34375
5241,0.274691999,0.0504527986,-0.339843988
5242,0.274691999,0.0504527986,-0.335938007
5243,0.274691999,0.0504527986,-0.332031012
5244,0.274691999,0.0504527986,-0.328125
5245,0.274691999,0.0504527986,-0.324218988
5246,0.274691999,0.0504527986,-0.320311993
5247,0.274691999,0.0504527986,-0.316406012
5248,0.274691999,0.0504527986,-0.3125
5249,0.274691999,0.0504527986,-0.308593988
5250,0.274691999,0.0504527986,-0.304688007
5251,0.274691999,0.0504527986,-0.300781012
5252,0.274691999,0.0504527986,-0.296875
5253,0.274691999,0.0504527986,-0.292968988
5254,0.274691999,0.0504527986,-0.289063007
5255,0.274691999,0.0504527986,-0.285156012
5256,0.274691999,0.0504527986,-0.28125
5257,0.274691999,0.0504527986,-0.277343988
5258,0.274691999,0.0504527986,-0.273438007
5259,0.274691999,0.0504527986,-0.269531012
5260,0.274691999,0.0504527986,-0.265625
5261,0.274691999,0.0504527986,-0.261718988
5262,0.274691999,0.0504527986,-0.257811993
5263,0.274691999,0.0504527986,-0.253906012
5264,0.274691999,0.0504527986,-0.25
5265,0.274691999,0.0504527986,-0.246094003
5266,0.274691999,0.0504527986,-0.242188007
5267,0.274691999,0.0504527986,-0.238280997
5268,0.274691999,0.0504527986,-0.234375
5269,0.274691999,0.0504527986,-0.230469003
5270,0.274691999,0.0504527986,-0.226563007
5271,0.274691999,0.0504527986,-0.222655997
5272,0.274691999,0.0504527986,-0.21875
5273,0.274691999,0.0504527986,-0.214844003
5274,0.274691999,0.0504527986,-0.210938007
5275,0.274691999,0.0504527986,-0.207030997
5276,0.274691999,0.0504527986,-0.203125
5277,0.274691999,0.0504527986,-0.199219003
5278,0.274691999,0.0504527986,-0.195311993
5279,0.274691999,0.0504527986,-0.191405997
5280,0.274691999,0.0504527986,-0.1875
5281,0.274691999,0.0504527986,-0.183594003
5282,0.274691999,0.0504527986,-0.179688007
5283,0.274691999,0.0504527986,-0.175780997
5284,0.274691999,0.0504527986,-0.171875
5285,0.274691999,0.0504527986,-0.167969003
5286,0.274691999,0.0504527986,-0.164063007
5287,0.274691999,0.0504527986,-0.160155997
5288,0.274691999,0.0504527986,-0.15625
5289,0.274691999,0.0504527986,-0.152344003
5290,0.274691999,0.0504527986,-0.148438007
5291,0.274691999,0.0504527986,-0.144530997
5292,0.274691999,0.0504527986,-0.140625
5293,0.274691999,0.0504527986,-0.136719003
5294,0.274691999,0.0504527986,-0.132813007
5295,0.274691999,0.0504527986,-0.128905997
5296,0.274691999,0.0504527986,-0.125
5297,0.274691999,0.0504527986,-0.121094003
5298,0.274691999,0.0504527986,-0.117187999
5299,0.274691999,0.0504527986,-0.113280997
5300,0.274691999,0.0504527986,-0.109375
5301,0.274691999,0.0504527986,-0.105469003
5302,0.274691999,0.0504527986,-0.101562999
5303,0.274691999,0.0504527986,-0.0976563022
5304,0.274691999,0.0504527986,-0.09375
5305,0.274691999,0.0504527986,-0.0898438022
5306,0.274691999,0.0504527986,-0.0859375
5307,0.274691999,0.0504527986,-0.0820313022
5308,0.274691999,0.0504527986,-0.078125
5309,0.274691999,0.0504527986,-0.0742188022
5310,0.274691999,0.0504527986,-0.0703125
5311,0.274691999,0.0504527986,-0.0664063022
5312,0.274691999,0.0504527986,-0.0625
5313,0.274691999,0.0504527986,-0.0585937984
5314,0.274691999,0.0504527986,-0.0546875
5315,0.274691999,0.0504527986,-0.0507812984
5316,0.274691999,0.0504527986,-0.046875
5317,0.274691999,0.0504527986,-0.0429687984
5318,0.274691999,0.0504527986,-0.0390625
5319,0.274691999,0.0504527986,-0.0351562984
5320,0.274691999,0.0504527986,-0.03125
5321,0.274691999,0.0504527986,-0.0273438003
5322,0.274691999,0.0504527986,-0.0234375
5323,0.274691999,0.0504527986,-0.0195313003
5324,0.274691999,0.0504527986,-0.015625
5325,0.274691999,0.0504527986,-0.0117188003
5326,0.274691999,0.0504527986,-0.0078125
5327,0.274691999,0.0504527986,-0.00390625
5328,0.274691999,0.0504527986,-0
5329,0.274691999,0.0504527986,0.00390625
5330,0.274691999,0.0504527986,0.0078125
5331,0.274691999,0.0504527986,0.0117186997
5332,0.274691999,0.0504527986,0.015625
5333,0.274691999,0.0504527986,0.0195311997
5334,0.274691999,0.0504527986,0.0234375
5335,0.274691999,0.0504527986,0.0273436997
5336,0.274691999,0.0504527986,0.03125
5337,0.274691999,0.0504527986,0.0351562016
5338,0.274691999,0.0504527986,0.0390625
5339,0.274691999,0.0504527986,0.0429687016
5340,0.274691999,0.0504527986,0.046875
5341,0.274691999,0.0504527986,0.0507812016
5342,0.274691999,0.0504527986,0.0546875
5343,0.274691999,0.0504527986,0.0585937016
5344,0.274691999,0.0504527986,0.0625
5345,0.274691999,0.0504527986,0.0664061978
5346,0.274691999,0.0504527986,0.0703125
5347,0.274691999,0.0504527986,0.0742186978
5348,0.274691999,0.0504527986,0.078125
5349,0.274691999,0.0504527986,0.0820311978
5350,0.274691999,0.0504527986,0.0859375
5351,0.274691999,0.0504527986,0.0898436978
5352,0.274691999,0.0504527986,0.09375
5353,0.274691999,0.0504527986,0.0976563022
5354,0.274691999,0.0504527986,0.101562001
5355,0.274691999,0.0504527986,0.105469003
5356,0.274691999,0.0504527986,0.109375
5357,0.274691999,0.0504527986,0.113280997
5358,0.274691999,0.0504527986,0.117187001
5359,0.274691999,0.0504527986,0.121094003
5360,0.274691999,0.0504527986,0.125
5361,0.274691999,0.0504527986,0.128905997
5362,0.274691999,0.0504527986,0.132811993
5363,0.274691999,0.0504527986,0.136719003
5364,0.274691999,0.0504527986,0.140625
5365,0.274691999,0.0504527986,0.144530997
5366,0.274691999,0.0504527986,0.148436993
5367,0.274691999,0.0504527986,0.152344003
5368,0.274691999,0.0504527986,0.15625
5369,0.274691999,0.0504527986,0.160155997
5370,0.274691999,0.0504527986,0.164061993
5371,0.274691999,0.0504527986,0.167969003
5372,0.274691999,0.0504527986,0.171875
5373,0.274691999,0.0504527986,0.175780997
5374,0.274691999,0.0504527986,0.179686993
5375,0.274691999,0.0504527986,0.183594003
5376,0.274691999,0.0504527986,0.1875
5377,0.274691999,0.0504527986,0.191405997
5378,0.274691999,0.0504527986,0.195311993
5379,0.274691999,0.0504527986,0.199219003
5380,0.274691999,0.0504527986,0.203125
5381,0.274691999,0.0504527986,0.207030997
5382,0.274691999,0.0504527986,0.210936993
5383,0.274691999,0.0504527986,0.214844003
5384,0.274691999,0.0504527986,0.21875
5385,0.274691999,0.0504527986,0.222655997
5386,0.274691999,0.0504527986,0.226563007
5387,0.274691999,0.0504527986,0.230469003
5388,0.274691999,0.0504527986,0.234375
5389,0.274691999,0.0504527986,0.238280997
5390,0.274691999,0.0504527986,0.242186993
5391,0.274691999,0.0504527986,0.246094003
5392,0.274691999,0.0504527986,0.25
5393,0.274691999,0.0504527986,0.253906012
5394,0.274691999,0.0504527986,0.257813007
5395,0.274691999,0.0504527986,0.261718988
5396,0.274691999,0.0504527986,0.265625
5397,0.274691999,0.0504527986,0.269531012
5398,0.274691999,0.0504527986,0.273436993
5399,0.274691999,0.0504527986,0.277343988
5400,0.274691999,0.0504527986,0.28125
5401,0.274691999,0.0504527986,0.285156012
5402,0.274691999,0.0504527986,0.289063007
5403,0.274691999,0.0504527986,0.292968988
5404,0.274691999,0.0504527986,0.296875
5405,0.274691999,0.0504527986,0.300781012
5406,0.274691999,0.0504527986,0.304686993
5407,0.274691999,0.0504527986,0.308593988
5408,0.274691999,0.0504527986,0.3125
5409,0.274691999,0.0504527986,0.316406012
5410,0.274691999,0.0504527986,0.320311993
5411,0.274691999,0.0504527986,0.324218988
5412,0.274691999,0.0504527986,0.328125
5413,0.274691999,0.0504527986,0.332031012
5414,0.274691999,0.0504527986,0.335936993
5415,0.274691999,0.0504527986,0.339843988
5416,0.274691999,0.0504527986,0.34375
5417,0.274691999,0.0504527986,0.347656012
5418,0.274691999,0.0504527986,0.351563007
5419,0.274691999,0.0504527986,0.355468988
5420,0.274691999,0.0504527986,0.359375
5421,0.274691999,0.0504527986,0.363281012
5422,0.274691999,0.0504527986,0.367186993
5423,0.274691999,0.0504527986,0.371093988
5424,0.274691999,0.0504527986,0.375
5425,0.274691999,0.0504527986,0.378906012
5426,0.274691999,0.0504527986,0.382813007
5427,0.274691999,0.0504527986,0.386718988
5428,0.274691999,0.0504527986,0.390625
5429,0.274991989,0.0563956015,-0.394327015
5430,0.274991989,0.0563956015,0.394327015
5431,0.275020987,0.0506099984,-0.397370994
5432,0.275020987,0.0506099984,0.397370994
5433,0.275038004,0.0539681017,-0.397327006
5434,0.27510801,0.0564108007,-0.386718988
5435,0.27510801,0.0564108007,-0.382811993
5436,0.27510801,0.0564108007,-0.378906012
5437,0.27510801,0.0564108007,-0.375
5438,0.27510801,0.0564108007,-0.371093988
5439,0.27510801,0.0564108007,-0.367188007
5440,0.27510801,0.0564108007,-0.363281012
5441,0.27510801,0.0564108007,-0.359375
5442,0.27510801,0.0564108007,-0.355468988
5443,0.27510801,0.0564108007,-0.351561993
5444,0.27510801,0.0564108007,-0.347656012
5445,0.27510801,0.0564108007,-0.34375
5446,0.27510801,0.0564108007,-0.339843988
5447,0.27510801,0.0564108007,-0.335938007
5448,0.27510801,0.0564108007,-0.332031012
5449,0.27510801,0.0564108007,-0.328125
5450,0.27510801,0.0564108007,-0.324218988
5451,0.27510801,0.0564108007,-0.320311993
5452,0.27510801,0.0564108007,-0.316406012
5453,0.27510801,0.0564108007,-0.3125
5454,0.27510801,0.0564108007,-0.308593988
5455,0.27510801,0.0564108007,-0.304688007
5456,0.27510801,0.0564108007,-0.300781012
5457,0.27510801,0.0564108007,-0.296875
5458,0.27510801,0.0564108007,-0.292968988
5459,0.27510801,0.0564108007,-0.289061993
5460,0.27510801,0.0564108007,-0.285156012
5461,0.27510801,0.0564108007,-0.28125
5462,0.27510801,0.0564108007,-0.277343988
5463,0.27510801,0.0564108007,-0.273436993
5464,0.27510801,0.0564108007,-0.269531012
5465,0.27510801,0.0564108007,-0.265625
5466,0.27510801,0.0564108007,-0.261718988
5467,0.27510801,0.0564108007,-0.257811993
5468,0.27510801,0.0564108007,-0.253906012
5469,0.27510801,0.0564108007,-0.25
5470,0.27510801,0.0564108007,-0.246094003
5471,0.27510801,0.0564108007,-0.242188007
5472,0.27510801,0.0564108007,-0.238280997
5473,0.27510801,0.0564108007,-0.234375
5474,0.27510801,0.0564108007,-0.230469003
5475,0.27510801,0.0564108007,-0.226561993
5476,0.27510801,0.0564108007,-0.222655997
5477,0.27510801,0.0564108007,-0.21875
5478,0.27510801,0.0564108007,-0.214844003
5479,0.27510801,0.0564108007,-0.210936993
5480,0.27510801,0.0564108007,-0.207030997
5481,0.27510801,0.0564108007,-0.203125
5482,0.27510801,0.0564108007,-0.199219003
5483,0.27510801,0.0564108007,-0.195311993
5484,0.27510801,0.0564108007,-0.191405997
5485,0.27510801,0.0564108007,-0.1875
5486,0.27510801,0.0564108007,-0.183594003
5487,0.27510801,0.0564108007,-0.179686993
5488,0.27510801,0.0564108007,-0.175780997
5489,0.27510801,0.0564108007,-0.171875
5490,0.27510801,0.0564108007,-0.167969003
5491,0.27510801,0.0564108007,-0.164061993
5492,0.27510801,0.0564108007,-0.160155997
5493,0.27510801,0.0564108007,-0.15625
5494,0.27510801,0.0564108007,-0.152344003
5495,0.27510801,0.0564108007,-0.148436993
5496,0.27510801,0.0564108007,-0.144530997
5497,0.27510801,0.0564108007,-0.140625
5498,0.27510801,0.0564108007,-0.136719003
5499,0.27510801,0.0564108007,-0.132811993
5500,0.27510801,0.0564108007,-0.128905997
5501,0.27510801,0.0564108007,-0.125
5502,0.27510801,0.0564108007,-0.121094003
5503,0.27510801,0.0564108007,-0.117187001
5504,0.27510801,0.0564108007,-0.113280997
5505,0.27510801,0.0564108007,-0.109375
5506,0.27510801,0.0564108007,-0.105469003
5507,0.27510801,0.0564108007,-0.101562999
5508,0.27510801,0.0564108007,-0.0976563022
5509,0.27510801,0.0564108007,-0.09375
5510,0.27510801,0.0564108007,-0.0898436978
5511,0.27510801,0.0564108007,-0.0859375
5512,0.27510801,0.0564108007,-0.0820311978
5513,0.27510801,0.0564108007,-0.078125
5514,0.27510801,0.0564108007,-0.0742186978
5515,0.27510801,0.0564108007,-0.0703125
5516,0.27510801,0.0564108007,-0.0664061978
5517,0.27510801,0.0564108007,-0.0625
5518,0.27510801,0.0564108007,-0.0585937016
5519,0.27510801,0.0564108007,-0.0546875
5520,0.27510801,0.0564108007,-0.0507812016
5521,0.27510801,0.0564108007,-0.046875
5522,0.27510801,0.0564108007,-0.0429687016
5523,0.27510801,0.0564108007,-0.0390625
5524,0.27510801,0.0564108007,-0.0351562016
5525,0.27510801,0.0564108007,-0.03125
5526,0.27510801,0.0564108007,-0.0273436997
5527,0.27510801,0.0564108007,-0.0234375
5528,0.27510801,0.0564108007,-0.0195311997
5529,0.27510801,0.0564108007,-0.015625
5530,0.27510801,0.0564108007,-0.0117186997
5531,0.27510801,0.0564108007,-0.0078125
5532,0.27510801,0.0564108007,-0.00390625
5533,0.27510801,0.0564108007,0
5534,0.27510801,0.0564108007,0.00390625
5535,0.27510801,0.0564108007,0.0078125
5536,0.27510801,0.0564108007,0.0117188003
5537,0.27510801,0.0564108007,0.015625
5538,0.27510801,0.0564108007,0.0195313003
5539,0.27510801,0.0564108007,0.0234375
5540,0.27510801,0.0564108007,0.0273438003
5541,0.27510801,0.0564108007,0.03125
5542,0.27510801,0.0564108007,0.0351562016
5543,0.27510801,0.0564108007,0.0390625
5544,0.27510801,0.0564108007,0.0429687984
5545,0.27510801,0.0564108007,0.046875
5546,0.27510801,0.0564108007,0.0507812016
5547,0.27510801,0.0564108007,0.0546875
5548,0.27510801,0.0564108007,0.0585937984
5549,0.27510801,0.0564108007,0.0625
5550,0.27510801,0.0564108007,0.0664061978
5551,0.27510801,0.0564108007,0.0703125
5552,0.27510801,0.0564108007,0.0742188022
5553,0.27510801,0.0564108007,0.078125
5554,0.27510801,0.0564108007,0.0820311978
5555,0.27510801,0.0564108007,0.0859375
5556,0.27510801,0.0564108007,0.0898438022
5557,0.27510801,0.0564108007,0.09375
5558,0.27510801,0.0564108007,0.0976561978
5559,0.27510801,0.0564108007,0.101562001
5560,0.27510801,0.0564108007,0.105469003
5561,0.27510801,0.0564108007,0.109375
5562,0.27510801,0.0564108007,0.113280997
5563,0.27510801,0.0564108007,0.117187001
5564,0.27510801,0.0564108007,0.121094003
5565,0.27510801,0.0564108007,0.125
5566,0.27510801,0.0564108007,0.128905997
5567,0.27510801,0.0564108007,0.132811993
5568,0.27510801,0.0564108007,0.136719003
5569,0.27510801,0.0564108007,0.140625
5570,0.27510801,0.0564108007,0.144530997
5571,0.27510801,0.0564108007,0.148438007
5572,0.27510801,0.0564108007,0.152344003
5573,0.27510801,0.0564108007,0.15625
5574,0.27510801,0.0564108007,0.160155997
5575,0.27510801,0.0564108007,0.164063007
5576,0.27510801,0.0564108007,0.167969003
5577,0.27510801,0.0564108007,0.171875
5578,0.27510801,0.0564108007,0.175780997
5579,0.27510801,0.0564108007,0.179686993
5580,0.27510801,0.0564108007,0.183594003
5581,0.27510801,0.0564108007,0.1875
5582,0.27510801,0.0564108007,0.191405997
5583,0.27510801,0.0564108007,0.195313007
5584,0.27510801,0.0564108007,0.199219003
5585,0.27510801,0.0564108007,0.203125
5586,0.27510801,0.0564108007,0.207030997
5587,0.27510801,0.0564108007,0.210938007
5588,0.27510801,0.0564108007,0.214844003
5589,0.27510801,0.0564108007,0.21875
5590,0.27510801,0.0564108007,0.222655997
5591,0.27510801,0.0564108007,0.226561993
5592,0.27510801,0.0564108007,0.230469003
5593,0.27510801,0.0564108007,0.234375
5594,0.27510801,0.0564108007,0.238280997
5595,0.27510801,0.0564108007,0.242186993
5596,0.27510801,0.0564108007,0.246094003
5597,0.27510801,0.0564108007,0.25
5598,0.27510801,0.0564108007,0.253906012
5599,0.27510801,0.0564108007,0.257813007
5600,0.27510801,0.0564108007,0.261718988
5601,0.27510801,0.0564108007,0.265625
5602,0.27510801,0.0564108007,0.269531012
5603,0.27510801,0.0564108007,0.273438007
5604,0.27510801,0.0564108007,0.277343988
5605,0.27510801,0.0564108007,0.28125
5606,0.27510801,0.0564108007,0.285156012
5607,0.27510801,0.0564108007,0.289061993
5608,0.27510801,0.0564108007,0.292968988
5609,0.27510801,0.0564108007,0.296875
5610,0.27510801,0.0564108007,0.300781012
5611,0.27510801,0.0564108007,0.304686993
5612,0.27510801,0.0564108007,0.308593988
5613,0.27510801,0.0564108007,0.3125
5614,0.27510801,0.0564108007,0.316406012
5615,0.27510801,0.0564108007,0.320311993
5616,0.27510801,0.0564108007,0.324218988
5617,0.27510801,0.0564108007,0.328125
5618,0.27510801,0.0564108007,0.332031012
5619,0.27510801,0.0564108007,0.335938007
5620,0.27510801,0.0564108007,0.339843988
5621,0.27510801,0.0564108007,0.34375
5622,0.27510801,0.0564108007,0.347656012
5623,0.27510801,0.0564108007,0.351563007
5624,0.27510801,0.0564108007,0.355468988
5625,0.27510801,0.0564108007,0.359375
5626,0.27510801,0.0564108007,0.363281012
5627,0.27510801,0.0564108007,0.367186993
5628,0.27510801,0.0564108007,0.371093988
5629,0.27510801,0.0564108007,0.375
5630,0.27510801,0.0564108007,0.378906012
5631,0.27510801,0.0564108007,0.382813007
5632,0.27510801,0.0564108007,0.386718988
5633,0.27511099,0.0564111993,-0.390597999
5634,0.27511099,0.0564111993,0.390597999
5635,0.279056013,0.0522577986,-0.39715299
5636,0.279056013,0.0522577986,0.39715299
5637,0.279285997,0.0551120006,-0.397101015
5638,0.279352009,0.0523810014,-0.394315004
5639,0.279352009,0.0523810014,0.394315004
5640,0.279473007,0.0544146001,0.397101015
5641,0.279547989,0.0524622016,-0.390603989
5642,0.279547989,0.0524622016,0.390603989
5643,0.279608995,0.0524878986,-0.386718988
5644,0.279608995,0.0524878986,-0.382813007
5645,0.279608995,0.0524878986,-0.378906012
5646,0.279608995,0.0524878986,-0.375
5647,0.279608995,0.0524878986,-0.371093988
5648,0.279608995,0.0524878986,-0.367188007
5649,0.279608995,0.0524878986,-0.363281012
5650,0.279608995,0.0524878986,-0.359375
5651,0.279608995,0.0524878986,-0.355468988
5652,0.279608995,0.0524878986,-0.351563007
5653,0.279608995,0.0524878986,-0.347656012
5654,0.279608995,0.0524878986,-0.34375
5655,0.279608995,0.0524878986,-0.339843988
5656,0.279608995,0.0524878986,-0.335938007
5657,0.279608995,0.0524878986,-0.332031012
5658,0.279608995,0.0524878986,-0.328125
5659,0.279608995,0.0524878986,-0.324218988
5660,0.279608995,0.0524878986,-0.320311993
5661,0.279608995,0.0524878986,-0.316406012
5662,0.279608995,0.0524878986,-0.3125
5663,0.279608995,0.0524878986,-0.308593988
5664,0.279608995,0.0524878986,-0.304688007
5665,0.279608995,0.0524878986,-0.300781012
5666,0.279608995,0.0524878986,-0.296875
5667,0.279608995,0.0524878986,-0.292968988
5668,0.279608995,0.0524878986,-0.289063007
5669,0.279608995,0.0524878986,-0.285156012
5670,0.279608995,0.0524878986,-0.28125
5671,0.279608995,0.0524878986,-0.277343988
5672,0.279608995,0.0524878986,-0.273438007
5673,0.279608995,0.0524878986,-0.269531012
5674,0.279608995,0.0524878986,-0.265625
5675,0.279608995,0.0524878986,-0.261718988
5676,0.279608995,0.0524878986,-0.257811993
5677,0.279608995,0.0524878986,-0.253906012
5678,0.279608995,0.0524878986,-0.25
5679,0.279608995,0.0524878986,-0.246094003
5680,0.279608995,0.0524878986,-0.242188007
5681,0.279608995,0.0524878986,-0.238280997
5682,0.279608995,0.0524878986,-0.234375
5683,0.279608995,0.0524878986,-0.230469003
5684,0.279608995,0.0524878986,-0.226563007
5685,0.279608995,0.0524878986,-0.222655997
5686,0.279608995,0.0524878986,-0.21875
5687,0.279608995,0.0524878986,-0.214844003
5688,0.279608995,0.0524878986,-0.210936993
5689,0.279608995,0.0524878986,-0.207030997
5690,0.279608995,0.0524878986,-0.203125
5691,0.279608995,0.0524878986,-0.199219003
5692,0.279608995,0.0524878986,-0.195311993
5693,0.279608995,0.0524878986,-0.191405997
5694,0.279608995,0.0524878986,-0.1875
5695,0.279608995,0.0524878986,-0.183594003
5696,0.279608995,0.0524878986,-0.179688007
5697,0.279608995,0.0524878986,-0.175780997
5698,0.279608995,0.0524878986,-0.171875
5699,0.279608995,0.0524878986,-0.167969003
5700,0.279608995,0.0524878986,-0.164061993
5701,0.279608995,0.0524878986,-0.160155997
5702,0.279608995,0.0524878986,-0.15625
5703,0.279608995,0.0524878986,-0.152344003
5704,0.279608995,0.0524878986,-0.148438007
5705,0.279608995,0.0524878986,-0.144530997
5706,0.279608995,0.0524878986,-0.140625
5707,0.279608995,0.0524878986,-0.136719003
5708,0.279608995,0.0524878986,-0.132813007
5709,0.279608995,0.0524878986,-0.128905997
5710,0.279608995,0.0524878986,-0.125
5711,0.279608995,0.0524878986,-0.121094003
5712,0.279608995,0.0524878986,-0.117187999
5713,0.279608995,0.0524878986,-0.113280997
5714,0.279608995,0.0524878986,-0.109375
5715,0.279608995,0.0524878986,-0.105469003
5716,0.279608995,0.0524878986,-0.101562999
5717,0.279608995,0.0524878986,-0.0976563022
5718,0.279608995,0.0524878986,-0.09375
5719,0.279608995,0.0524878986,-0.0898438022
5720,0.279608995,0.0524878986,-0.0859375
5721,0.279608995,0.0524878986,-0.0820313022
5722,0.279608995,0.0524878986,-0.078125
5723,0.279608995,0.0524878986,-0.0742188022
5724,0.279608995,0.0524878986,-0.0703125
5725,0.279608995,0.0524878986,-0.0664063022
5726,0.279608995,0.0524878986,-0.0625
5727,0.279608995,0.0524878986,-0.0585937016
5728,0.279608995,0.0524878986,-0.0546875
5729,0.279608995,0.0524878986,-0.0507812984
5730,0.279608995,0.0524878986,-0.046875
5731,0.279608995,0.0524878986,-0.0429687984
5732,0.279608995,0.0524878986,-0.0390625
5733,0.279608995,0.0524878986,-0.0351562984
5734,0.279608995,0.0524878986,-0.03125
5735,0.279608995,0.0524878986,-0.0273438003
5736,0.279608995,0.0524878986,-0.0234375
5737,0.279608995,0.0524878986,-0.0195311997
5738,0.279608995,0.0524878986,-0.015625
5739,0.279608995,0.0524878986,-0.0117188003
5740,0.279608995,0.0524878986,-0.0078125
5741,0.279608995,0.0524878986,-0.00390625
5742,0.279608995,0.0524878986,-0
5743,0.279608995,0.0524878986,0.00390625
5744,0.279608995,0.0524878986,0.0078125
5745,0.279608995,0.0524878986,0.0117188003
5746,0.279608995,0.0524878986,0.015625
5747,0.279608995,0.0524878986,0.0195313003
5748,0.279608995,0.0524878986,0.0234375
5749,0.279608995,0.0524878986,0.0273438003
5750,0.279608995,0.0524878986,0.03125
5751,0.279608995,0.0524878986,0.0351562016
5752,0.279608995,0.0524878986,0.0390625
5753,0.279608995,0.0524878986,0.0429687984
5754,0.279608995,0.0524878986,0.046875
5755,0.279608995,0.0524878986,0.0507812016
5756,0.279608995,0.0524878986,0.0546875
5757,0.279608995,0.0524878986,0.0585937016
5758,0.279608995,0.0524878986,0.0625
5759,0.279608995,0.0524878986,0.0664063022
5760,0.279608995,0.0524878986,0.0703125
5761,0.279608995,0.0524878986,0.0742188022
5762,0.279608995,0.0524878986,0.078125
5763,0.279608995,0.0524878986,0.0820313022
5764,0.279608995,0.0524878986,0.0859375
5765,0.279608995,0.0524878986,0.0898436978
5766,0.279608995,0.0524878986,0.09375
5767,0.279608995,0.0524878986,0.0976561978
5768,0.279608995,0.0524878986,0.101562001
5769,0.279608995,0.0524878986,0.105469003
5770,0.279608995,0.0524878986,0.109375
5771,0.279608995,0.0524878986,0.113280997
5772,0.279608995,0.0524878986,0.117187999
5773,0.279608995,0.0524878986,0.121094003
5774,0.279608995,0.0524878986,0.125
5775,0.279608995,0.0524878986,0.128905997
5776,0.279608995,0.0524878986,0.132813007
5777,0.279608995,0.0524878986,0.136719003
5778,0.279608995,0.0524878986,0.140625
5779,0.279608995,0.0524878986,0.144530997
5780,0.279608995,0.0524878986,0.148438007
5781,0.279608995,0.0524878986,0.152344003
5782,0.279608995,0.0524878986,0.15625
5783,0.279608995,0.0524878986,0.160155997
5784,0.279608995,0.0524878986,0.164063007
5785,0.279608995,0.0524878986,0.167969003
5786,0.279608995,0.0524878986,0.171875
5787,0.279608995,0.0524878986,0.175780997
5788,0.279608995,0.0524878986,0.179688007
5789,0.279608995,0.0524878986,0.183594003
5790,0.279608995,0.0524878986,0.1875
5791,0.279608995,0.0524878986,0.191405997
5792,0.279608995,0.0524878986,0.195311993
5793,0.279608995,0.0524878986,0.199219003
5794,0.279608995,0.0524878986,0.203125
5795,0.279608995,0.0524878986,0.207030997
5796,0.279608995,0.0524878986,0.210938007
5797,0.279608995,0.0524878986,0.214844003
5798,0.279608995,0.0524878986,0.21875
5799,0.279608995,0.0524878986,0.222655997
5800,0.279608995,0.0524878986,0.226563007
5801,0.279608995,0.0524878986,0.230469003
5802,0.279608995,0.0524878986,0.234375
5803,0.279608995,0.0524878986,0.238280997
5804,0.279608995,0.0524878986,0.242186993
5805,0.279608995,0.0524878986,0.246094003
5806,0.279608995,0.0524878986,0.25
5807,0.279608995,0.0524878986,0.253906012
5808,0.279608995,0.0524878986,0.257813007
5809,0.279608995,0.0524878986,0.261718988
5810,0.279608995,0.0524878986,0.265625
5811,0.279608995,0.0524878986,0.269531012
5812,0.279608995,0.0524878986,0.273438007
5813,0.279608995,0.0524878986,0.277343988
5814,0.279608995,0.0524878986,0.28125
5815,0.279608995,0.0524878986,0.285156012
5816,0.279608995,0.0524878986,0.289061993
5817,0.279608995,0.0524878986,0.292968988
5818,0.279608995,0.0524878986,0.296875
5819,0.279608995,0.0524878986,0.300781012
5820,0.279608995,0.0524878986,0.304686993
5821,0.279608995,0.0524878986,0.308593988
5822,0.279608995,0.0524878986,0.3125
5823,0.279608995,0.0524878986,0.316406012
5824,0.279608995,0.0524878986,0.320311993
5825,0.279608995,0.0524878986,0.324218988
5826,0.279608995,0.0524878986,0.328125
5827,0.279608995,0.0524878986,0.332031012
5828,0.279608995,0.0524878986,0.335936993
5829,0.279608995,0.0524878986,0.339843988
5830,0.279608995,0.0524878986,0.34375
5831,0.279608995,0.0524878986,0.347656012
5832,0.279608995,0.0524878986,0.351563007
5833,0.279608995,0.0524878986,0.355468988
5834,0.279608995,0.0524878986,0.359375
5835,0.279608995,0.0524878986,0.363281012
5836,0.279608995,0.0524878986,0.367188007
5837,0.279608995,0.0524878986,0.371093988
5838,0.279608995,0.0524878986,0.375
5839,0.279608995,0.0524878986,0.378906012
5840,0.279608995,0.0524878986,0.382813007
5841,0.279608995,0.0524878986,0.386718988
5842,0.281251013,0.0556410998,-0.393669009
5843,0.28134799,0.0572264008,-0.390509009
5844,0.28134799,0.0572264008,0.390509009
5845,0.281405985,0.0572337992,-0.386718988
5846,0.281405985,0.0572337992,-0.382811993
5847,0.281405985,0.0572337992,-0.378906012
5848,0.281405985,0.0572337992,-0.375
5849,0.281405985,0.0572337992,-0.371093988
5850,0.281405985,0.0572337992,-0.367188007
5851,0.281405985,0.0572337992,-0.363281012
5852,0.281405985,0.0572337992,-0.359375
5853,0.281405985,0.0572337992,-0.355468988
5854,0.281405985,0.0572337992,-0.351561993
5855,0.281405985,0.0572337992,-0.347656012
5856,0.281405985,0.0572337992,-0.34375
5857,0.281405985,0.0572337992,-0.339843988
5858,0.281405985,0.0572337992,-0.335938007
5859,0.281405985,0.0572337992,-0.332031012
5860,0.281405985,0.0572337992,-0.328125
5861,0.281405985,0.0572337992,-0.324218988
5862,0.281405985,0.0572337992,-0.320311993
5863,0.281405985,0.0572337992,-0.316406012
5864,0.281405985,0.0572337992,-0.3125
5865,0.281405985,0.0572337992,-0.308593988
5866,0.281405985,0.0572337992,-0.304688007
5867,0.281405985,0.0572337992,-0.300781012
5868,0.281405985,0.0572337992,-0.296875
5869,0.281405985,0.0572337992,-0.292968988
5870,0.281405985,0.0572337992,-0.289061993
5871,0.281405985,0.0572337992,-0.285156012
5872,0.281405985,0.0572337992,-0.28125
5873,0.281405985,0.0572337992,-0.277343988
5874,0.281405985,0.0572337992,-0.273438007
5875,0.281405985,0.0572337992,-0.269531012
5876,0.281405985,0.0572337992,-0.265625
5877,0.281405985,0.0572337992,-0.261718988
5878,0.281405985,0.0572337992,-0.257813007
5879,0.281405985,0.0572337992,-0.253906012
5880,0.281405985,0.0572337992,-0.25
5881,0.281405985,0.0572337992,-0.246094003
5882,0.281405985,0.0572337992,-0.242188007
5883,0.281405985,0.0572337992,-0.238280997
5884,0.281405985,0.0572337992,-0.234375
5885,0.281405985,0.0572337992,-0.230469003
5886,0.281405985,0.0572337992,-0.226561993
5887,0.281405985,0.0572337992,-0.222655997
5888,0.281405985,0.0572337992,-0.21875
5889,0.281405985,0.0572337992,-0.214844003
5890,0.281405985,0.0572337992,-0.210936993
5891,0.281405985,0.0572337992,-0.207030997
5892,0.281405985,0.0572337992,-0.203125
5893,0.281405985,0.0572337992,-0.199219003
5894,0.281405985,0.0572337992,-0.195311993
5895,0.281405985,0.0572337992,-0.191405997
5896,0.281405985,0.0572337992,-0.1875
5897,0.281405985,0.0572337992,-0.183594003
5898,0.281405985,0.0572337992,-0.179686993
5899,0.281405985,0.0572337992,-0.175780997
5900,0.281405985,0.0572337992,-0.171875
5901,0.281405985,0.0572337992,-0.167969003
5902,0.281405985,0.0572337992,-0.164061993
5903,0.281405985,0.0572337992,-0.160155997
5904,0.281405985,0.0572337992,-0.15625
5905,0.281405985,0.0572337992,-0.152344003
5906,0.281405985,0.0572337992,-0.148438007
5907,0.281405985,0.0572337992,-0.144530997
5908,0.281405985,0.0572337992,-0.140625
5909,0.281405985,0.0572337992,-0.136719003
5910,0.281405985,0.0572337992,-0.132811993
5911,0.281405985,0.0572337992,-0.128905997
5912,0.281405985,0.0572337992,-0.125
5913,0.281405985,0.0572337992,-0.121094003
5914,0.281405985,0.0572337992,-0.117187999
5915,0.281405985,0.0572337992,-0.113280997
5916,0.281405985,0.0572337992,-0.109375
5917,0.281405985,0.0572337992,-0.105469003
5918,0.281405985,0.0572337992,-0.101562999
5919,0.281405985,0.0572337992,-0.0976563022
5920,0.281405985,0.0572337992,-0.09375
5921,0.281405985,0.0572337992,-0.0898436978
5922,0.281405985,0.0572337992,-0.0859375
5923,0.281405985,0.0572337992,-0.0820313022
5924,0.281405985,0.0572337992,-0.078125
5925,0.281405985,0.0572337992,-0.0742188022
5926,0.281405985,0.0572337992,-0.0703125
5927,0.281405985,0.0572337992,-0.0664061978
5928,0.281405985,0.0572337992,-0.0625
5929,0.281405985,0.0572337992,-0.0585937984
5930,0.281405985,0.0572337992,-0.0546875
5931,0.281405985,0.0572337992,-0.0507812016
5932,0.281405985,0.0572337992,-0.046875
5933,0.281405985,0.0572337992,-0.0429687016
5934,0.281405985,0.0572337992,-0.0390625
5935,0.281405985,0.0572337992,-0.0351562016
5936,0.281405985,0.0572337992,-0.03125
5937,0.281405985,0.0572337992,-0.0273438003
5938,0.281405985,0.0572337992,-0.0234375
5939,0.281405985,0.0572337992,-0.0195313003
5940,0.281405985,0.0572337992,-0.015625
5941,0.281405985,0.0572337992,-0.0117186997
5942,0.281405985,0.0572337992,-0.0078125
5943,0.281405985,0.0572337992,-0.00390625
5944,0.281405985,0.0572337992,-0
5945,0.281405985,0.0572337992,0.00390625
5946,0.281405985,0.0572337992,0.0078125
5947,0.281405985,0.0572337992,0.0117186997
5948,0.281405985,0.0572337992,0.015625
5949,0.281405985,0.0572337992,0.0195311997
5950,0.281405985,0.0572337992,0.0234375
5951,0.281405985,0.0572337992,0.0273438003
5952,0.281405985,0.0572337992,0.03125
5953,0.281405985,0.0572337992,0.0351562984
5954,0.281405985,0.0572337992,0.0390625
5955,0.281405985,0.0572337992,0.0429687016
5956,0.281405985,0.0572337992,0.046875
5957,0.281405985,0.0572337992,0.0507812984
5958,0.281405985,0.0572337992,0.0546875
5959,0.281405985,0.0572337992,0.0585937016
5960,0.281405985,0.0572337992,0.0625
5961,0.281405985,0.0572337992,0.0664061978
5962,0.281405985,0.0572337992,0.0703125
5963,0.281405985,0.0572337992,0.0742186978
5964,0.281405985,0.0572337992,0.078125
5965,0.281405985,0.0572337992,0.0820311978
5966,0.281405985,0.0572337992,0.0859375
5967,0.281405985,0.0572337992,0.0898438022
5968,0.281405985,0.0572337992,0.09375
5969,0.281405985,0.0572337992,0.0976563022
5970,0.281405985,0.0572337992,0.101562999
5971,0.281405985,0.0572337992,0.105469003
5972,0.281405985,0.0572337992,0.109375
5973,0.281405985,0.0572337992,0.113280997
5974,0.281405985,0.0572337992,0.117187001
5975,0.281405985,0.0572337992,0.121094003
5976,0.281405985,0.0572337992,0.125
5977,0.281405985,0.0572337992,0.128905997
5978,0.281405985,0.0572337992,0.132813007
5979,0.281405985,0.0572337992,0.136719003
5980,0.281405985,0.0572337992,0.140625
5981,0.281405985,0.0572337992,0.144530997
5982,0.281405985,0.0572337992,0.148438007
5983,0.281405985,0.0572337992,0.152344003
5984,0.281405985,0.0572337992,0.15625
5985,0.281405985,0.0572337992,0.160155997
5986,0.281405985,0.0572337992,0.164063007
5987,0.281405985,0.0572337992,0.167969003
5988,0.281405985,0.0572337992,0.171875
5989,0.281405985,0.0572337992,0.175780997
5990,0.281405985,0.0572337992,0.179686993
5991,0.281405985,0.0572337992,0.183594003
5992,0.281405985,0.0572337992,0.1875
5993,0.281405985,0.0572337992,0.191405997
5994,0.281405985,0.0572337992,0.195311993
5995,0.281405985,0.0572337992,0.199219003
5996,0.281405985,0.0572337992,0.203125
5997,0.281405985,0.0572337992,0.207030997
5998,0.281405985,0.0572337992,0.210936993
5999,0.281405985,0.0572337992,0.214844003
6000,0.281405985,0.0572337992,0.21875
6001,0.281405985,0.0572337992,0.222655997
6002,0.281405985,0.0572337992,0.226561993
6003,0.281405985,0.0572337992,0.230469003
6004,0.281405985,0.0572337992,0.234375
6005,0.281405985,0.0572337992,0.238280997
6006,0.281405985,0.0572337992,0.242186993
6007,0.281405985,0.0572337992,0.246094003
6008,0.281405985,0.0572337992,0.25
6009,0.281405985,0.0572337992,0.253906012
6010,0.281405985,0.0572337992,0.257811993
6011,0.281405985,0.0572337992,0.261718988
6012,0.281405985,0.0572337992,0.265625
6013,0.281405985,0.0572337992,0.269531012
6014,0.281405985,0.0572337992,0.273436993
6015,0.281405985,0.0572337992,0.277343988
6016,0.281405985,0.0572337992,0.28125
6017,0.281405985,0.0572337992,0.285156012
6018,0.281405985,0.0572337992,0.289061993
6019,0.281405985,0.0572337992,0.292968988
6020,0.281405985,0.0572337992,0.296875
6021,0.281405985,0.0572337992,0.300781012
6022,0.281405985,0.0572337992,0.304686993
6023,0.281405985,0.0572337992,0.308593988
6024,0.281405985,0.0572337992,0.3125
6025,0.281405985,0.0572337992,0.316406012
6026,0.281405985,0.0572337992,0.320313007
6027,0.281405985,0.0572337992,0.324218988
6028,0.281405985,0.0572337992,0.328125
6029,0.281405985,0.0572337992,0.332031012
6030,0.281405985,0.0572337992,0.335938007
6031,0.281405985,0.0572337992,0.339843988
6032,0.281405985,0.0572337992,0.34375
6033,0.281405985,0.0572337992,0.347656012
6034,0.281405985,0.0572337992,0.351563007
6035,0.281405985,0.0572337992,0.355468988
6036,0.281405985,0.0572337992,0.359375
6037,0.281405985,0.0572337992,0.363281012
6038,0.281405985,0.0572337992,0.367186993
6039,0.281405985,0.0572337992,0.371093988
6040,0.281405985,0.0572337992,0.375
6041,0.281405985,0.0572337992,0.378906012
6042,0.281405985,0.0572337992,0.382813007
6043,0.281405985,0.0572337992,0.386718988
6044,0.281439006,0.0549385995,0.393669009
6045,0.28698501,0.0555698015,-0.386718988
6046,0.28698501,0.0555698015,-0.382811993
6047,0.28698501,0.0555698015,-0.378906012
6048,0.28698501,0.0555698015,-0.375
6049,0.28698501,0.0555698015,-0.371093988
6050,0.28698501,0.0555698015,-0.367188007
6051,0.28698501,0.0555698015,-0.363281012
6052,0.28698501,0.0555698015,-0.359375
6053,0.28698501,0.0555698015,-0.355468988
6054,0.28698501,0.0555698015,-0.351561993
6055,0.28698501,0.0555698015,-0.347656012
6056,0.28698501,0.0555698015,-0.34375
6057,0.28698501,0.0555698015,-0.339843988
6058,0.28698501,0.0555698015,-0.335938007
6059,0.28698501,0.0555698015,-0.332031012
6060,0.28698501,0.0555698015,-0.328125
6061,0.28698501,0.0555698015,-0.324218988
6062,0.28698501,0.0555698015,-0.320311993
6063,0.28698501,0.0555698015,-0.316406012
6064,0.28698501,0.0555698015,-0.3125
6065,0.28698501,0.0555698015,-0.308593988
6066,0.28698501,0.0555698015,-0.304688007
6067,0.28698501,0.0555698015,-0.300781012
6068,0.28698501,0.0555698015,-0.296875
6069,0.28698501,0.0555698015,-0.292968988
6070,0.28698501,0.0555698015,-0.289063007
6071,0.28698501,0.0555698015,-0.285156012
6072,0.28698501,0.0555698015,-0.28125
6073,0.28698501,0.0555698015,-0.277343988
6074,0.28698501,0.0555698015,-0.273436993
6075,0.28698501,0.0555698015,-0.269531012
6076,0.28698501,0.0555698015,-0.265625
6077,0.28698501,0.0555698015,-0.261718988
6078,0.28698501,0.0555698015,-0.257811993
6079,0.28698501,0.0555698015,-0.253906012
6080,0.28698501,0.0555698015,-0.25
6081,0.28698501,0.0555698015,-0.246094003
6082,0.28698501,0.0555698015,-0.242188007
6083,0.28698501,0.0555698015,-0.238280997
6084,0.28698501,0.0555698015,-0.234375
6085,0.28698501,0.0555698015,-0.230469003
6086,0.28698501,0.0555698015,-0.226561993
6087,0.28698501,0.0555698015,-0.222655997
6088,0.28698501,0.0555698015,-0.21875
6089,0.28698501,0.0555698015,-0.214844003
6090,0.28698501,0.0555698015,-0.210936993
6091,0.28698501,0.0555698015,-0.207030997
6092,0.28698501,0.0555698015,-0.203125
6093,0.28698501,0.0555698015,-0.199219003
6094,0.28698501,0.0555698015,-0.195311993
6095,0.28698501,0.0555698015,-0.191405997
6096,0.28698501,0.0555698015,-0.1875
6097,0.28698501,0.0555698015,-0.183594003
6098,0.28698501,0.0555698015,-0.179688007
6099,0.28698501,0.0555698015,-0.175780997
6100,0.28698501,0.0555698015,-0.171875
6101,0.28698501,0.0555698015,-0.167969003
6102,0.28698501,0.0555698015,-0.164061993
6103,0.28698501,0.0555698015,-0.160155997
6104,0.28698501,0.0555698015,-0.15625
6105,0.28698501,0.0555698015,-0.152344003
6106,0.28698501,0.0555698015,-0.148436993
6107,0.28698501,0.0555698015,-0.144530997
6108,0.28698501,0.0555698015,-0.140625
6109,0.28698501,0.0555698015,-0.136719003
6110,0.28698501,0.0555698015,-0.132811993
6111,0.28698501,0.0555698015,-0.128905997
6112,0.28698501,0.0555698015,-0.125
6113,0.28698501,0.0555698015,-0.121094003
6114,0.28698501,0.0555698015,-0.117187999
6115,0.28698501,0.0555698015,-0.113280997
6116,0.28698501,0.0555698015,-0.109375
6117,0.28698501,0.0555698015,-0.105469003
6118,0.28698501,0.0555698015,-0.101562999
6119,0.28698501,0.0555698015,-0.0976563022
6120,0.28698501,0.0555698015,-0.09375
6121,0.28698501,0.0555698015,-0.0898438022
6122,0.28698501,0.0555698015,-0.0859375
6123,0.28698501,0.0555698015,-0.0820311978
6124,0.28698501,0.0555698015,-0.078125
6125,0.28698501,0.0555698015,-0.0742188022
6126,0.28698501,0.0555698015,-0.0703125
6127,0.28698501,0.0555698015,-0.0664063022
6128,0.28698501,0.0555698015,-0.0625
6129,0.28698501,0.0555698015,-0.0585937016
6130,0.28698501,0.0555698015,-0.0546875
6131,0.28698501,0.0555698015,-0.0507812984
6132,0.28698501,0.0555698015,-0.046875
6133,0.28698501,0.0555698015,-0.0429687016
6134,0.28698501,0.0555698015,-0.0390625
6135,0.28698501,0.0555698015,-0.0351562016
6136,0.28698501,0.0555698015,-0.03125
6137,0.28698501,0.0555698015,-0.0273438003
6138,0.28698501,0.0555698015,-0.0234375
6139,0.28698501,0.0555698015,-0.0195313003
6140,0.28698501,0.0555698015,-0.015625
6141,0.28698501,0.0555698015,-0.0117188003
6142,0.28698501,0.0555698015,-0.0078125
6143,0.28698501,0.0555698015,-0.00390625
6144,0.28698501,0.0555698015,0
6145,0.28698501,0.0555698015,0.00390625
6146,0.28698501,0.0555698015,0.0078125
6147,0.28698501,0.0555698015,0.0117188003
6148,0.28698501,0.0555698015,0.015625
6149,0.28698501,0.0555698015,0.0195313003
6150,0.28698501,0.0555698015,0.0234375
6151,0.28698501,0.0555698015,0.0273438003
6152,0.28698501,0.0555698015,0.03125
6153,0.28698501,0.0555698015,0.0351562016
6154,0.28698501,0.0555698015,0.0390625
6155,0.28698501,0.0555698015,0.0429687016
6156,0.28698501,0.0555698015,0.046875
6157,0.28698501,0.0555698015,0.0507812016
6158,0.28698501,0.0555698015,0.0546875
6159,0.28698501,0.0555698015,0.0585937984
6160,0.28698501,0.0555698015,0.0625
6161,0.28698501,0.0555698015,0.0664063022
6162,0.28698501,0.0555698015,0.0703125
6163,0.28698501,0.0555698015,0.0742188022
6164,0.28698501,0.0555698015,0.078125
6165,0.28698501,0.0555698015,0.0820311978
6166,0.28698501,0.0555698015,0.0859375
6167,0.28698501,0.0555698015,0.0898436978
6168,0.28698501,0.0555698015,0.09375
6169,0.28698501,0.0555698015,0.0976563022
6170,0.28698501,0.0555698015,0.101562999
6171,0.28698501,0.0555698015,0.105469003
6172,0.28698501,0.0555698015,0.109375
6173,0.28698501,0.0555698015,0.113280997
6174,0.28698501,0.0555698015,0.117187999
6175,0.28698501,0.0555698015,0.121094003
6176,0.28698501,0.0555698015,0.125
6177,0.28698501,0.0555698015,0.128905997
6178,0.28698501,0.0555698015,0.132813007
6179,0.28698501,0.0555698015,0.136719003
6180,0.28698501,0.0555698015,0.140625
6181,0.28698501,0.0555698015,0.144530997
6182,0.28698501,0.0555698015,0.148436993
6183,0.28698501,0.0555698015,0.152344003
6184,0.28698501,0.0555698015,0.15625
6185,0.28698501,0.0555698015,0.160155997
6186,0.28698501,0.0555698015,0.164061993
6187,0.28698501,0.0555698015,0.167969003
6188,0.28698501,0.0555698015,0.171875
6189,0.28698501,0.0555698015,0.175780997
6190,0.28698501,0.0555698015,0.179686993
6191,0.28698501,0.0555698015,0.183594003
6192,0.28698501,0.0555698015,0.1875
6193,0.28698501,0.0555698015,0.191405997
6194,0.28698501,0.0555698015,0.195313007
6195,0.28698501,0.0555698015,0.199219003
6196,0.28698501,0.0555698015,0.203125
6197,0.28698501,0.0555698015,0.207030997
6198,0.28698501,0.0555698015,0.210938007
6199,0.28698501,0.0555698015,0.214844003
6200,0.28698501,0.0555698015,0.21875
6201,0.28698501,0.0555698015,0.222655997
6202,0.28698501,0.0555698015,0.226563007
6203,0.28698501,0.0555698015,0.230469003
6204,0.28698501,0.0555698015,0.234375
6205,0.28698501,0.0555698015,0.238280997
6206,0.28698501,0.0555698015,0.242188007
6207,0.28698501,0.0555698015,0.246094003
6208,0.28698501,0.0555698015,0.25
6209,0.28698501,0.0555698015,0.253906012
6210,0.28698501,0.0555698015,0.257813007
6211,0.28698501,0.0555698015,0.261718988
6212,0.28698501,0.0555698015,0.265625
6213,0.28698501,0.0555698015,0.269531012
6214,0.28698501,0.0555698015,0.273438007
6215,0.28698501,0.0555698015,0.277343988
6216,0.28698501,0.0555698015,0.28125
6217,0.28698501,0.0555698015,0.285156012
6218,0.28698501,0.0555698015,0.289061993
6219,0.28698501,0.0555698015,0.292968988
6220,0.28698501,0.0555698015,0.296875
6221,0.28698501,0.0555698015,0.300781012
6222,0.28698501,0.0555698015,0.304686993
6223,0.28698501,0.0555698015,0.308593988
6224,0.28698501,0.0555698015,0.3125
6225,0.28698501,0.0555698015,0.316406012
6226,0.28698501,0.0555698015,0.320311993
6227,0.28698501,0.0555698015,0.324218988
6228,0.28698501,0.0555698015,0.328125
6229,0.28698501,0.0555698015,0.332031012
6230,0.28698501,0.0555698015,0.335936993
6231,0.28698501,0.0555698015,0.339843988
6232,0.28698501,0.0555698015,0.34375
6233,0.28698501,0.0555698015,0.347656012
6234,0.28698501,0.0555698015,0.351561993
6235,0.28698501,0.0555698015,0.355468988
6236,0.28698501,0.0555698015,0.359375
6237,0.28698501,0.0555698015,0.363281012
6238,0.28698501,0.0555698015,0.367188007
6239,0.28698501,0.0555698015,0.371093988
6240,0.28698501,0.0555698015,0.375
6241,0.28698501,0.0555698015,0.378906012
6242,0.28698501,0.0555698015,0.382811993
6243,0.28698501,0.0555698015,0.386718988
6244,0.287001014,0.0555767007,-0.39043799
6245,0.287001014,0.0555767007,0.39043799
6246,0.287061989,0.0579552986,-0.390412003
6247,0.287061989,0.0579552986,0.390412003
6248,0.287131995,0.0564564988,0.392681986
6249,0.287131995,0.0579641014,-0.386718988
6250,0.287131995,0.0579641014,-0.382811993
6251,0.287131995,0.0579641014,-0.378906012
6252,0.287131995,0.0579641014,-0.375
6253,0.287131995,0.0579641014,-0.371093988
6254,0.287131995,0.0579641014,-0.367186993
6255,0.287131995,0.0579641014,-0.363281012
6256,0.287131995,0.0579641014,-0.359375
6257,0.287131995,0.0579641014,-0.355468988
6258,0.287131995,0.0579641014,-0.351561993
6259,0.287131995,0.0579641014,-0.347656012
6260,0.287131995,0.0579641014,-0.34375
6261,0.287131995,0.0579641014,-0.339843988
6262,0.287131995,0.0579641014,-0.335938007
6263,0.287131995,0.0579641014,-0.332031012
6264,0.287131995,0.0579641014,-0.328125
6265,0.287131995,0.0579641014,-0.324218988
6266,0.287131995,0.0579641014,-0.320311993
6267,0.287131995,0.0579641014,-0.316406012
6268,0.287131995,0.0579641014,-0.3125
6269,0.287131995,0.0579641014,-0.308593988
6270,0.287131995,0.0579641014,-0.304686993
6271,0.287131995,0.0579641014,-0.300781012
6272,0.287131995,0.0579641014,-0.296875
6273,0.287131995,0.0579641014,-0.292968988
6274,0.287131995,0.0579641014,-0.289061993
6275,0.287131995,0.0579641014,-0.285156012
6276,0.287131995,0.0579641014,-0.28125
6277,0.287131995,0.0579641014,-0.277343988
6278,0.287131995,0.0579641014,-0.273438007
6279,0.287131995,0.0579641014,-0.269531012
6280,0.287131995,0.0579641014,-0.265625
6281,0.287131995,0.0579641014,-0.261718988
6282,0.287131995,0.0579641014,-0.257811993
6283,0.287131995,0.0579641014,-0.253906012
6284,0.287131995,0.0579641014,-0.25
6285,0.287131995,0.0579641014,-0.246094003
6286,0.287131995,0.0579641014,-0.242188007
6287,0.287131995,0.0579641014,-0.238280997
6288,0.287131995,0.0579641014,-0.234375
6289,0.287131995,0.0579641014,-0.230469003
6290,0.287131995,0.0579641014,-0.226561993
6291,0.287131995,0.0579641014,-0.222655997
6292,0.287131995,0.0579641014,-0.21875
6293,0.287131995,0.0579641014,-0.214844003
6294,0.287131995,0.0579641014,-0.210938007
6295,0.287131995,0.0579641014,-0.207030997
6296,0.287131995,0.0579641014,-0.203125
6297,0.287131995,0.0579641014,-0.199219003
6298,0.287131995,0.0579641014,-0.195311993
6299,0.287131995,0.0579641014,-0.191405997
6300,0.287131995,0.0579641014,-0.1875
6301,0.287131995,0.0579641014,-0.183594003
6302,0.287131995,0.0579641014,-0.179686993
6303,0.287131995,0.0579641014,-0.175780997
6304,0.287131995,0.0579641014,-0.171875
6305,0.287131995,0.0579641014,-0.167969003
6306,0.287131995,0.0579641014,-0.164063007
6307,0.287131995,0.0579641014,-0.160155997
6308,0.287131995,0.0579641014,-0.15625
6309,0.287131995,0.0579641014,-0.152344003
6310,0.287131995,0.0579641014,-0.148436993
6311,0.287131995,0.0579641014,-0.144530997
6312,0.287131995,0.0579641014,-0.140625
6313,0.287131995,0.0579641014,-0.136719003
6314,0.287131995,0.0579641014,-0.132811993
6315,0.287131995,0.0579641014,-0.128905997
6316,0.287131995,0.0579641014,-0.125
6317,0.287131995,0.0579641014,-0.121094003
6318,0.287131995,0.0579641014,-0.117187999
6319,0.287131995,0.0579641014,-0.113280997
6320,0.287131995,0.0579641014,-0.109375
6321,0.287131995,0.0579641014,-0.105469003
6322,0.287131995,0.0579641014,-0.101562999
6323,0.287131995,0.0579641014,-0.0976563022
6324,0.287131995,0.0579641014,-0.09375
6325,0.287131995,0.0579641014,-0.0898436978
6326,0.287131995,0.0579641014,-0.0859375
6327,0.287131995,0.0579641014,-0.0820311978
6328,0.287131995,0.0579641014,-0.078125
6329,0.287131995,0.0579641014,-0.0742186978
6330,0.287131995,0.0579641014,-0.0703125
6331,0.287131995,0.0579641014,-0.0664061978
6332,0.287131995,0.0579641014,-0.0625
6333,0.287131995,0.0579641014,-0.0585937984
6334,0.287131995,0.0579641014,-0.0546875
6335,0.287131995,0.0579641014,-0.0507812016
6336,0.287131995,0.0579641014,-0.046875
6337,0.287131995,0.0579641014,-0.0429687016
6338,0.287131995,0.0579641014,-0.0390625
6339,0.287131995,0.0579641014,-0.0351562016
6340,0.287131995,0.0579641014,-0.03125
6341,0.287131995,0.0579641014,-0.0273436997
6342,0.287131995,0.0579641014,-0.0234375
6343,0.287131995,0.0579641014,-0.0195313003
6344,0.287131995,0.0579641014,-0.015625
6345,0.287131995,0.0579641014,-0.0117188003
6346,0.287131995,0.0579641014,-0.0078125
6347,0.287131995,0.0579641014,-0.00390625
6348,0.287131995,0.0579641014,0
6349,0.287131995,0.0579641014,0.00390625
6350,0.287131995,0.0579641014,0.0078125
6351,0.287131995,0.0579641014,0.0117186997
6352,0.287131995,0.0579641014,0.015625
6353,0.287131995,0.0579641014,0.0195311997
6354,0.287131995,0.0579641014,0.0234375
6355,0.287131995,0.0579641014,0.0273438003
6356,0.287131995,0.0579641014,0.03125
6357,0.287131995,0.0579641014,0.0351562016
6358,0.287131995,0.0579641014,0.0390625
6359,0.287131995,0.0579641014,0.0429687016
6360,0.287131995,0.0579641014,0.046875
6361,0.287131995,0.0579641014,0.0507812984
6362,0.287131995,0.0579641014,0.0546875
6363,0.287131995,0.0579641014,0.0585937016
6364,0.287131995,0.0579641014,0.0625
6365,0.287131995,0.0579641014,0.0664061978
6366,0.287131995,0.0579641014,0.0703125
6367,0.287131995,0.0579641014,0.0742186978
6368,0.287131995,0.0579641014,0.078125
6369,0.287131995,0.0579641014,0.0820311978
6370,0.287131995,0.0579641014,0.0859375
6371,0.287131995,0.0579641014,0.0898436978
6372,0.287131995,0.0579641014,0.09375
6373,0.287131995,0.0579641014,0.0976563022
6374,0.287131995,0.0579641014,0.101562999
6375,0.287131995,0.0579641014,0.105469003
6376,0.287131995,0.0579641014,0.109375
6377,0.287131995,0.0579641014,0.113280997
6378,0.287131995,0.0579641014,0.117187001
6379,0.287131995,0.0579641014,0.121094003
6380,0.287131995,0.0579641014,0.125
6381,0.287131995,0.0579641014,0.128905997
6382,0.287131995,0.0579641014,0.132813007
6383,0.287131995,0.0579641014,0.136719003
6384,0.287131995,0.0579641014,0.140625
6385,0.287131995,0.0579641014,0.144530997
6386,0.287131995,0.0579641014,0.148438007
6387,0.287131995,0.0579641014,0.152344003
6388,0.287131995,0.0579641014,0.15625
6389,0.287131995,0.0579641014,0.160155997
6390,0.287131995,0.0579641014,0.164061993
6391,0.287131995,0.0579641014,0.167969003
6392,0.287131995,0.0579641014,0.171875
6393,0.287131995,0.0579641014,0.175780997
6394,0.287131995,0.0579641014,0.179686993
6395,0.287131995,0.0579641014,0.183594003
6396,0.287131995,0.0579641014,0.1875
6397,0.287131995,0.0579641014,0.191405997
6398,0.287131995,0.0579641014,0.195313007
6399,0.287131995,0.0579641014,0.199219003
6400,0.287131995,0.0579641014,0.203125
6401,0.287131995,0.0579641014,0.207030997
6402,0.287131995,0.0579641014,0.210938007
6403,0.287131995,0.0579641014,0.214844003
6404,0.287131995,0.0579641014,0.21875
6405,0.287131995,0.0579641014,0.222655997
6406,0.287131995,0.0579641014,0.226561993
6407,0.287131995,0.0579641014,0.230469003
6408,0.287131995,0.0579641014,0.234375
6409,0.287131995,0.0579641014,0.238280997
6410,0.287131995,0.0579641014,0.242186993
6411,0.287131995,0.0579641014,0.246094003
6412,0.287131995,0.0579641014,0.25
6413,0.287131995,0.0579641014,0.253906012
6414,0.287131995,0.0579641014,0.257813007
6415,0.287131995,0.0579641014,0.261718988
6416,0.287131995,0.0579641014,0.265625
6417,0.287131995,0.0579641014,0.269531012
6418,0.287131995,0.0579641014,0.273436993
6419,0.287131995,0.0579641014,0.277343988
6420,0.287131995,0.0579641014,0.28125
6421,0.287131995,0.0579641014,0.285156012
6422,0.287131995,0.0579641014,0.289061993
6423,0.287131995,0.0579641014,0.292968988
6424,0.287131995,0.0579641014,0.296875
6425,0.287131995,0.0579641014,0.300781012
6426,0.287131995,0.0579641014,0.304688007
6427,0.287131995,0.0579641014,0.308593988
6428,0.287131995,0.0579641014,0.3125
6429,0.287131995,0.0579641014,0.316406012
6430,0.287131995,0.0579641014,0.320311993
6431,0.287131995,0.0579641014,0.324218988
6432,0.287131995,0.0579641014,0.328125
6433,0.287131995,0.0579641014,0.332031012
6434,0.287131995,0.0579641014,0.335938007
6435,0.287131995,0.0579641014,0.339843988
6436,0.287131995,0.0579641014,0.34375
6437,0.287131995,0.0579641014,0.347656012
6438,0.287131995,0.0579641014,0.351561993
6439,0.287131995,0.0579641014,0.355468988
6440,0.287131995,0.0579641014,0.359375
6441,0.287131995,0.0579641014,0.363281012
6442,0.287131995,0.0579641014,0.367186993
6443,0.287131995,0.0579641014,0.371093988
6444,0.287131995,0.0579641014,0.375
6445,0.287131995,0.0579641014,0.378906012
6446,0.287131995,0.0579641014,0.382813007
6447,0.287131995,0.0579641014,0.386718988
6448,0.287380993,0.0557641983,-0.392681003
6449,0.290279001,0.0569579005,-0.386718988
6450,0.290279001,0.0569579005,-0.382813007
6451,0.290279001,0.0569579005,-0.378906012
6452,0.290279001,0.0569579005,-0.375
6453,0.290279001,0.0569579005,-0.371093988
6454,0.290279001,0.0569579005,-0.367188007
6455,0.290279001,0.0569579005,-0.363281012
6456,0.290279001,0.0569579005,-0.359375
6457,0.290279001,0.0569579005,-0.355468988
6458,0.290279001,0.0569579005,-0.351561993
6459,0.290279001,0.0569579005,-0.347656012
6460,0.290279001,0.0569579005,-0.34375
6461,0.290279001,0.0569579005,-0.339843988
6462,0.290279001,0.0569579005,-0.335938007
6463,0.290279001,0.0569579005,-0.332031012
6464,0.290279001,0.0569579005,-0.328125
6465,0.290279001,0.0569579005,-0.324218988
6466,0.290279001,0.0569579005,-0.320311993
6467,0.290279001,0.0569579005,-0.316406012
6468,0.290279001,0.0569579005,-0.3125
6469,0.290279001,0.0569579005,-0.308593988
6470,0.290279001,0.0569579005,-0.304688007
6471,0.290279001,0.0569579005,-0.300781012
6472,0.290279001,0.0569579005,-0.296875
6473,0.290279001,0.0569579005,-0.292968988
6474,0.290279001,0.0569579005,-0.289063007
6475,0.290279001,0.0569579005,-0.285156012
6476,0.290279001,0.0569579005,-0.28125
6477,0.290279001,0.0569579005,-0.277343988
6478,0.290279001,0.0569579005,-0.273438007
6479,0.290279001,0.0569579005,-0.269531012
6480,0.290279001,0.0569579005,-0.265625
6481,0.290279001,0.0569579005,-0.261718988
6482,0.290279001,0.0569579005,-0.257813007
6483,0.290279001,0.0569579005,-0.253906012
6484,0.290279001,0.0569579005,-0.25
6485,0.290279001,0.0569579005,-0.246094003
6486,0.290279001,0.0569579005,-0.242188007
6487,0.290279001,0.0569579005,-0.238280997
6488,0.290279001,0.0569579005,-0.234375
6489,0.290279001,0.0569579005,-0.230469003
6490,0.290279001,0.0569579005,-0.226563007
6491,0.290279001,0.0569579005,-0.222655997
6492,0.290279001,0.0569579005,-0.21875
6493,0.290279001,0.0569579005,-0.214844003
6494,0.290279001,0.0569579005,-0.210936993
6495,0.290279001,0.0569579005,-0.207030997
6496,0.290279001,0.0569579005,-0.203125
6497,0.290279001,0.0569579005,-0.199219003
6498,0.290279001,0.0569579005,-0.195311993
6499,0.290279001,0.0569579005,-0.191405997
6500,0.290279001,0.0569579005,-0.1875
6501,0.290279001,0.0569579005,-0.183594003
6502,0.290279001,0.0569579005,-0.179688007
6503,0.290279001,0.0569579005,-0.175780997
6504,0.290279001,0.0569579005,-0.171875
6505,0.290279001,0.0569579005,-0.167969003
6506,0.290279001,0.0569579005,-0.164061993
6507,0.290279001,0.0569579005,-0.160155997
6508,0.290279001,0.0569579005,-0.15625
6509,0.290279001,0.0569579005,-0.152344003
6510,0.290279001,0.0569579005,-0.148436993
6511,0.290279001,0.0569579005,-0.144530997
6512,0.290279001,0.0569579005,-0.140625
6513,0.290279001,0.0569579005,-0.136719003
6514,0.290279001,0.0569579005,-0.132811993
6515,0.290279001,0.0569579005,-0.128905997
6516,0.290279001,0.0569579005,-0.125
6517,0.290279001,0.0569579005,-0.121094003
6518,0.290279001,0.0569579005,-0.117187001
6519,0.290279001,0.0569579005,-0.113280997
6520,0.290279001,0.0569579005,-0.109375
6521,0.290279001,0.0569579005,-0.105469003
6522,0.290279001,0.0569579005,-0.101562001
6523,0.290279001,0.0569579005,-0.0976561978
6524,0.290279001,0.0569579005,-0.09375
6525,0.290279001,0.0569579005,-0.0898436978
6526,0.290279001,0.0569579005,-0.0859375
6527,0.290279001,0.0569579005,-0.0820311978
6528,0.290279001,0.0569579005,-0.078125
6529,0.290279001,0.0569579005,-0.0742188022
6530,0.290279001,0.0569579005,-0.0703125
6531,0.290279001,0.0569579005,-0.0664061978
6532,0.290279001,0.0569579005,-0.0625
6533,0.290279001,0.0569579005,-0.0585937016
6534,0.290279001,0.0569579005,-0.0546875
6535,0.290279001,0.0569579005,-0.0507812016
6536,0.290279001,0.0569579005,-0.046875
6537,0.290279001,0.0569579005,-0.0429687984
6538,0.290279001,0.0569579005,-0.0390625
6539,0.290279001,0.0569579005,-0.0351562016
6540,0.290279001,0.0569579005,-0.03125
6541,0.290279001,0.0569579005,-0.0273436997
6542,0.290279001,0.0569579005,-0.0234375
6543,0.290279001,0.0569579005,-0.0195311997
6544,0.290279001,0.0569579005,-0.015625
6545,0.290279001,0.0569579005,-0.0117186997
6546,0.290279001,0.0569579005,-0.0078125
6547,0.290279001,0.0569579005,-0.00390625
6548,0.290279001,0.0569579005,0
6549,0.290279001,0.0569579005,0.00390625
6550,0.290279001,0.0569579005,0.0078125
6551,0.290279001,0.0569579005,0.0117188003
6552,0.290279001,0.0569579005,0.015625
6553,0.290279001,0.0569579005,0.0195311997
6554,0.290279001,0.0569579005,0.0234375
6555,0.290279001,0.0569579005,0.0273438003
6556,0.290279001,0.0569579005,0.03125
6557,0.290279001,0.0569579005,0.0351562016
6558,0.290279001,0.0569579005,0.0390625
6559,0.290279001,0.0569579005,0.0429687016
6560,0.290279001,0.0569579005,0.046875
6561,0.290279001,0.0569579005,0.0507812016
6562,0.290279001,0.0569579005,0.0546875
6563,0.290279001,0.0569579005,0.0585937984
6564,0.290279001,0.0569579005,0.0625
6565,0.290279001,0.0569579005,0.0664063022
6566,0.290279001,0.0569579005,0.0703125
6567,0.290279001,0.0569579005,0.0742188022
6568,0.290279001,0.0569579005,0.078125
6569,0.290279001,0.0569579005,0.0820313022
6570,0.290279001,0.0569579005,0.0859375
6571,0.290279001,0.0569579005,0.0898436978
6572,0.290279001,0.0569579005,0.09375
6573,0.290279001,0.0569579005,0.0976563022
6574,0.290279001,0.0569579005,0.101562999
6575,0.290279001,0.0569579005,0.105469003
6576,0.290279001,0.0569579005,0.109375
6577,0.290279001,0.0569579005,0.113280997
6578,0.290279001,0.0569579005,0.117187999
6579,0.290279001,0.0569579005,0.121094003
6580,0.290279001,0.0569579005,0.125
6581,0.290279001,0.0569579005,0.128905997
6582,0.290279001,0.0569579005,0.132813007
6583,0.290279001,0.0569579005,0.136719003
6584,0.290279001,0.0569579005,0.140625
6585,0.290279001,0.0569579005,0.144530997
6586,0.290279001,0.0569579005,0.148438007
6587,0.290279001,0.0569579005,0.152344003
6588,0.290279001,0.0569579005,0.15625
6589,0.290279001,0.0569579005,0.160155997
6590,0.290279001,0.0569579005,0.164061993
6591,0.290279001,0.0569579005,0.167969003
6592,0.290279001,0.0569579005,0.171875
6593,0.290279001,0.0569579005,0.175780997
6594,0.290279001,0.0569579005,0.179688007
6595,0.290279001,0.0569579005,0.183594003
6596,0.290279001,0.0569579005,0.1875
6597,0.290279001,0.0569579005,0.191405997
6598,0.290279001,0.0569579005,0.195313007
6599,0.290279001,0.0569579005,0.199219003
6600,0.290279001,0.0569579005,0.203125
6601,0.290279001,0.0569579005,0.207030997
6602,0.290279001,0.0569579005,0.210938007
6603,0.290279001,0.0569579005,0.214844003
6604,0.290279001,0.0569579005,0.21875
6605,0.290279001,0.0569579005,0.222655997
6606,0.290279001,0.0569579005,0.226563007
6607,0.290279001,0.0569579005,0.230469003
6608,0.290279001,0.0569579005,0.234375
6609,0.290279001,0.0569579005,0.238280997
6610,0.290279001,0.0569579005,0.242188007
6611,0.290279001,0.0569579005,0.246094003
6612,0.290279001,0.0569579005,0.25
6613,0.290279001,0.0569579005,0.253906012
6614,0.290279001,0.0569579005,0.257813007
6615,0.290279001,0.0569579005,0.261718988
6616,0.290279001,0.0569579005,0.265625
6617,0.290279001,0.0569579005,0.269531012
6618,0.290279001,0.0569579005,0.273438007
6619,0.290279001,0.0569579005,0.277343988
6620,0.290279001,0.0569579005,0.28125
6621,0.290279001,0.0569579005,0.285156012
6622,0.290279001,0.0569579005,0.289063007
6623,0.290279001,0.0569579005,0.292968988
6624,0.290279001,0.0569579005,0.296875
6625,0.290279001,0.0569579005,0.300781012
6626,0.290279001,0.0569579005,0.304688007
6627,0.290279001,0.0569579005,0.308593988
6628,0.290279001,0.0569579005,0.3125
6629,0.290279001,0.0569579005,0.316406012
6630,0.290279001,0.0569579005,0.320313007
6631,0.290279001,0.0569579005,0.324218988
6632,0.290279001,0.0569579005,0.328125
6633,0.290279001,0.0569579005,0.332031012
6634,0.290279001,0.0569579005,0.335938007
6635,0.290279001,0.0569579005,0.339843988
6636,0.290279001,0.0569579005,0.34375
6637,0.290279001,0.0569579005,0.347656012
6638,0.290279001,0.0569579005,0.351563007
6639,0.290279001,0.0569579005,0.355468988
6640,0.290279001,0.0569579005,0.359375
6641,0.290279001,0.0569579005,0.363281012
6642,0.290279001,0.0569579005,0.367186993
6643,0.290279001,0.0569579005,0.371093988
6644,0.290279001,0.0569579005,0.375
6645,0.290279001,0.0569579005,0.378906012
6646,0.290279001,0.0569579005,0.382813007
6647,0.290279001,0.0569579005,0.386718988
6648,0.290297002,0.0569657013,-0.390401989
6649,0.290297002,0.0569657013,0.390401989
6650,0.290793002,0.0571756996,-0.392951012
6651,0.290793002,0.0571756996,0.392951012
*ELEMENT, TYPE=S3, ELSET=ALL_SHELL
1,832,937,1042
2,1042,624,832
3,833,1041,623
4,623,625,833
5,831,623,1041
6,1041,936,831
7,3353,3250,3384
8,3384,3374,3353
9,2727,2935,2517
10,2517,2620,2727
11,834,626,624
12,624,1042,834
13,3354,3375,3389
14,3389,3251,3354
15,2728,2621,2518
16,2518,2936,2728
17,937,1044,1248
18,1248,1042,937
19,1881,1677,1465
20,1465,1671,1881
21,2081,2095,1677
22,1677,1881,2081
23,936,1041,1247
24,1247,1043,936
25,1885,1677,2095
26,2095,2093,1885
27,2620,2517,2311
28,2311,2416,2620
29,1882,1672,1466
30,1466,1678,1882
31,2082,1882,1678
32,1678,2096,2082
33,1886,2094,2096
34,2096,1678,1886
35,2621,2417,2312
36,2312,2518,2621
37,3667,3389,3375
38,3375,3665,3667
39,4373,4287,3979
40,4346,4373,3979
41,3979,3980,4346
42,3664,3666,3374
43,3374,3384,3664
44,4286,4392,4339
45,4286,4339,4183
46,4183,4184,4286
47,104,207,311
48,311,1,104
49,413,311,621
50,621,415,413
51,625,728,835
52,835,833,625
53,415,621,625
54,625,623,415
55,2933,2830,2723
56,2723,2725,2933
57,3384,3250,3248
58,3248,3562,3384
59,2725,2517,2935
60,2935,2933,2725
61,105,2,310
62,310,208,105
63,414,416,622
64,622,310,414
65,626,834,836
66,836,729,626
67,416,624,626
68,626,622,416
69,2934,2726,2724
70,2724,2831,2934
71,3355,3249,3251
72,3251,3389,3355
73,2726,2934,2936
74,2936,2518,2726
75,1044,1252,1357
76,1357,1248,1044
77,1671,1465,1356
78,1356,1461,1671
79,1043,1247,1356
80,1356,1251,1043
81,2206,2204,2093
82,2093,2095,2206
83,1883,1885,2093
84,2093,1988,1883
85,2204,2206,2416
86,2416,2311,2204
87,1672,1462,1357
88,1357,1466,1672
89,1884,1989,2094
90,2094,1886,1884
91,2207,2096,2094
92,2094,2205,2207
93,2205,2312,2417
94,2417,2207,2205
95,3389,3667,3668
96,3668,3355,3389
97,3875,3667,3665
98,3665,3877,3875
99,3979,3875,3877
100,3877,3980,3979
101,3669,3664,3384
102,3384,3562,3669
103,3874,3876,3666
104,3666,3664,3874
105,4183,3876,3874
106,3874,4184,4183
107,4813,4607,4605
108,4605,5018,4813
109,4814,5224,4604
110,4604,4606,4814
111,7,6,315
112,315,316,7
113,330,331,22
114,22,21,330
115,332,23,22
116,22,331,332
117,37,346,347
118,347,38,37
119,39,38,347
120,347,348,39
121,54,53,362
122,362,363,54
123,363,364,55
124,55,54,363
125,69,378,379
126,379,70,69
127,380,71,70
128,70,379,380
129,394,395,86
130,86,85,394
131,87,86,395
132,395,396,87
133,101,410,411
134,411,102,101
135,5,314,315
136,315,6,5
137,103,102,411
138,411,412,103
139,14,13,322
140,322,323,14
141,15,14,323
142,323,324,15
143,30,29,338
144,338,339,30
145,31,30,339
146,339,340,31
147,46,45,354
148,354,355,46
149,47,46,355
150,355,356,47
151,62,61,370
152,370,371,62
153,63,62,371
154,371,372,63
155,78,77,386
156,386,387,78
157,79,78,387
158,387,388,79
159,93,402,403
160,403,94,93
161,95,94,403
162,403,404,95
163,10,9,318
164,318,319,10
165,2520,2521,2733
166,2733,2732,2520
167,2523,2524,2736
168,2736,2735,2523
169,19,18,327
170,327,328,19
171,2536,2748,2747
172,2747,2535,2536
173,2532,2533,2745
174,2745,2744,2532
175,2838,2630,2629
176,2629,2837,2838
177,2627,2626,2834
178,2834,2835,2627
179,2639,2638,2846
180,2846,2847,2639
181,2849,2850,2642
182,2642,2641,2849
183,26,25,334
184,334,335,26
185,2537,2749,2748
186,2748,2536,2537
187,2539,2540,2752
188,2752,2751,2539
189,35,34,343
190,343,344,35
191,2552,2764,2763
192,2763,2551,2552
193,2761,2760,2548
194,2548,2549,2761
195,2854,2646,2645
196,2645,2853,2854
197,2643,2642,2850
198,2850,2851,2643
199,2655,2654,2862
200,2862,2863,2655
201,2657,2865,2866
202,2866,2658,2657
203,41,350,351
204,351,42,41
205,2552,2553,2765
206,2765,2764,2552
207,2555,2556,2768
208,2768,2767,2555
209,51,50,359
210,359,360,51
211,2568,2780,2779
212,2779,2567,2568
213,2564,2565,2777
214,2777,2776,2564
215,2869,2870,2662
216,2662,2661,2869
217,2659,2658,2866
218,2866,2867,2659
219,2671,2670,2878
220,2878,2879,2671
221,2882,2674,2673
222,2673,2881,2882
223,58,57,366
224,366,367,58
225,2780,2568,2569
226,2569,2781,2780
227,2572,2784,2783
228,2783,2571,2572
229,67,66,375
230,375,376,67
231,2584,2796,2795
232,2795,2583,2584
233,2793,2792,2580
234,2580,2581,2793
235,2886,2678,2677
236,2677,2885,2886
237,2674,2882,2883
238,2883,2675,2674
239,2687,2686,2894
240,2894,2895,2687
241,2897,2898,2690
242,2690,2689,2897
243,74,73,382
244,382,383,74
245,2584,2585,2797
246,2797,2796,2584
247,2799,2587,2588
248,2588,2800,2799
249,83,82,391
250,391,392,83
251,2599,2600,2812
252,2812,2811,2599
253,2596,2597,2809
254,2809,2808,2596
255,2902,2694,2693
256,2693,2901,2902
257,2691,2690,2898
258,2898,2899,2691
259,2703,2702,2910
260,2910,2911,2703
261,2913,2914,2706
262,2706,2705,2913
263,89,398,399
264,399,90,89
265,2601,2813,2812
266,2812,2600,2601
267,2604,2816,2815
268,2815,2603,2604
269,99,98,407
270,407,408,99
271,2616,2828,2827
272,2827,2615,2616
273,2825,2824,2612
274,2612,2613,2825
275,2918,2710,2709
276,2709,2917,2918
277,2707,2706,2914
278,2914,2915,2707
279,2719,2718,2926
280,2926,2927,2719
281,2930,2722,2721
282,2721,2929,2930
283,11,10,319
284,319,320,11
285,2520,2314,2315
286,2315,2521,2520
287,2524,2523,2317
288,2317,2318,2524
289,2528,2740,2739
290,2739,2527,2528
291,2524,2525,2737
292,2737,2736,2524
293,2528,2527,2321
294,2321,2322,2528
295,2524,2318,2319
296,2319,2525,2524
297,18,17,326
298,326,327,18
299,2529,2741,2740
300,2740,2528,2529
301,2532,2744,2743
302,2743,2531,2532
303,2536,2535,2329
304,2329,2330,2536
305,2327,2533,2532
306,2532,2326,2327
307,2528,2322,2323
308,2323,2529,2528
309,2531,2325,2326
310,2326,2532,2531
311,2629,2630,2424
312,2424,2423,2629
313,2420,2626,2627
314,2627,2421,2420
315,2631,2630,2838
316,2838,2839,2631
317,2841,2842,2634
318,2634,2633,2841
319,2631,2425,2424
320,2424,2630,2631
321,2427,2633,2634
322,2634,2428,2427
323,2846,2638,2637
324,2637,2845,2846
325,2635,2634,2842
326,2842,2843,2635
327,2639,2433,2432
328,2432,2638,2639
329,2435,2641,2642
330,2642,2436,2435
331,2637,2638,2432
332,2432,2431,2637
333,2428,2634,2635
334,2635,2429,2428
335,27,26,335
336,335,336,27
337,2536,2330,2331
338,2331,2537,2536
339,2540,2539,2333
340,2333,2334,2540
341,2543,2544,2756
342,2756,2755,2543
343,2753,2752,2540
344,2540,2541,2753
345,2544,2543,2337
346,2337,2338,2544
347,2540,2334,2335
348,2335,2541,2540
349,33,342,343
350,343,34,33
351,2757,2756,2544
352,2544,2545,2757
353,2547,2548,2760
354,2760,2759,2547
355,2552,2551,2345
356,2345,2346,2552
357,2548,2342,2343
358,2343,2549,2548
359,2339,2545,2544
360,2544,2338,2339
361,2548,2547,2341
362,2341,2342,2548
363,2645,2646,2440
364,2440,2439,2645
365,2436,2642,2643
366,2643,2437,2436
367,2855,2647,2646
368,2646,2854,2855
369,2858,2650,2649
370,2649,2857,2858
371,2440,2646,2647
372,2647,2441,2440
373,2443,2649,2650
374,2650,2444,2443
375,2862,2654,2653
376,2653,2861,2862
377,2651,2650,2858
378,2858,2859,2651
379,2448,2654,2655
380,2655,2449,2448
381,2657,2658,2452
382,2452,2451,2657
383,2653,2654,2448
384,2448,2447,2653
385,2651,2445,2444
386,2444,2650,2651
387,43,42,351
388,351,352,43
389,2553,2552,2346
390,2346,2347,2553
391,2555,2349,2350
392,2350,2556,2555
393,2560,2772,2771
394,2771,2559,2560
395,2556,2557,2769
396,2769,2768,2556
397,2560,2559,2353
398,2353,2354,2560
399,2556,2350,2351
400,2351,2557,2556
401,50,49,358
402,358,359,50
403,2560,2561,2773
404,2773,2772,2560
405,2564,2776,2775
406,2775,2563,2564
407,2568,2567,2361
408,2361,2362,2568
409,2564,2358,2359
410,2359,2565,2564
411,2560,2354,2355
412,2355,2561,2560
413,2564,2563,2357
414,2357,2358,2564
415,2661,2662,2456
416,2456,2455,2661
417,2659,2453,2452
418,2452,2658,2659
419,2663,2662,2870
420,2870,2871,2663
421,2874,2666,2665
422,2665,2873,2874
423,2456,2662,2663
424,2663,2457,2456
425,2665,2666,2460
426,2460,2459,2665
427,2878,2670,2669
428,2669,2877,2878
429,2667,2666,2874
430,2874,2875,2667
431,2464,2670,2671
432,2671,2465,2464
433,2468,2467,2673
434,2673,2674,2468
435,2669,2670,2464
436,2464,2463,2669
437,2460,2666,2667
438,2667,2461,2460
439,59,58,367
440,367,368,59
441,2362,2363,2569
442,2569,2568,2362
443,2572,2571,2365
444,2365,2366,2572
445,2576,2788,2787
446,2787,2575,2576
447,2572,2573,2785
448,2785,2784,2572
449,2576,2575,2369
450,2369,2370,2576
451,2572,2366,2367
452,2367,2573,2572
453,66,65,374
454,374,375,66
455,2576,2577,2789
456,2789,2788,2576
457,2580,2792,2791
458,2791,2579,2580
459,2583,2377,2378
460,2378,2584,2583
461,2580,2374,2375
462,2375,2581,2580
463,2576,2370,2371
464,2371,2577,2576
465,2580,2579,2373
466,2373,2374,2580
467,2677,2678,2472
468,2472,2471,2677
469,2674,2675,2469
470,2469,2468,2674
471,2679,2678,2886
472,2886,2887,2679
473,2890,2682,2681
474,2681,2889,2890
475,2472,2678,2679
476,2679,2473,2472
477,2681,2682,2476
478,2476,2475,2681
479,2894,2686,2685
480,2685,2893,2894
481,2683,2682,2890
482,2890,2891,2683
483,2481,2480,2686
484,2686,2687,2481
485,2689,2690,2484
486,2484,2483,2689
487,2685,2686,2480
488,2480,2479,2685
489,2476,2682,2683
490,2683,2477,2476
491,75,74,383
492,383,384,75
493,2585,2584,2378
494,2378,2379,2585
495,2381,2382,2588
496,2588,2587,2381
497,2591,2592,2804
498,2804,2803,2591
499,2588,2589,2801
500,2801,2800,2588
501,2592,2591,2385
502,2385,2386,2592
503,2588,2382,2383
504,2383,2589,2588
505,390,391,82
506,82,81,390
507,2592,2593,2805
508,2805,2804,2592
509,2807,2595,2596
510,2596,2808,2807
511,2600,2599,2393
512,2393,2394,2600
513,2597,2596,2390
514,2390,2391,2597
515,2592,2386,2387
516,2387,2593,2592
517,2389,2390,2596
518,2596,2595,2389
519,2487,2693,2694
520,2694,2488,2487
521,2691,2485,2484
522,2484,2690,2691
523,2695,2694,2902
524,2902,2903,2695
525,2905,2906,2698
526,2698,2697,2905
527,2695,2489,2488
528,2488,2694,2695
529,2697,2698,2492
530,2492,2491,2697
531,2910,2702,2701
532,2701,2909,2910
533,2699,2698,2906
534,2906,2907,2699
535,2496,2702,2703
536,2703,2497,2496
537,2705,2706,2500
538,2500,2499,2705
539,2701,2702,2496
540,2496,2495,2701
541,2493,2492,2698
542,2698,2699,2493
543,91,90,399
544,399,400,91
545,2601,2600,2394
546,2394,2395,2601
547,2397,2398,2604
548,2604,2603,2397
549,2608,2820,2819
550,2819,2607,2608
551,2817,2816,2604
552,2604,2605,2817
553,2608,2607,2401
554,2401,2402,2608
555,2399,2605,2604
556,2604,2398,2399
557,406,407,98
558,98,97,406
559,2608,2609,2821
560,2821,2820,2608
561,2612,2824,2823
562,2823,2611,2612
563,2616,2615,2409
564,2409,2410,2616
565,2612,2406,2407
566,2407,2613,2612
567,2403,2609,2608
568,2608,2402,2403
569,2612,2611,2405
570,2405,2406,2612
571,2709,2710,2504
572,2504,2503,2709
573,2500,2706,2707
574,2707,2501,2500
575,2711,2710,2918
576,2918,2919,2711
577,2713,2921,2922
578,2922,2714,2713
579,2504,2710,2711
580,2711,2505,2504
581,2713,2714,2508
582,2508,2507,2713
583,2925,2926,2718
584,2718,2717,2925
585,2715,2714,2922
586,2922,2923,2715
587,2513,2512,2718
588,2718,2719,2513
589,2515,2721,2722
590,2722,2516,2515
591,2511,2717,2718
592,2718,2512,2511
593,2508,2714,2715
594,2715,2509,2508
595,521,522,316
596,316,315,521
597,523,317,316
598,316,522,523
599,537,538,332
600,332,331,537
601,539,333,332
602,332,538,539
603,554,348,347
604,347,553,554
605,348,554,555
606,555,349,348
607,363,569,570
608,570,364,363
609,571,365,364
610,364,570,571
611,380,379,585
612,585,586,380
613,586,587,381
614,381,380,586
615,602,396,395
616,395,601,602
617,396,602,603
618,603,397,396
619,316,317,8
620,8,7,316
621,21,20,329
622,329,330,21
623,3046,3151,3150
624,3150,3045,3046
625,3382,3150,3151
626,3151,3380,3382
627,3060,3061,3166
628,3166,3165,3060
629,3165,3166,3393
630,3393,3392,3165
631,23,332,333
632,333,24,23
633,346,37,36
634,36,345,346
635,3062,3167,3166
636,3166,3061,3062
637,3166,3167,3394
638,3394,3393,3166
639,3076,3077,3182
640,3182,3181,3076
641,3181,3182,3409
642,3409,3408,3181
643,3407,3180,3181
644,3181,3408,3407
645,348,349,40
646,40,39,348
647,361,362,53
648,53,52,361
649,3078,3183,3182
650,3182,3077,3078
651,3410,3409,3182
652,3182,3183,3410
653,3183,3184,3411
654,3411,3410,3183
655,3093,3198,3197
656,3197,3092,3093
657,3197,3198,3425
658,3425,3424,3197
659,364,365,56
660,56,55,364
661,378,69,68
662,68,377,378
663,3198,3093,3094
664,3094,3199,3198
665,3198,3199,3426
666,3426,3425,3198
667,3108,3109,3214
668,3214,3213,3108
669,3440,3213,3214
670,3214,3441,3440
671,71,380,381
672,381,72,71
673,85,84,393
674,393,394,85
675,3215,3214,3109
676,3109,3110,3215
677,3214,3215,3442
678,3442,3441,3214
679,3124,3125,3230
680,3230,3229,3124
681,3456,3229,3230
682,3230,3457,3456
683,396,397,88
684,88,87,396
685,410,101,100
686,100,409,410
687,3126,3231,3230
688,3230,3125,3126
689,3458,3457,3230
690,3230,3231,3458
691,3140,3141,3246
692,3246,3245,3140
693,3383,3381,3245
694,3245,3246,3383
695,3381,3379,3244
696,3244,3245,3381
697,2519,2520,2732
698,2732,2731,2519
699,2626,2624,2832
700,2832,2834,2626
701,529,323,322
702,322,528,529
703,527,528,322
704,322,321,527
705,545,339,338
706,338,544,545
707,543,544,338
708,338,337,543
709,561,355,354
710,354,560,561
711,559,560,354
712,354,353,559
713,577,371,370
714,370,576,577
715,575,576,370
716,370,369,575
717,593,387,386
718,386,592,593
719,591,592,386
720,386,385,591
721,609,403,402
722,402,608,609
723,607,608,402
724,402,401,607
725,2616,2617,2829
726,2829,2828,2616
727,2722,2930,2833
728,2833,2625,2722
729,1473,1258,1259
730,1259,1471,1473
731,321,322,13
732,13,12,321
733,1485,1484,1263
734,1263,1264,1485
735,2105,1889,1890
736,1890,2106,2105
737,1894,1895,2111
738,2111,2110,1894
739,16,15,324
740,324,325,16
741,1493,1492,1271
742,1271,1272,1493
743,1273,1494,1493
744,1493,1272,1273
745,1488,1487,1266
746,1266,1267,1488
747,1265,1266,1487
748,1487,1486,1265
749,1902,1903,2119
750,2119,2118,1902
751,1897,1898,2114
752,2114,2113,1897
753,3052,3053,3158
754,3158,3157,3052
755,3366,3157,3158
756,3158,3364,3366
757,3368,3156,3157
758,3157,3366,3368
759,3054,3159,3158
760,3158,3053,3054
761,3364,3158,3159
762,3159,3362,3364
763,1496,1495,1274
764,1274,1275,1496
765,29,28,337
766,337,338,29
767,1280,1501,1500
768,1500,1279,1280
769,1905,1906,2122
770,2122,2121,1905
771,1911,2127,2126
772,2126,1910,1911
773,340,341,32
774,32,31,340
775,1509,1508,1287
776,1287,1288,1509
777,1283,1504,1503
778,1503,1282,1283
779,1281,1282,1503
780,1503,1502,1281
781,1919,2135,2134
782,2134,1918,1919
783,1913,1914,2130
784,2130,2129,1913
785,3068,3069,3174
786,3174,3173,3068
787,3173,3174,3401
788,3401,3400,3173
789,3175,3174,3069
790,3069,3070,3175
791,3174,3175,3402
792,3402,3401,3174
793,3403,3402,3175
794,3175,3176,3403
795,1511,1290,1291
796,1291,1512,1511
797,353,354,45
798,45,44,353
799,1517,1516,1295
800,1295,1296,1517
801,1297,1518,1517
802,1517,1296,1297
803,2137,1921,1922
804,1922,2138,2137
805,1926,1927,2143
806,2143,2142,1926
807,48,47,356
808,356,357,48
809,1525,1524,1303
810,1303,1304,1525
811,1520,1519,1298
812,1298,1299,1520
813,1934,1935,2151
814,2151,2150,1934
815,2145,1929,1930
816,1930,2146,2145
817,3084,3085,3190
818,3190,3189,3084
819,3189,3190,3417
820,3417,3416,3189
821,3086,3191,3190
822,3190,3085,3086
823,3190,3191,3418
824,3418,3417,3190
825,1528,1527,1306
826,1306,1307,1528
827,1526,1305,1306
828,1306,1527,1526
829,61,60,369
830,369,370,61
831,1533,1532,1311
832,1311,1312,1533
833,2153,1937,1938
834,1938,2154,2153
835,1942,1943,2159
836,2159,2158,1942
837,64,63,372
838,372,373,64
839,1320,1541,1540
840,1540,1319,1320
841,1315,1536,1535
842,1535,1314,1315
843,2167,2166,1950
844,1950,1951,2167
845,2161,1945,1946
846,1946,2162,2161
847,3100,3101,3206
848,3206,3205,3100
849,3205,3206,3433
850,3433,3432,3205
851,3102,3207,3206
852,3206,3101,3102
853,3206,3207,3434
854,3434,3433,3206
855,1322,1323,1544
856,1544,1543,1322
857,385,386,77
858,77,76,385
859,1328,1549,1548
860,1548,1327,1328
861,1953,1954,2170
862,2170,2169,1953
863,1958,1959,2175
864,2175,2174,1958
865,80,79,388
866,388,389,80
867,1336,1557,1556
868,1556,1335,1336
869,1557,1336,1337
870,1337,1558,1557
871,1552,1551,1330
872,1330,1331,1552
873,1329,1330,1551
874,1551,1550,1329
875,2183,2182,1966
876,1966,1967,2183
877,2177,1961,1962
878,1962,2178,2177
879,3116,3117,3222
880,3222,3221,3116
881,3221,3222,3449
882,3449,3448,3221
883,3447,3220,3221
884,3221,3448,3447
885,3118,3223,3222
886,3222,3117,3118
887,3222,3223,3450
888,3450,3449,3222
889,1560,1559,1338
890,1338,1339,1560
891,402,93,92
892,92,401,402
893,1565,1564,1343
894,1343,1344,1565
895,1969,1970,2186
896,2186,2185,1969
897,2191,2190,1974
898,1974,1975,2191
899,96,95,404
900,404,405,96
901,1474,1472,1351
902,1351,1352,1474
903,1567,1346,1347
904,1347,1568,1567
905,1346,1567,1566
906,1566,1345,1346
907,1983,2199,2198
908,2198,1982,1983
909,2193,1977,1978
910,1978,2194,2193
911,3132,3133,3238
912,3238,3237,3132
913,3365,3363,3237
914,3237,3238,3365
915,3239,3238,3133
916,3133,3134,3239
917,3367,3365,3238
918,3238,3239,3367
919,3369,3367,3239
920,3239,3240,3369
921,523,522,732
922,732,733,523
923,525,319,318
924,318,524,525
925,523,524,318
926,318,317,523
927,525,524,734
928,734,735,525
929,4614,4353,4351
930,4351,4717,4614
931,4351,4613,4717
932,4720,4617,4359
933,4616,4720,4359
934,4359,4357,4616
935,537,747,748
936,748,538,537
937,539,538,748
938,748,749,539
939,334,540,541
940,541,335,334
941,540,334,333
942,333,539,540
943,541,540,750
944,750,751,541
945,4733,4630,4386
946,4629,4733,4386
947,4386,4384,4629
948,4736,4633,4288
949,4632,4736,4288
950,4288,4390,4632
951,4729,4626,4378
952,4625,4729,4378
953,4378,4376,4625
954,764,765,555
955,555,554,764
956,557,351,350
957,350,556,557
958,555,556,350
959,350,349,555
960,557,556,766
961,766,767,557
962,4749,4646,4301
963,4645,4749,4301
964,4301,4300,4645
965,4752,4649,4304
966,4648,4752,4304
967,4304,4303,4648
968,569,779,780
969,780,570,569
970,571,570,780
971,780,781,571
972,573,367,366
973,366,572,573
974,571,572,366
975,366,365,571
976,573,572,782
977,782,783,573
978,4765,4662,4317
979,4661,4765,4317
980,4317,4316,4661
981,4768,4665,4320
982,4664,4768,4320
983,4320,4319,4664
984,4761,4658,4313
985,4657,4761,4313
986,4313,4312,4657
987,587,586,796
988,796,797,587
989,382,588,589
990,589,383,382
991,588,382,381
992,381,587,588
993,589,588,798
994,798,799,589
995,4781,4678,4333
996,4677,4781,4333
997,4333,4332,4677
998,4784,4681,4336
999,4680,4784,4336
1000,4336,4335,4680
1001,602,601,811
1002,811,812,602
1003,812,813,603
1004,603,602,812
1005,604,605,399
1006,399,398,604
1007,398,397,603
1008,603,604,398
1009,605,604,814
1010,814,815,605
1011,4797,4694,4366
1012,4693,4797,4366
1013,4366,4368,4693
1014,4800,4697,4360
1015,4696,4800,4360
1016,4360,4362,4696
1017,4793,4690,4375
1018,4689,4793,4375
1019,4375,4377,4689
1020,420,421,632
1021,632,631,420
1022,841,840,632
1023,632,633,841
1024,839,631,632
1025,632,840,839
1026,422,633,632
1027,632,421,422
1028,317,318,9
1029,9,8,317
1030,2522,2734,2733
1031,2733,2521,2522
1032,2735,2734,2522
1033,2522,2523,2735
1034,432,643,642
1035,642,431,432
1036,849,641,642
1037,642,850,849
1038,430,431,642
1039,642,641,430
1040,851,850,642
1041,642,643,851
1042,328,329,20
1043,20,19,328
1044,2534,2535,2747
1045,2747,2746,2534
1046,2534,2746,2745
1047,2745,2533,2534
1048,2629,2628,2836
1049,2836,2837,2629
1050,3029,3031,2838
1051,2838,2837,3029
1052,3376,3153,3154
1053,3154,3372,3376
1054,3154,3153,3048
1055,3048,3049,3154
1056,3378,3152,3153
1057,3153,3376,3378
1058,2627,2835,2836
1059,2836,2628,2627
1060,3022,3024,2835
1061,2835,2834,3022
1062,2846,2942,2943
1063,2943,2847,2846
1064,2639,2847,2848
1065,2848,2640,2639
1066,3390,3356,3162
1067,3162,3163,3390
1068,3162,3057,3058
1069,3058,3163,3162
1070,2943,2942,3265
1071,3265,3266,2943
1072,3058,3057,2744
1073,2744,2745,3058
1074,2641,2640,2848
1075,2848,2849,2641
1076,2850,2849,2945
1077,2945,2946,2850
1078,648,647,436
1079,436,437,648
1080,856,648,649
1081,649,857,856
1082,648,856,855
1083,855,647,648
1084,437,438,649
1085,649,648,437
1086,333,334,25
1087,25,24,333
1088,2749,2537,2538
1089,2538,2750,2749
1090,2751,2750,2538
1091,2538,2539,2751
1092,658,447,448
1093,448,659,658
1094,865,657,658
1095,658,866,865
1096,447,658,657
1097,657,446,447
1098,867,866,658
1099,658,659,867
1100,344,345,36
1101,36,35,344
1102,2550,2551,2763
1103,2763,2762,2550
1104,2549,2550,2762
1105,2762,2761,2549
1106,2854,2853,2949
1107,2949,2950,2854
1108,2645,2644,2852
1109,2852,2853,2645
1110,3396,3169,3170
1111,3170,3397,3396
1112,3170,3169,3064
1113,3064,3065,3170
1114,2643,2851,2852
1115,2852,2644,2643
1116,2947,2851,2850
1117,2850,2946,2947
1118,2959,2863,2862
1119,2862,2958,2959
1120,2655,2863,2864
1121,2864,2656,2655
1122,3178,3179,3406
1123,3406,3405,3178
1124,3178,3073,3074
1125,3074,3179,3178
1126,3407,3406,3179
1127,3179,3180,3407
1128,2959,2958,3281
1129,3281,3282,2959
1130,3074,3073,2760
1131,2760,2761,3074
1132,2865,2657,2656
1133,2656,2864,2865
1134,2961,2962,2866
1135,2866,2865,2961
1136,452,453,664
1137,664,663,452
1138,873,872,664
1139,664,665,873
1140,871,663,664
1141,664,872,871
1142,454,665,664
1143,664,453,454
1144,350,41,40
1145,40,349,350
1146,2554,2766,2765
1147,2765,2553,2554
1148,2767,2766,2554
1149,2554,2555,2767
1150,464,675,674
1151,674,463,464
1152,881,673,674
1153,674,882,881
1154,462,463,674
1155,674,673,462
1156,883,882,674
1157,674,675,883
1158,360,361,52
1159,52,51,360
1160,2566,2567,2779
1161,2779,2778,2566
1162,2566,2778,2777
1163,2777,2565,2566
1164,2870,2869,2965
1165,2965,2966,2870
1166,2661,2660,2868
1167,2868,2869,2661
1168,3412,3185,3186
1169,3186,3413,3412
1170,3080,3081,3186
1171,3186,3185,3080
1172,2659,2867,2868
1173,2868,2660,2659
1174,2866,2962,2963
1175,2963,2867,2866
1176,2878,2974,2975
1177,2975,2879,2878
1178,2671,2879,2880
1179,2880,2672,2671
1180,3194,3195,3422
1181,3422,3421,3194
1182,3194,3089,3090
1183,3090,3195,3194
1184,2975,2974,3297
1185,3297,3298,2975
1186,3090,3089,2776
1187,2776,2777,3090
1188,2880,2881,2673
1189,2673,2672,2880
1190,2882,2881,2977
1191,2977,2978,2882
1192,468,469,680
1193,680,679,468
1194,889,888,680
1195,680,681,889
1196,887,679,680
1197,680,888,887
1198,470,681,680
1199,680,469,470
1200,365,366,57
1201,57,56,365
1202,2570,2782,2781
1203,2781,2569,2570
1204,2570,2571,2783
1205,2783,2782,2570
1206,479,480,691
1207,691,690,479
1208,897,689,690
1209,690,898,897
1210,690,689,478
1211,478,479,690
1212,899,898,690
1213,690,691,899
1214,376,377,68
1215,68,67,376
1216,2582,2583,2795
1217,2795,2794,2582
1218,2581,2582,2794
1219,2794,2793,2581
1220,2886,2885,2981
1221,2981,2982,2886
1222,2677,2676,2884
1223,2884,2885,2677
1224,3202,3429,3428
1225,3428,3201,3202
1226,3202,3201,3096
1227,3096,3097,3202
1228,3427,3200,3201
1229,3201,3428,3427
1230,2675,2883,2884
1231,2884,2676,2675
1232,2978,2979,2883
1233,2883,2882,2978
1234,2894,2990,2991
1235,2991,2895,2894
1236,2687,2895,2896
1237,2896,2688,2687
1238,3210,3211,3438
1239,3438,3437,3210
1240,3211,3210,3105
1241,3105,3106,3211
1242,3314,2991,2990
1243,2990,3313,3314
1244,2793,3106,3105
1245,3105,2792,2793
1246,2689,2688,2896
1247,2896,2897,2689
1248,2897,2993,2994
1249,2994,2898,2897
1250,484,485,696
1251,696,695,484
1252,905,904,696
1253,696,697,905
1254,903,695,696
1255,696,904,903
1256,486,697,696
1257,696,485,486
1258,381,382,73
1259,73,72,381
1260,2586,2798,2797
1261,2797,2585,2586
1262,2587,2799,2798
1263,2798,2586,2587
1264,496,707,706
1265,706,495,496
1266,706,914,913
1267,913,705,706
1268,494,495,706
1269,706,705,494
1270,914,706,707
1271,707,915,914
1272,392,393,84
1273,84,83,392
1274,2811,2810,2598
1275,2598,2599,2811
1276,2598,2810,2809
1277,2809,2597,2598
1278,2902,2901,2997
1279,2997,2998,2902
1280,2693,2692,2900
1281,2900,2901,2693
1282,3218,3445,3444
1283,3444,3217,3218
1284,3218,3217,3112
1285,3112,3113,3218
1286,3443,3216,3217
1287,3217,3444,3443
1288,2691,2899,2900
1289,2900,2692,2691
1290,2898,2994,2995
1291,2995,2899,2898
1292,2910,3006,3007
1293,3007,2911,2910
1294,2911,2912,2704
1295,2704,2703,2911
1296,3226,3227,3454
1297,3454,3453,3226
1298,3227,3226,3121
1299,3121,3122,3227
1300,3330,3007,3006
1301,3006,3329,3330
1302,2809,3122,3121
1303,3121,2808,2809
1304,2705,2704,2912
1305,2912,2913,2705
1306,2913,3009,3010
1307,3010,2914,2913
1308,500,501,712
1309,712,711,500
1310,921,920,712
1311,712,713,921
1312,919,711,712
1313,712,920,919
1314,502,713,712
1315,712,501,502
1316,398,89,88
1317,88,397,398
1318,2813,2601,2602
1319,2602,2814,2813
1320,2602,2603,2815
1321,2815,2814,2602
1322,511,512,723
1323,723,722,511
1324,722,930,929
1325,929,721,722
1326,722,721,510
1327,510,511,722
1328,930,722,723
1329,723,931,930
1330,408,409,100
1331,100,99,408
1332,2614,2615,2827
1333,2827,2826,2614
1334,2613,2614,2826
1335,2826,2825,2613
1336,2917,3013,3014
1337,3014,2918,2917
1338,2709,2708,2916
1339,2916,2917,2709
1340,3460,3233,3234
1341,3234,3357,3460
1342,3234,3233,3128
1343,3128,3129,3234
1344,2707,2915,2916
1345,2916,2708,2707
1346,3011,2915,2914
1347,2914,3010,3011
1348,3030,2927,2926
1349,2926,3032,3030
1350,2719,2927,2928
1351,2928,2720,2719
1352,3377,3373,3242
1353,3242,3243,3377
1354,3243,3242,3137
1355,3137,3138,3243
1356,3379,3377,3243
1357,3243,3244,3379
1358,3030,3032,3345
1359,3345,3346,3030
1360,2928,2929,2721
1361,2721,2720,2928
1362,3023,2930,2929
1363,2929,3025,3023
1364,2825,3138,3137
1365,3137,2824,2825
1366,2520,2519,2313
1367,2313,2314,2520
1368,2418,2624,2626
1369,2626,2420,2418
1370,525,526,320
1371,320,319,525
1372,527,321,320
1373,320,526,527
1374,529,528,738
1375,738,739,529
1376,527,737,738
1377,738,528,527
1378,525,735,736
1379,736,526,525
1380,4724,4621,4367
1381,4620,4724,4367
1382,4367,4365,4620
1383,4721,4618,4361
1384,4617,4721,4361
1385,4361,4359,4617
1386,4728,4625,4376
1387,4624,4728,4376
1388,4376,4374,4624
1389,542,336,335
1390,335,541,542
1391,336,542,543
1392,543,337,336
1393,754,755,545
1394,545,544,754
1395,541,751,752
1396,752,542,541
1397,4740,4637,4292
1398,4636,4740,4292
1399,4292,4291,4636
1400,4634,4289,4288
1401,4288,4737,4634
1402,4288,4633,4737
1403,4741,4638,4293
1404,4637,4741,4293
1405,4293,4292,4637
1406,1177,1393,1394
1407,1394,1178,1177
1408,557,558,352
1409,352,351,557
1410,559,353,352
1411,352,558,559
1412,561,560,770
1413,770,771,561
1414,559,769,770
1415,770,560,559
1416,557,767,768
1417,768,558,557
1418,4756,4653,4308
1419,4652,4756,4308
1420,4308,4307,4652
1421,4753,4650,4305
1422,4649,4753,4305
1423,4305,4304,4649
1424,4760,4657,4312
1425,4656,4760,4312
1426,4312,4311,4656
1427,573,574,368
1428,368,367,573
1429,575,369,368
1430,368,574,575
1431,577,576,786
1432,786,787,577
1433,573,783,784
1434,784,574,573
1435,4772,4669,4324
1436,4668,4772,4324
1437,4324,4323,4668
1438,4769,4666,4321
1439,4665,4769,4321
1440,4321,4320,4665
1441,4773,4670,4325
1442,4669,4773,4325
1443,4325,4324,4669
1444,589,590,384
1445,384,383,589
1446,591,385,384
1447,384,590,591
1448,593,592,802
1449,802,803,593
1450,591,801,802
1451,802,592,591
1452,589,799,800
1453,800,590,589
1454,4788,4685,4385
1455,4684,4788,4385
1456,4385,4387,4684
1457,4785,4682,4391
1458,4681,4785,4391
1459,4391,4336,4681
1460,4792,4689,4377
1461,4688,4792,4377
1462,4377,4379,4688
1463,605,606,400
1464,400,399,605
1465,607,401,400
1466,400,606,607
1467,818,819,609
1468,609,608,818
1469,605,815,816
1470,816,606,605
1471,4804,4701,4352
1472,4700,4804,4352
1473,4352,4354,4700
1474,4801,4698,4358
1475,4697,4801,4358
1476,4358,4360,4697
1477,4805,4702,4350
1478,4701,4805,4350
1479,4350,4352,4701
1480,2616,2410,2411
1481,2411,2617,2616
1482,2419,2516,2722
1483,2722,2625,2419
1484,1259,1047,1048
1485,1048,1260,1259
1486,841,1049,1048
1487,1048,840,841
1488,839,840,1048
1489,1048,1047,839
1490,1261,1260,1048
1491,1048,1049,1261
1492,1259,1260,1481
1493,1481,1471,1259
1494,424,635,634
1495,634,423,424
1496,841,633,634
1497,634,842,841
1498,422,423,634
1499,634,633,422
1500,843,842,634
1501,634,635,843
1502,12,11,320
1503,320,321,12
1504,1263,1262,1050
1505,1050,1051,1263
1506,841,842,1050
1507,1050,1049,841
1508,1261,1049,1050
1509,1050,1262,1261
1510,843,1051,1050
1511,1050,842,843
1512,1484,1483,1262
1513,1262,1263,1484
1514,1261,1262,1483
1515,1483,1482,1261
1516,2315,2314,2104
1517,2104,2105,2315
1518,2522,2521,2315
1519,2315,2316,2522
1520,2316,2315,2105
1521,2105,2106,2316
1522,1890,1891,2107
1523,2107,2106,1890
1524,2522,2316,2317
1525,2317,2523,2522
1526,2318,2317,2107
1527,2107,2108,2318
1528,2317,2316,2106
1529,2106,2107,2317
1530,2526,2527,2739
1531,2739,2738,2526
1532,2526,2738,2737
1533,2737,2525,2526
1534,2109,1893,1894
1535,1894,2110,2109
1536,2526,2320,2321
1537,2321,2527,2526
1538,2321,2320,2110
1539,2110,2111,2321
1540,2526,2525,2319
1541,2319,2320,2526
1542,429,640,639
1543,639,428,429
1544,640,641,849
1545,849,848,640
1546,640,429,430
1547,430,641,640
1548,848,847,639
1549,639,640,848
1550,17,16,325
1551,325,326,17
1552,1271,1270,1058
1553,1058,1059,1271
1554,849,850,1058
1555,1058,1057,849
1556,851,1059,1058
1557,1058,850,851
1558,1269,1057,1058
1559,1058,1270,1269
1560,1492,1491,1270
1561,1270,1271,1492
1562,1269,1270,1491
1563,1491,1490,1269
1564,1267,1055,1056
1565,1056,1268,1267
1566,849,1057,1056
1567,1056,848,849
1568,847,848,1056
1569,1056,1055,847
1570,1269,1268,1056
1571,1056,1057,1269
1572,1489,1488,1267
1573,1267,1268,1489
1574,2741,2529,2530
1575,2530,2742,2741
1576,2530,2531,2743
1577,2743,2742,2530
1578,2534,2328,2329
1579,2329,2535,2534
1580,1901,1902,2118
1581,2118,2117,1901
1582,2533,2327,2328
1583,2328,2534,2533
1584,2328,2327,2117
1585,2117,2118,2328
1586,2323,2322,2112
1587,2112,2113,2323
1588,2530,2529,2323
1589,2323,2324,2530
1590,2324,2323,2113
1591,2113,2114,2324
1592,1899,2115,2114
1593,2114,1898,1899
1594,2325,2531,2530
1595,2530,2324,2325
1596,2422,2628,2629
1597,2629,2423,2422
1598,2424,2212,2211
1599,2211,2423,2424
1600,2422,2421,2627
1601,2627,2628,2422
1602,2420,2421,2209
1603,2209,2208,2420
1604,3031,3033,2839
1605,2839,2838,3031
1606,2631,2839,2840
1607,2840,2632,2631
1608,3372,3154,3155
1609,3155,3370,3372
1610,3050,3155,3154
1611,3154,3049,3050
1612,3370,3155,3156
1613,3156,3368,3370
1614,3038,3260,3261
1615,3261,3040,3038
1616,2633,2632,2840
1617,2840,2841,2633
1618,3038,3040,2842
1619,2842,2841,3038
1620,2213,2212,2424
1621,2424,2425,2213
1622,2425,2631,2632
1623,2632,2426,2425
1624,2214,2215,1992
1625,1992,1991,2214
1626,2633,2427,2426
1627,2426,2632,2633
1628,2215,2427,2428
1629,2428,2216,2215
1630,1159,1158,1374
1631,1374,1375,1159
1632,1158,1157,1373
1633,1373,1374,1158
1634,1155,1154,1370
1635,1370,1371,1155
1636,2845,2941,2942
1637,2942,2846,2845
1638,2637,2636,2844
1639,2844,2845,2637
1640,3358,3161,3162
1641,3162,3356,3358
1642,3056,3057,3162
1643,3162,3161,3056
1644,3360,3160,3161
1645,3161,3358,3360
1646,3261,3262,2939
1647,2939,3040,3261
1648,2941,3264,3265
1649,3265,2942,2941
1650,3056,2743,2744
1651,2744,3057,3056
1652,2635,2843,2844
1653,2844,2636,2635
1654,2842,3040,2939
1655,2939,2843,2842
1656,2432,2433,2221
1657,2221,2220,2432
1658,2433,2639,2640
1659,2640,2434,2433
1660,2641,2435,2434
1661,2434,2640,2641
1662,2223,2435,2436
1663,2436,2224,2223
1664,2431,2430,2636
1665,2636,2637,2431
1666,2219,2431,2432
1667,2432,2220,2219
1668,2217,2218,1995
1669,1995,1994,2217
1670,2216,2217,1994
1671,1994,1993,2216
1672,2635,2636,2430
1673,2430,2429,2635
1674,2428,2429,2217
1675,2217,2216,2428
1676,1275,1063,1064
1677,1064,1276,1275
1678,856,857,1065
1679,1065,1064,856
1680,1064,1063,855
1681,855,856,1064
1682,1277,1276,1064
1683,1064,1065,1277
1684,1497,1496,1275
1685,1275,1276,1497
1686,1277,1498,1497
1687,1497,1276,1277
1688,440,651,650
1689,650,439,440
1690,858,857,649
1691,649,650,858
1692,438,439,650
1693,650,649,438
1694,650,651,859
1695,859,858,650
1696,336,337,28
1697,28,27,336
1698,1279,1278,1066
1699,1066,1067,1279
1700,857,858,1066
1701,1066,1065,857
1702,1277,1065,1066
1703,1066,1278,1277
1704,859,1067,1066
1705,1066,858,859
1706,1500,1499,1278
1707,1278,1279,1500
1708,2331,2330,2120
1709,2120,2121,2331
1710,2538,2537,2331
1711,2331,2332,2538
1712,2332,2331,2121
1713,2121,2122,2332
1714,2123,2122,1906
1715,1906,1907,2123
1716,2538,2332,2333
1717,2333,2539,2538
1718,2755,2754,2542
1719,2542,2543,2755
1720,2541,2542,2754
1721,2754,2753,2541
1722,1909,1910,2126
1723,2126,2125,1909
1724,2542,2336,2337
1725,2337,2543,2542
1726,2125,2335,2334
1727,2334,2124,2125
1728,2542,2541,2335
1729,2335,2336,2542
1730,444,445,656
1731,656,655,444
1732,865,864,656
1733,656,657,865
1734,446,657,656
1735,656,445,446
1736,863,655,656
1737,656,864,863
1738,342,33,32
1739,32,341,342
1740,1287,1286,1074
1741,1074,1075,1287
1742,1074,1073,865
1743,865,866,1074
1744,866,867,1075
1745,1075,1074,866
1746,1285,1073,1074
1747,1074,1286,1285
1748,1508,1507,1286
1749,1286,1287,1508
1750,1285,1286,1507
1751,1507,1506,1285
1752,1072,1284,1283
1753,1283,1071,1072
1754,865,1073,1072
1755,1072,864,865
1756,863,864,1072
1757,1072,1071,863
1758,1284,1072,1073
1759,1073,1285,1284
1760,1505,1504,1283
1761,1283,1284,1505
1762,2545,2546,2758
1763,2758,2757,2545
1764,2759,2758,2546
1765,2546,2547,2759
1766,2346,2345,2135
1767,2135,2136,2346
1768,2550,2344,2345
1769,2345,2551,2550
1770,2345,2344,2134
1771,2134,2135,2345
1772,2133,1917,1918
1773,1918,2134,2133
1774,2550,2549,2343
1775,2343,2344,2550
1776,2343,2342,2132
1777,2132,2133,2343
1778,2344,2343,2133
1779,2133,2134,2344
1780,2545,2339,2340
1781,2340,2546,2545
1782,1914,1915,2131
1783,2131,2130,1914
1784,2546,2340,2341
1785,2341,2547,2546
1786,2439,2440,2228
1787,2228,2227,2439
1788,2438,2644,2645
1789,2645,2439,2438
1790,2438,2437,2643
1791,2643,2644,2438
1792,2225,2224,2436
1793,2436,2437,2225
1794,2855,2854,2950
1795,2950,2951,2855
1796,2647,2855,2856
1797,2856,2648,2647
1798,3170,3171,3398
1799,3398,3397,3170
1800,3066,3171,3170
1801,3170,3065,3066
1802,2954,2953,3276
1803,3276,3277,2954
1804,3274,2951,2950
1805,2950,3273,3274
1806,3066,3065,2752
1807,2752,2753,3066
1808,2856,2857,2649
1809,2649,2648,2856
1810,2953,2954,2858
1811,2858,2857,2953
1812,2229,2228,2440
1813,2440,2441,2229
1814,2442,2441,2647
1815,2647,2648,2442
1816,2231,2008,2007
1817,2007,2230,2231
1818,2008,2231,2232
1819,2232,2009,2008
1820,2649,2443,2442
1821,2442,2648,2649
1822,2443,2444,2232
1823,2232,2231,2443
1824,1170,1169,1385
1825,1385,1386,1170
1826,2957,2958,2862
1827,2862,2861,2957
1828,2653,2652,2860
1829,2860,2861,2653
1830,3404,3177,3178
1831,3178,3405,3404
1832,3072,3073,3178
1833,3178,3177,3072
1834,2957,3280,3281
1835,3281,2958,2957
1836,3072,2759,2760
1837,2760,3073,3072
1838,2651,2859,2860
1839,2860,2652,2651
1840,2859,2858,2954
1841,2954,2955,2859
1842,2237,2236,2448
1843,2448,2449,2237
1844,2450,2449,2655
1845,2655,2656,2450
1846,2657,2451,2450
1847,2450,2656,2657
1848,2239,2451,2452
1849,2452,2240,2239
1850,2446,2652,2653
1851,2653,2447,2446
1852,2447,2448,2236
1853,2236,2235,2447
1854,2445,2651,2652
1855,2652,2446,2445
1856,2444,2445,2233
1857,2233,2232,2444
1858,1291,1079,1080
1859,1080,1292,1291
1860,873,1081,1080
1861,1080,872,873
1862,871,872,1080
1863,1080,1079,871
1864,1293,1292,1080
1865,1080,1081,1293
1866,1292,1513,1512
1867,1512,1291,1292
1868,456,667,666
1869,666,455,456
1870,873,665,666
1871,666,874,873
1872,454,455,666
1873,666,665,454
1874,875,874,666
1875,666,667,875
1876,44,43,352
1877,352,353,44
1878,1295,1294,1082
1879,1082,1083,1295
1880,873,874,1082
1881,1082,1081,873
1882,1293,1081,1082
1883,1082,1294,1293
1884,875,1083,1082
1885,1082,874,875
1886,1516,1515,1294
1887,1294,1295,1516
1888,2347,2348,2554
1889,2554,2553,2347
1890,1923,2139,2138
1891,2138,1922,1923
1892,2349,2555,2554
1893,2554,2348,2349
1894,2558,2559,2771
1895,2771,2770,2558
1896,2558,2770,2769
1897,2769,2557,2558
1898,2141,1925,1926
1899,1926,2142,2141
1900,2558,2352,2353
1901,2353,2559,2558
1902,2353,2352,2142
1903,2142,2143,2353
1904,2351,2350,2140
1905,2140,2141,2351
1906,2558,2557,2351
1907,2351,2352,2558
1908,2352,2351,2141
1909,2141,2142,2352
1910,460,461,672
1911,672,671,460
1912,881,880,672
1913,672,673,881
1914,462,673,672
1915,672,461,462
1916,879,671,672
1917,672,880,879
1918,49,48,357
1919,357,358,49
1920,1303,1302,1090
1921,1090,1091,1303
1922,881,882,1090
1923,1090,1089,881
1924,883,1091,1090
1925,1090,882,883
1926,1301,1089,1090
1927,1090,1302,1301
1928,1524,1523,1302
1929,1302,1303,1524
1930,1301,1302,1523
1931,1523,1522,1301
1932,1299,1087,1088
1933,1088,1300,1299
1934,881,1089,1088
1935,1088,880,881
1936,879,880,1088
1937,1088,1087,879
1938,1301,1300,1088
1939,1088,1089,1301
1940,1521,1520,1299
1941,1299,1300,1521
1942,2562,2774,2773
1943,2773,2561,2562
1944,2562,2563,2775
1945,2775,2774,2562
1946,2362,2361,2151
1947,2151,2152,2362
1948,2566,2360,2361
1949,2361,2567,2566
1950,2361,2360,2150
1951,2150,2151,2361
1952,2149,1933,1934
1953,1934,2150,2149
1954,2566,2565,2359
1955,2359,2360,2566
1956,2360,2359,2149
1957,2149,2150,2360
1958,2562,2561,2355
1959,2355,2356,2562
1960,1930,1931,2147
1961,2147,2146,1930
1962,2562,2356,2357
1963,2357,2563,2562
1964,2456,2244,2243
1965,2243,2455,2456
1966,2454,2660,2661
1967,2661,2455,2454
1968,2241,2242,2019
1969,2019,2018,2241
1970,2240,2241,2018
1971,2018,2017,2240
1972,2453,2659,2660
1973,2660,2454,2453
1974,2452,2453,2241
1975,2241,2240,2452
1976,2967,2871,2870
1977,2870,2966,2967
1978,2663,2871,2872
1979,2872,2664,2663
1980,3186,3187,3414
1981,3414,3413,3186
1982,3082,3187,3186
1983,3186,3081,3082
1984,2970,2969,3292
1985,3292,3293,2970
1986,2872,2873,2665
1987,2665,2664,2872
1988,2874,2873,2969
1989,2969,2970,2874
1990,2245,2244,2456
1991,2456,2457,2245
1992,2458,2457,2663
1993,2663,2664,2458
1994,2665,2459,2458
1995,2458,2664,2665
1996,2247,2459,2460
1997,2460,2248,2247
1998,1191,1190,1406
1999,1406,1407,1191
2000,1190,1189,1405
2001,1405,1406,1190
2002,1186,1185,1401
2003,1401,1402,1186
2004,2973,2974,2878
2005,2878,2877,2973
2006,2669,2668,2876
2007,2876,2877,2669
2008,3193,3194,3421
2009,3421,3420,3193
2010,3088,3089,3194
2011,3194,3193,3088
2012,2971,2970,3293
2013,3293,3294,2971
2014,2973,3296,3297
2015,3297,2974,2973
2016,3088,2775,2776
2017,2776,3089,3088
2018,2667,2875,2876
2019,2876,2668,2667
2020,2874,2970,2971
2021,2971,2875,2874
2022,2464,2465,2253
2023,2253,2252,2464
2024,2466,2465,2671
2025,2671,2672,2466
2026,2254,2255,2032
2027,2032,2031,2254
2028,2033,2032,2255
2029,2255,2256,2033
2030,2673,2467,2466
2031,2466,2672,2673
2032,2468,2256,2255
2033,2255,2467,2468
2034,2462,2668,2669
2035,2669,2463,2462
2036,2251,2463,2464
2037,2464,2252,2251
2038,2248,2249,2026
2039,2026,2025,2248
2040,2667,2668,2462
2041,2462,2461,2667
2042,2460,2461,2249
2043,2249,2248,2460
2044,1307,1095,1096
2045,1096,1308,1307
2046,889,1097,1096
2047,1096,888,889
2048,887,888,1096
2049,1096,1095,887
2050,1309,1308,1096
2051,1096,1097,1309
2052,1529,1528,1307
2053,1307,1308,1529
2054,1309,1530,1529
2055,1529,1308,1309
2056,472,683,682
2057,682,471,472
2058,889,681,682
2059,682,890,889
2060,470,471,682
2061,682,681,470
2062,891,890,682
2063,682,683,891
2064,368,369,60
2065,60,59,368
2066,1311,1310,1098
2067,1098,1099,1311
2068,889,890,1098
2069,1098,1097,889
2070,1309,1097,1098
2071,1098,1310,1309
2072,891,1099,1098
2073,1098,890,891
2074,1532,1531,1310
2075,1310,1311,1532
2076,2363,2362,2152
2077,2152,2153,2363
2078,2570,2569,2363
2079,2363,2364,2570
2080,1938,1939,2155
2081,2155,2154,1938
2082,2570,2364,2365
2083,2365,2571,2570
2084,2366,2365,2155
2085,2155,2156,2366
2086,2365,2364,2154
2087,2154,2155,2365
2088,2574,2575,2787
2089,2787,2786,2574
2090,2574,2786,2785
2091,2785,2573,2574
2092,2157,1941,1942
2093,1942,2158,2157
2094,2370,2369,2159
2095,2159,2160,2370
2096,2574,2368,2369
2097,2369,2575,2574
2098,2369,2368,2158
2099,2158,2159,2369
2100,2574,2573,2367
2101,2367,2368,2574
2102,476,477,688
2103,688,687,476
2104,897,896,688
2105,688,689,897
2106,478,689,688
2107,688,477,478
2108,895,687,688
2109,688,896,895
2110,65,64,373
2111,373,374,65
2112,1319,1318,1106
2113,1106,1107,1319
2114,898,1106,1105
2115,1105,897,898
2116,1106,898,899
2117,899,1107,1106
2118,1317,1105,1106
2119,1106,1318,1317
2120,1540,1539,1318
2121,1318,1319,1540
2122,1315,1103,1104
2123,1104,1316,1315
2124,897,1105,1104
2125,1104,896,897
2126,895,896,1104
2127,1104,1103,895
2128,1317,1316,1104
2129,1104,1105,1317
2130,1537,1536,1315
2131,1315,1316,1537
2132,1317,1538,1537
2133,1537,1316,1317
2134,2578,2790,2789
2135,2789,2577,2578
2136,2578,2579,2791
2137,2791,2790,2578
2138,2377,2583,2582
2139,2582,2376,2377
2140,2377,2376,2166
2141,2166,2167,2377
2142,2165,1949,1950
2143,1950,2166,2165
2144,2582,2581,2375
2145,2375,2376,2582
2146,2371,2370,2160
2147,2160,2161,2371
2148,2578,2577,2371
2149,2371,2372,2578
2150,1946,1947,2163
2151,2163,2162,1946
2152,2578,2372,2373
2153,2373,2579,2578
2154,2374,2373,2163
2155,2163,2164,2374
2156,2373,2372,2162
2157,2162,2163,2373
2158,2472,2260,2259
2159,2259,2471,2472
2160,2470,2676,2677
2161,2677,2471,2470
2162,2470,2469,2675
2163,2675,2676,2470
2164,2256,2468,2469
2165,2469,2257,2256
2166,2983,2887,2886
2167,2886,2982,2983
2168,2679,2887,2888
2169,2888,2680,2679
2170,3202,3203,3430
2171,3430,3429,3202
2172,3098,3203,3202
2173,3202,3097,3098
2174,2986,2985,3308
2175,3308,3309,2986
2176,2983,2982,3305
2177,3305,3306,2983
2178,3098,3097,2784
2179,2784,2785,3098
2180,2888,2889,2681
2181,2681,2680,2888
2182,2890,2889,2985
2183,2985,2986,2890
2184,2261,2260,2472
2185,2472,2473,2261
2186,2474,2473,2679
2187,2679,2680,2474
2188,2263,2264,2041
2189,2041,2040,2263
2190,2681,2475,2474
2191,2474,2680,2681
2192,2263,2475,2476
2193,2476,2264,2263
2194,2989,2990,2894
2195,2894,2893,2989
2196,2685,2684,2892
2197,2892,2893,2685
2198,3209,3210,3437
2199,3437,3436,3209
2200,3104,3105,3210
2201,3210,3209,3104
2202,3435,3208,3209
2203,3209,3436,3435
2204,2989,3312,3313
2205,3313,2990,2989
2206,3104,2791,2792
2207,2792,3105,3104
2208,2683,2891,2892
2209,2892,2684,2683
2210,2890,2986,2987
2211,2987,2891,2890
2212,2481,2269,2268
2213,2268,2480,2481
2214,2687,2688,2482
2215,2482,2481,2687
2216,2689,2483,2482
2217,2482,2688,2689
2218,2271,2483,2484
2219,2484,2272,2271
2220,2478,2684,2685
2221,2685,2479,2478
2222,2267,2479,2480
2223,2480,2268,2267
2224,2265,2266,2043
2225,2043,2042,2265
2226,2683,2684,2478
2227,2478,2477,2683
2228,2476,2477,2265
2229,2265,2264,2476
2230,1323,1111,1112
2231,1112,1324,1323
2232,905,1113,1112
2233,1112,904,905
2234,903,904,1112
2235,1112,1111,903
2236,1325,1324,1112
2237,1112,1113,1325
2238,1545,1544,1323
2239,1323,1324,1545
2240,698,487,488
2241,488,699,698
2242,906,905,697
2243,697,698,906
2244,487,698,697
2245,697,486,487
2246,698,699,907
2247,907,906,698
2248,76,75,384
2249,384,385,76
2250,1114,1115,1327
2251,1327,1326,1114
2252,906,1114,1113
2253,1113,905,906
2254,1326,1325,1113
2255,1113,1114,1326
2256,1114,906,907
2257,907,1115,1114
2258,1548,1547,1326
2259,1326,1327,1548
2260,1325,1326,1547
2261,1547,1546,1325
2262,2169,2379,2378
2263,2378,2168,2169
2264,2379,2380,2586
2265,2586,2585,2379
2266,2379,2169,2170
2267,2170,2380,2379
2268,1955,2171,2170
2269,2170,1954,1955
2270,2587,2586,2380
2271,2380,2381,2587
2272,2382,2381,2171
2273,2171,2172,2382
2274,2381,2380,2170
2275,2170,2171,2381
2276,2803,2802,2590
2277,2590,2591,2803
2278,2590,2802,2801
2279,2801,2589,2590
2280,2173,1957,1958
2281,1958,2174,2173
2282,2590,2384,2385
2283,2385,2591,2590
2284,2385,2384,2174
2285,2174,2175,2385
2286,2590,2589,2383
2287,2383,2384,2590
2288,704,703,492
2289,492,493,704
2290,912,704,705
2291,705,913,912
2292,493,494,705
2293,705,704,493
2294,704,912,911
2295,911,703,704
2296,81,80,389
2297,389,390,81
2298,1122,1123,1335
2299,1335,1334,1122
2300,913,914,1122
2301,1122,1121,913
2302,915,1123,1122
2303,1122,914,915
2304,1334,1333,1121
2305,1121,1122,1334
2306,1555,1334,1335
2307,1335,1556,1555
2308,1334,1555,1554
2309,1554,1333,1334
2310,1332,1331,1119
2311,1119,1120,1332
2312,913,1121,1120
2313,1120,912,913
2314,911,912,1120
2315,1120,1119,911
2316,1120,1121,1333
2317,1333,1332,1120
2318,1553,1552,1331
2319,1331,1332,1553
2320,2594,2806,2805
2321,2805,2593,2594
2322,2595,2807,2806
2323,2806,2594,2595
2324,2598,2392,2393
2325,2393,2599,2598
2326,2181,1965,1966
2327,1966,2182,2181
2328,2391,2392,2598
2329,2598,2597,2391
2330,2392,2391,2181
2331,2181,2182,2392
2332,2387,2386,2176
2333,2176,2177,2387
2334,2594,2593,2387
2335,2387,2388,2594
2336,2388,2387,2177
2337,2177,2178,2388
2338,2179,2178,1962
2339,1962,1963,2179
2340,2595,2594,2388
2341,2388,2389,2595
2342,2487,2488,2276
2343,2276,2275,2487
2344,2693,2487,2486
2345,2486,2692,2693
2346,2485,2691,2692
2347,2692,2486,2485
2348,2273,2272,2484
2349,2484,2485,2273
2350,2903,2902,2998
2351,2998,2999,2903
2352,2695,2903,2904
2353,2904,2696,2695
2354,3218,3219,3446
2355,3446,3445,3218
2356,3114,3219,3218
2357,3218,3113,3114
2358,3447,3446,3219
2359,3219,3220,3447
2360,3002,3001,3324
2361,3324,3325,3002
2362,2697,2696,2904
2363,2904,2905,2697
2364,2905,3001,3002
2365,3002,2906,2905
2366,2277,2276,2488
2367,2488,2489,2277
2368,2489,2695,2696
2369,2696,2490,2489
2370,2278,2279,2056
2371,2056,2055,2278
2372,2697,2491,2490
2373,2490,2696,2697
2374,2279,2491,2492
2375,2492,2280,2279
2376,1223,1222,1438
2377,1438,1439,1223
2378,1222,1221,1437
2379,1437,1438,1222
2380,1219,1218,1434
2381,1434,1435,1219
2382,2909,3005,3006
2383,3006,2910,2909
2384,2701,2700,2908
2385,2908,2909,2701
2386,3452,3225,3226
2387,3226,3453,3452
2388,3120,3121,3226
2389,3226,3225,3120
2390,3225,3452,3451
2391,3451,3224,3225
2392,3003,3002,3325
2393,3325,3326,3003
2394,3005,3328,3329
2395,3329,3006,3005
2396,2807,2808,3121
2397,3121,3120,2807
2398,2699,2907,2908
2399,2908,2700,2699
2400,3003,2907,2906
2401,2906,3002,3003
2402,2496,2497,2285
2403,2285,2284,2496
2404,2498,2497,2703
2405,2703,2704,2498
2406,2705,2499,2498
2407,2498,2704,2705
2408,2287,2499,2500
2409,2500,2288,2287
2410,2494,2700,2701
2411,2701,2495,2494
2412,2283,2495,2496
2413,2496,2284,2283
2414,2281,2282,2059
2415,2059,2058,2281
2416,2280,2281,2058
2417,2058,2057,2280
2418,2699,2700,2494
2419,2494,2493,2699
2420,2492,2493,2281
2421,2281,2280,2492
2422,1340,1339,1127
2423,1127,1128,1340
2424,1128,920,921
2425,921,1129,1128
2426,920,1128,1127
2427,1127,919,920
2428,1128,1129,1341
2429,1341,1340,1128
2430,1340,1561,1560
2431,1560,1339,1340
2432,1561,1340,1341
2433,1341,1562,1561
2434,714,503,504
2435,504,715,714
2436,921,713,714
2437,714,922,921
2438,503,714,713
2439,713,502,503
2440,923,922,714
2441,714,715,923
2442,400,401,92
2443,92,91,400
2444,1343,1342,1130
2445,1130,1131,1343
2446,1130,1129,921
2447,921,922,1130
2448,1341,1129,1130
2449,1130,1342,1341
2450,922,923,1131
2451,1131,1130,922
2452,1564,1563,1342
2453,1342,1343,1564
2454,2185,2395,2394
2455,2394,2184,2185
2456,2395,2396,2602
2457,2602,2601,2395
2458,2395,2185,2186
2459,2186,2396,2395
2460,1970,1971,2187
2461,2187,2186,1970
2462,2603,2602,2396
2463,2396,2397,2603
2464,2606,2607,2819
2465,2819,2818,2606
2466,2605,2606,2818
2467,2818,2817,2605
2468,2189,1973,1974
2469,1974,2190,2189
2470,2606,2400,2401
2471,2401,2607,2606
2472,2399,2398,2188
2473,2188,2189,2399
2474,2605,2399,2400
2475,2400,2606,2605
2476,720,719,508
2477,508,509,720
2478,929,928,720
2479,720,721,929
2480,509,510,721
2481,721,720,509
2482,927,719,720
2483,720,928,927
2484,97,96,405
2485,405,406,97
2486,1350,1138,1139
2487,1139,1351,1350
2488,1138,1137,929
2489,929,930,1138
2490,930,931,1139
2491,1139,1138,930
2492,1138,1350,1349
2493,1349,1137,1138
2494,1351,1472,1571
2495,1571,1350,1351
2496,1349,1350,1571
2497,1571,1570,1349
2498,1347,1135,1136
2499,1136,1348,1347
2500,929,1137,1136
2501,1136,928,929
2502,927,928,1136
2503,1136,1135,927
2504,1349,1348,1136
2505,1136,1137,1349
2506,1348,1569,1568
2507,1568,1347,1348
2508,2610,2822,2821
2509,2821,2609,2610
2510,2610,2611,2823
2511,2823,2822,2610
2512,2410,2409,2199
2513,2199,2200,2410
2514,2614,2408,2409
2515,2409,2615,2614
2516,2409,2408,2198
2517,2198,2199,2409
2518,2197,1981,1982
2519,1982,2198,2197
2520,2614,2613,2407
2521,2407,2408,2614
2522,2197,2407,2406
2523,2406,2196,2197
2524,2407,2197,2198
2525,2198,2408,2407
2526,2609,2403,2404
2527,2404,2610,2609
2528,1978,1979,2195
2529,2195,2194,1978
2530,2610,2404,2405
2531,2405,2611,2610
2532,2503,2504,2292
2533,2292,2291,2503
2534,2502,2708,2709
2535,2709,2503,2502
2536,2502,2501,2707
2537,2707,2708,2502
2538,2289,2288,2500
2539,2500,2501,2289
2540,3015,2919,2918
2541,2918,3014,3015
2542,2711,2919,2920
2543,2920,2712,2711
2544,3359,3357,3234
2545,3234,3235,3359
2546,3130,3235,3234
2547,3234,3129,3130
2548,3341,3041,3017
2549,3017,3340,3341
2550,3015,3014,3337
2551,3337,3338,3015
2552,3130,3129,2816
2553,2816,2817,3130
2554,2921,2713,2712
2555,2712,2920,2921
2556,2922,2921,3017
2557,3017,3041,2922
2558,2505,2293,2292
2559,2292,2504,2505
2560,2506,2505,2711
2561,2711,2712,2506
2562,2294,2295,2072
2563,2072,2071,2294
2564,2295,2296,2073
2565,2073,2072,2295
2566,2713,2507,2506
2567,2506,2712,2713
2568,2295,2507,2508
2569,2508,2296,2295
2570,1449,1450,1234
2571,1234,1233,1449
2572,3032,2926,2925
2573,2925,3034,3032
2574,2717,2716,2924
2575,2924,2925,2717
2576,3373,3371,3241
2577,3241,3242,3373
2578,3136,3137,3242
2579,3242,3241,3136
2580,3032,3034,3344
2581,3344,3345,3032
2582,2823,2824,3137
2583,3137,3136,2823
2584,2923,2924,2716
2585,2716,2715,2923
2586,3039,2923,2922
2587,2922,3041,3039
2588,2719,2720,2514
2589,2514,2513,2719
2590,2513,2301,2300
2591,2300,2512,2513
2592,2721,2515,2514
2593,2514,2720,2721
2594,2515,2516,2304
2595,2304,2303,2515
2596,2717,2511,2510
2597,2510,2716,2717
2598,2299,2511,2512
2599,2512,2300,2299
2600,2715,2716,2510
2601,2510,2509,2715
2602,2508,2509,2297
2603,2297,2296,2508
2604,3382,3380,3565
2605,3565,3564,3382
2606,3380,3378,3566
2607,3566,3565,3380
2608,3779,3778,3565
2609,3565,3566,3779
2610,3777,3564,3565
2611,3565,3778,3777
2612,3393,3394,3581
2613,3581,3580,3393
2614,3395,3582,3581
2615,3581,3394,3395
2616,3795,3794,3581
2617,3581,3582,3795
2618,3793,3580,3581
2619,3581,3794,3793
2620,3409,3410,3597
2621,3597,3596,3409
2622,3411,3598,3597
2623,3597,3410,3411
2624,3811,3810,3597
2625,3597,3598,3811
2626,3809,3596,3597
2627,3597,3810,3809
2628,3425,3426,3613
2629,3613,3612,3425
2630,3427,3614,3613
2631,3613,3426,3427
2632,3827,3826,3613
2633,3613,3614,3827
2634,3612,3613,3826
2635,3826,3825,3612
2636,3441,3442,3629
2637,3629,3628,3441
2638,3443,3630,3629
2639,3629,3442,3443
2640,3842,3629,3630
2641,3630,3843,3842
2642,3629,3842,3841
2643,3841,3628,3629
2644,3457,3458,3645
2645,3645,3644,3457
2646,3459,3646,3645
2647,3645,3458,3459
2648,3858,3645,3646
2649,3646,3859,3858
2650,3645,3858,3857
2651,3857,3644,3645
2652,618,412,411
2653,411,617,618
2654,313,412,618
2655,618,519,313
2656,5,3,312
2657,312,314,5
2658,3044,3045,3150
2659,3150,3149,3044
2660,3385,3149,3150
2661,3150,3382,3385
2662,3393,3580,3579
2663,3579,3392,3393
2664,3391,3392,3579
2665,3579,3578,3391
2666,3791,3578,3579
2667,3579,3792,3791
2668,3793,3792,3579
2669,3579,3580,3793
2670,3409,3596,3595
2671,3595,3408,3409
2672,3407,3408,3595
2673,3595,3594,3407
2674,3807,3594,3595
2675,3595,3808,3807
2676,3809,3808,3595
2677,3595,3596,3809
2678,3425,3612,3611
2679,3611,3424,3425
2680,3423,3424,3611
2681,3611,3610,3423
2682,3823,3610,3611
2683,3611,3824,3823
2684,3825,3824,3611
2685,3611,3612,3825
2686,3441,3628,3627
2687,3627,3440,3441
2688,3439,3440,3627
2689,3627,3626,3439
2690,3839,3626,3627
2691,3627,3840,3839
2692,3841,3840,3627
2693,3627,3628,3841
2694,3457,3644,3643
2695,3643,3456,3457
2696,3455,3456,3643
2697,3643,3642,3455
2698,3855,3642,3643
2699,3643,3856,3855
2700,3857,3856,3643
2701,3643,3644,3857
2702,3383,3660,3659
2703,3659,3381,3383
2704,3381,3659,3658
2705,3658,3379,3381
2706,3659,3872,3871
2707,3871,3658,3659
2708,3872,3659,3660
2709,3660,3873,3872
2710,103,412,313
2711,313,4,103
2712,3142,3247,3246
2713,3246,3141,3142
2714,3386,3383,3246
2715,3246,3247,3386
2716,3571,3366,3364
2717,3364,3572,3571
2718,3366,3571,3570
2719,3570,3368,3366
2720,3783,3570,3571
2721,3571,3784,3783
2722,3785,3784,3571
2723,3571,3572,3785
2724,3401,3588,3587
2725,3587,3400,3401
2726,3399,3400,3587
2727,3587,3586,3399
2728,3800,3799,3586
2729,3586,3587,3800
2730,3587,3588,3801
2731,3801,3800,3587
2732,3417,3604,3603
2733,3603,3416,3417
2734,3415,3416,3603
2735,3603,3602,3415
2736,3815,3602,3603
2737,3603,3816,3815
2738,3817,3816,3603
2739,3603,3604,3817
2740,3433,3620,3619
2741,3619,3432,3433
2742,3431,3432,3619
2743,3619,3618,3431
2744,3831,3618,3619
2745,3619,3832,3831
2746,3833,3832,3619
2747,3619,3620,3833
2748,3635,3448,3449
2749,3449,3636,3635
2750,3448,3635,3634
2751,3634,3447,3448
2752,3848,3847,3634
2753,3634,3635,3848
2754,3635,3636,3849
2755,3849,3848,3635
2756,3652,3651,3363
2757,3363,3365,3652
2758,3651,3650,3361
2759,3361,3363,3651
2760,3863,3650,3651
2761,3651,3864,3863
2762,3865,3864,3651
2763,3651,3652,3865
2764,1358,1253,1255
2765,1358,1255,1475
2766,1475,1479,1358
2767,1986,1887,2103
2768,2103,2101,1986
2769,3572,3364,3362
2770,3362,3573,3572
2771,3573,3362,3360
2772,3360,3574,3573
2773,3787,3786,3573
2774,3573,3574,3787
2775,3785,3572,3573
2776,3573,3786,3785
2777,3402,3589,3588
2778,3588,3401,3402
2779,3589,3402,3403
2780,3403,3590,3589
2781,3589,3590,3803
2782,3803,3802,3589
2783,3802,3801,3588
2784,3588,3589,3802
2785,3417,3418,3605
2786,3605,3604,3417
2787,3419,3606,3605
2788,3605,3418,3419
2789,3819,3818,3605
2790,3605,3606,3819
2791,3817,3604,3605
2792,3605,3818,3817
2793,3433,3434,3621
2794,3621,3620,3433
2795,3435,3622,3621
2796,3621,3434,3435
2797,3835,3834,3621
2798,3621,3622,3835
2799,3833,3620,3621
2800,3621,3834,3833
2801,3637,3636,3449
2802,3449,3450,3637
2803,3450,3451,3638
2804,3638,3637,3450
2805,3850,3637,3638
2806,3638,3851,3850
2807,3637,3850,3849
2808,3849,3636,3637
2809,3653,3652,3365
2810,3365,3367,3653
2811,3367,3369,3654
2812,3654,3653,3367
2813,3866,3653,3654
2814,3654,3867,3866
2815,3653,3866,3865
2816,3865,3652,3653
2817,1353,1256,1476
2818,1476,1478,1353
2819,1359,1480,1476
2820,1476,1256,1359
2821,1256,1254,1359
2822,1987,2102,2201
2823,2201,1985,1987
2824,3568,3567,3376
2825,3376,3372,3568
2826,3378,3376,3567
2827,3567,3566,3378
2828,3779,3566,3567
2829,3567,3780,3779
2830,3781,3780,3567
2831,3567,3568,3781
2832,4088,3779,3780
2833,3780,4089,4088
2834,3397,3584,3583
2835,3583,3396,3397
2836,3395,3396,3583
2837,3583,3582,3395
2838,3796,3795,3582
2839,3582,3583,3796
2840,3583,3584,3797
2841,3797,3796,3583
2842,3796,4105,4104
2843,4104,3795,3796
2844,4103,3794,3795
2845,3795,4104,4103
2846,3412,3413,3600
2847,3600,3599,3412
2848,3599,3598,3411
2849,3411,3412,3599
2850,3599,3812,3811
2851,3811,3598,3599
2852,3812,3599,3600
2853,3600,3813,3812
2854,3429,3616,3615
2855,3615,3428,3429
2856,3427,3428,3615
2857,3615,3614,3427
2858,3827,3614,3615
2859,3615,3828,3827
2860,3829,3828,3615
2861,3615,3616,3829
2862,3631,3444,3445
2863,3445,3632,3631
2864,3444,3631,3630
2865,3630,3443,3444
2866,3843,3630,3631
2867,3631,3844,3843
2868,3845,3844,3631
2869,3631,3632,3845
2870,4152,3843,3844
2871,3844,4153,4152
2872,3648,3647,3460
2873,3460,3357,3648
2874,3459,3460,3647
2875,3647,3646,3459
2876,3860,3859,3646
2877,3646,3647,3860
2878,3647,3648,3861
2879,3861,3860,3647
2880,4168,3859,3860
2881,3860,4169,4168
2882,3858,3859,4168
2883,4168,4167,3858
2884,416,414,313
2885,313,519,416
2886,619,516,627
2887,627,728,619
2888,835,728,627
2889,627,938,835
2890,311,413,312
2891,1,311,312
2892,312,3,1
2893,2618,2519,2731
2894,2731,2729,2618
2895,2620,2618,2729
2896,2729,2727,2620
2897,2834,2832,3018
2898,3018,3022,2834
2899,2624,2622,2931
2900,2931,2832,2624
2901,2723,2830,2931
2902,2931,2622,2723
2903,3576,3356,3390
2904,3390,3577,3576
2905,3391,3578,3577
2906,3577,3390,3391
2907,3791,3790,3577
2908,3577,3578,3791
2909,3789,3576,3577
2910,3577,3790,3789
2911,3405,3406,3593
2912,3593,3592,3405
2913,3407,3594,3593
2914,3593,3406,3407
2915,3806,3593,3594
2916,3594,3807,3806
2917,3593,3806,3805
2918,3805,3592,3593
2919,3421,3422,3609
2920,3609,3608,3421
2921,3423,3610,3609
2922,3609,3422,3423
2923,3823,3822,3609
2924,3609,3610,3823
2925,3821,3608,3609
2926,3609,3822,3821
2927,4132,4131,3822
2928,3822,3823,4132
2929,3438,3625,3624
2930,3624,3437,3438
2931,3625,3438,3439
2932,3439,3626,3625
2933,3625,3626,3839
2934,3839,3838,3625
2935,3838,3837,3624
2936,3624,3625,3838
2937,4149,4148,3839
2938,3839,3840,4149
2939,3454,3641,3640
2940,3640,3453,3454
2941,3641,3454,3455
2942,3455,3642,3641
2943,3641,3642,3855
2944,3855,3854,3641
2945,3854,3853,3640
2946,3640,3641,3854
2947,3656,3373,3377
2948,3377,3657,3656
2949,3379,3658,3657
2950,3657,3377,3379
2951,3871,3870,3657
2952,3657,3658,3871
2953,3869,3656,3657
2954,3657,3870,3869
2955,620,729,628
2956,628,517,620
2957,836,939,628
2958,628,729,836
2959,310,2,4
2960,414,310,4
2961,4,313,414
2962,2619,2730,2829
2963,2829,2617,2619
2964,2621,2728,2730
2965,2730,2619,2621
2966,3142,3141,2828
2967,2828,2829,3142
2968,2930,3023,3019
2969,3019,2833,2930
2970,2625,2833,2932
2971,2932,2623,2625
2972,2724,2623,2932
2973,2932,2831,2724
2974,3249,3355,3388
2975,3148,3146,3249
2976,3249,3388,3148
2977,4609,4343,4340
2978,4340,4712,4609
2979,4340,4608,4712
2980,3370,3569,3568
2981,3568,3372,3370
2982,3368,3570,3569
2983,3569,3370,3368
2984,3783,3782,3569
2985,3569,3570,3783
2986,3781,3568,3569
2987,3569,3782,3781
2988,4093,4092,3783
2989,3783,3784,4093
2990,4718,4615,4355
2991,4614,4718,4355
2992,4355,4353,4614
2993,4719,4616,4357
2994,4615,4719,4357
2995,4357,4355,4615
2996,4923,4824,5240
2997,5240,5239,4923
2998,4922,5237,5236
2999,5236,4822,4922
3000,5232,5233,5647
3001,5647,5646,5232
3002,5236,5650,5649
3003,5649,5235,5236
3004,4920,5233,5232
3005,5232,4820,4920
3006,4921,4822,5236
3007,5236,5235,4921
3008,5240,5654,5653
3009,5653,5239,5240
3010,5236,5237,5651
3011,5651,5650,5236
3012,4612,4349,4347
3013,4347,4715,4612
3014,4347,4611,4715
3015,4611,4347,4344
3016,4344,4714,4611
3017,4344,4610,4714
3018,4924,5241,5240
3019,5240,4824,4924
3020,3397,3398,3585
3021,3585,3584,3397
3022,3399,3586,3585
3023,3585,3398,3399
3024,3798,3585,3586
3025,3586,3799,3798
3026,3585,3798,3797
3027,3797,3584,3585
3028,4734,4631,4388
3029,4630,4734,4388
3030,4388,4386,4630
3031,4735,4632,4390
3032,4631,4735,4390
3033,4390,4388,4631
3034,4939,4840,5272
3035,5272,5271,4939
3036,4938,5269,5268
3037,5268,4838,4938
3038,5264,5265,5679
3039,5679,5678,5264
3040,5268,5682,5681
3041,5681,5267,5268
3042,4936,5265,5264
3043,5264,4836,4936
3044,4937,4838,5268
3045,5268,5267,4937
3046,5272,5686,5685
3047,5685,5271,5272
3048,5268,5269,5683
3049,5683,5682,5268
3050,4941,4842,5276
3051,5276,5275,4941
3052,3413,3414,3601
3053,3601,3600,3413
3054,3415,3602,3601
3055,3601,3414,3415
3056,3815,3814,3601
3057,3601,3602,3815
3058,3813,3600,3601
3059,3601,3814,3813
3060,4124,4123,3814
3061,3814,3815,4124
3062,4125,4124,3815
3063,3815,3816,4125
3064,4750,4647,4302
3065,4646,4750,4302
3066,4302,4301,4646
3067,4751,4648,4303
3068,4647,4751,4303
3069,4303,4302,4647
3070,4955,4856,5304
3071,5304,5303,4955
3072,4954,5301,5300
3073,5300,4854,4954
3074,5296,5297,5711
3075,5711,5710,5296
3076,5300,5714,5713
3077,5713,5299,5300
3078,4952,5297,5296
3079,5296,4852,4952
3080,4953,4854,5300
3081,5300,5299,4953
3082,5304,5718,5717
3083,5717,5303,5304
3084,5300,5301,5715
3085,5715,5714,5300
3086,4644,4299,4298
3087,4298,4747,4644
3088,4298,4643,4747
3089,3429,3430,3617
3090,3617,3616,3429
3091,3431,3618,3617
3092,3617,3430,3431
3093,3831,3830,3617
3094,3617,3618,3831
3095,3829,3616,3617
3096,3617,3830,3829
3097,4140,4139,3830
3098,3830,3831,4140
3099,4766,4663,4318
3100,4662,4766,4318
3101,4318,4317,4662
3102,4767,4664,4319
3103,4663,4767,4319
3104,4319,4318,4663
3105,4971,4872,5336
3106,5336,5335,4971
3107,4970,5333,5332
3108,5332,4870,4970
3109,5742,5328,5329
3110,5329,5743,5742
3111,5745,5331,5332
3112,5332,5746,5745
3113,4968,5329,5328
3114,5328,4868,4968
3115,4969,4870,5332
3116,5332,5331,4969
3117,5749,5335,5336
3118,5336,5750,5749
3119,5333,5747,5746
3120,5746,5332,5333
3121,4972,5337,5336
3122,5336,4872,4972
3123,4973,4874,5340
3124,5340,5339,4973
3125,4975,4876,5344
3126,5344,5343,4975
3127,4974,5341,5340
3128,5340,4874,4974
3129,3445,3446,3633
3130,3633,3632,3445
3131,3447,3634,3633
3132,3633,3446,3447
3133,3847,3846,3633
3134,3633,3634,3847
3135,3845,3632,3633
3136,3633,3846,3845
3137,4157,4156,3847
3138,3847,3848,4157
3139,4782,4679,4334
3140,4678,4782,4334
3141,4334,4333,4678
3142,4680,4335,4334
3143,4334,4783,4680
3144,4334,4679,4783
3145,4987,4888,5368
3146,5368,5367,4987
3147,4986,5365,5364
3148,5364,4886,4986
3149,5360,5361,5775
3150,5775,5774,5360
3151,5364,5778,5777
3152,5777,5363,5364
3153,4984,5361,5360
3154,5360,4884,4984
3155,4985,4886,5364
3156,5364,5363,4985
3157,5368,5782,5781
3158,5781,5367,5368
3159,5364,5365,5779
3160,5779,5778,5364
3161,4676,4331,4330
3162,4330,4779,4676
3163,4330,4675,4779
3164,4778,4675,4330
3165,4674,4778,4330
3166,4330,4329,4674
3167,4988,5369,5368
3168,5368,4888,4988
3169,3649,3648,3357
3170,3357,3359,3649
3171,3650,3649,3359
3172,3359,3361,3650
3173,3649,3650,3863
3174,3863,3862,3649
3175,3862,3861,3648
3176,3648,3649,3862
3177,4798,4695,4364
3178,4694,4798,4364
3179,4364,4366,4694
3180,4799,4696,4362
3181,4695,4799,4362
3182,4362,4364,4695
3183,5003,4904,5400
3184,5400,5399,5003
3185,5002,5397,5396
3186,5396,4902,5002
3187,5392,5393,5807
3188,5807,5806,5392
3189,5396,5810,5809
3190,5809,5395,5396
3191,5000,5393,5392
3192,5392,4900,5000
3193,5001,4902,5396
3194,5396,5395,5001
3195,5400,5814,5813
3196,5813,5399,5400
3197,5396,5397,5811
3198,5811,5810,5396
3199,5005,4906,5404
3200,5404,5403,5005
3201,1252,1044,1242
3202,1242,1355,1252
3203,1461,1358,1479
3204,1479,1671,1461
3205,2519,2618,2412
3206,2412,2313,2519
3207,2081,1986,2101
3208,2101,2099,2081
3209,2099,2206,2095
3210,2095,2081,2099
3211,2618,2620,2416
3212,2416,2412,2618
3213,2206,2099,2101
3214,2206,2101,2412
3215,2412,2416,2206
3216,1354,1459,1457
3217,1354,1457,1245
3218,1245,1241,1354
3219,1251,1354,1241
3220,1241,1043,1251
3221,2305,2418,2420
3222,2420,2208,2305
3223,2418,2414,2622
3224,2622,2624,2418
3225,3575,3358,3356
3226,3356,3576,3575
3227,3574,3360,3358
3228,3358,3575,3574
3229,3787,3574,3575
3230,3575,3788,3787
3231,3789,3788,3575
3232,3575,3576,3789
3233,4096,4095,3786
3234,3786,3787,4096
3235,4723,4620,4365
3236,4619,4723,4365
3237,4365,4363,4619
3238,4722,4619,4363
3239,4618,4722,4363
3240,4363,4361,4618
3241,4932,5257,5256
3242,5256,4832,4932
3243,4933,4834,5260
3244,5260,5259,4933
3245,5264,5678,5677
3246,5677,5263,5264
3247,5260,5261,5675
3248,5675,5674,5260
3249,4935,4836,5264
3250,5264,5263,4935
3251,4934,5261,5260
3252,5260,4834,4934
3253,5256,5257,5671
3254,5671,5670,5256
3255,5260,5674,5673
3256,5673,5259,5260
3257,4931,4832,5256
3258,5256,5255,4931
3259,3405,3592,3591
3260,3591,3404,3405
3261,3403,3404,3591
3262,3591,3590,3403
3263,3804,3803,3590
3264,3590,3591,3804
3265,3591,3592,3805
3266,3805,3804,3591
3267,4111,3802,3803
3268,3803,4112,4111
3269,4636,4291,4290
3270,4290,4739,4636
3271,4290,4635,4739
3272,4635,4290,4289
3273,4289,4738,4635
3274,4289,4634,4738
3275,4948,5289,5288
3276,5288,4848,4948
3277,4949,4850,5292
3278,5292,5291,4949
3279,5296,5710,5709
3280,5709,5295,5296
3281,5292,5293,5707
3282,5707,5706,5292
3283,4951,4852,5296
3284,5296,5295,4951
3285,4950,5293,5292
3286,5292,4850,4950
3287,5288,5289,5703
3288,5703,5702,5288
3289,5292,5706,5705
3290,5705,5291,5292
3291,4945,4846,5284
3292,5284,5283,4945
3293,4742,4639,4294
3294,4638,4742,4294
3295,4294,4293,4638
3296,3421,3608,3607
3297,3607,3420,3421
3298,3419,3420,3607
3299,3607,3606,3419
3300,3819,3606,3607
3301,3607,3820,3819
3302,3821,3820,3607
3303,3607,3608,3821
3304,4755,4652,4307
3305,4651,4755,4307
3306,4307,4306,4651
3307,4754,4651,4306
3308,4650,4754,4306
3309,4306,4305,4650
3310,4964,5321,5320
3311,5320,4864,4964
3312,4965,4866,5324
3313,5324,5323,4965
3314,5328,5742,5741
3315,5741,5327,5328
3316,5324,5325,5739
3317,5739,5738,5324
3318,4967,4868,5328
3319,5328,5327,4967
3320,4966,5325,5324
3321,5324,4866,4966
3322,5320,5321,5735
3323,5735,5734,5320
3324,5737,5323,5324
3325,5324,5738,5737
3326,4963,4864,5320
3327,5320,5319,4963
3328,4962,5317,5316
3329,5316,4862,4962
3330,4960,5313,5312
3331,5312,4860,4960
3332,4961,4862,5316
3333,5316,5315,4961
3334,3437,3624,3623
3335,3623,3436,3437
3336,3435,3436,3623
3337,3623,3622,3435
3338,3835,3622,3623
3339,3623,3836,3835
3340,3837,3836,3623
3341,3623,3624,3837
3342,4145,4144,3835
3343,3835,3836,4145
3344,4771,4668,4323
3345,4667,4771,4323
3346,4323,4322,4667
3347,4770,4667,4322
3348,4666,4770,4322
3349,4322,4321,4666
3350,4980,5353,5352
3351,5352,4880,4980
3352,4981,4882,5356
3353,5356,5355,4981
3354,5360,5774,5773
3355,5773,5359,5360
3356,5356,5357,5771
3357,5771,5770,5356
3358,4983,4884,5360
3359,5360,5359,4983
3360,4982,5357,5356
3361,5356,4882,4982
3362,5767,5766,5352
3363,5352,5353,5767
3364,5356,5770,5769
3365,5769,5355,5356
3366,4978,5349,5348
3367,5348,4878,4978
3368,4977,4878,5348
3369,5348,5347,4977
3370,4774,4671,4326
3371,4670,4774,4326
3372,4326,4325,4670
3373,4672,4327,4326
3374,4326,4775,4672
3375,4326,4671,4775
3376,3453,3640,3639
3377,3639,3452,3453
3378,3451,3452,3639
3379,3639,3638,3451
3380,3852,3851,3638
3381,3638,3639,3852
3382,3639,3640,3853
3383,3853,3852,3639
3384,4160,4159,3850
3385,3850,3851,4160
3386,4787,4684,4387
3387,4683,4787,4387
3388,4387,4389,4683
3389,4786,4683,4389
3390,4682,4786,4389
3391,4389,4391,4682
3392,4996,5385,5384
3393,5384,4896,4996
3394,4997,4898,5388
3395,5388,5387,4997
3396,5392,5806,5805
3397,5805,5391,5392
3398,5388,5389,5803
3399,5803,5802,5388
3400,4999,4900,5392
3401,5392,5391,4999
3402,4998,5389,5388
3403,5388,4898,4998
3404,5384,5385,5799
3405,5799,5798,5384
3406,5388,5802,5801
3407,5801,5387,5388
3408,4995,4896,5384
3409,5384,5383,4995
3410,3371,3373,3656
3411,3656,3655,3371
3412,3369,3371,3655
3413,3655,3654,3369
3414,3655,3868,3867
3415,3867,3654,3655
3416,3868,3655,3656
3417,3656,3869,3868
3418,4176,4175,3866
3419,3866,3867,4176
3420,4803,4700,4354
3421,4699,4803,4354
3422,4354,4356,4699
3423,4802,4699,4356
3424,4698,4802,4356
3425,4356,4358,4698
3426,5012,5417,5416
3427,5416,4912,5012
3428,5013,4914,5420
3429,5420,5419,5013
3430,5424,5838,5837
3431,5837,5423,5424
3432,5420,5421,5835
3433,5835,5834,5420
3434,5015,4916,5424
3435,5424,5423,5015
3436,5014,5421,5420
3437,5420,4914,5014
3438,5416,5417,5831
3439,5831,5830,5416
3440,5420,5834,5833
3441,5833,5419,5420
3442,5009,4910,5412
3443,5412,5411,5009
3444,4806,4703,4348
3445,4702,4806,4348
3446,4348,4350,4702
3447,1462,1672,1480
3448,1480,1359,1462
3449,2617,2411,2413
3450,2413,2619,2617
3451,2082,2100,2102
3452,2102,1987,2082
3453,2100,2082,2096
3454,2096,2207,2100
3455,2619,2413,2417
3456,2417,2621,2619
3457,2207,2417,2413
3458,2413,2102,2207
3459,2102,2100,2207
3460,2304,2306,2080
3461,2080,2078,2304
3462,2203,2084,2080
3463,2080,2306,2203
3464,2306,2308,2203
3465,2306,2304,2516
3466,2516,2419,2306
3467,2419,2625,2623
3468,2623,2415,2419
3469,3386,3661,3660
3470,3660,3383,3386
3471,3775,3873,3660
3472,3660,3661,3775
3473,3661,3386,3388
3474,3388,3662,3661
3475,3662,3774,3775
3476,3775,3661,3662
3477,3385,3382,3564
3478,3564,3563,3385
3479,3563,3564,3777
3480,3777,3776,3563
3481,3563,3663,3387
3482,3387,3385,3563
3483,3663,3563,3776
3484,3776,3773,3663
3485,6466,6467,6267
3486,6267,6266,6466
3487,6063,6064,6468
3488,6468,6467,6063
3489,6261,6461,6462
3490,6462,6262,6261
3491,6057,6461,6460
3492,6460,6056,6057
3493,6454,6254,6253
3494,6253,6453,6454
3495,6049,6453,6452
3496,6452,6048,6049
3497,6458,6459,6259
3498,6259,6258,6458
3499,6055,6056,6460
3500,6460,6459,6055
3501,6498,6499,6299
3502,6299,6298,6498
3503,6095,6096,6500
3504,6500,6499,6095
3505,6294,6293,6493
3506,6493,6494,6294
3507,6089,6493,6492
3508,6492,6088,6089
3509,6285,6485,6486
3510,6486,6286,6285
3511,6081,6485,6484
3512,6484,6080,6081
3513,6290,6490,6491
3514,6491,6291,6290
3515,6087,6088,6492
3516,6492,6491,6087
3517,6530,6531,6331
3518,6331,6330,6530
3519,6531,6127,6128
3520,6128,6532,6531
3521,6325,6525,6526
3522,6526,6326,6325
3523,6121,6525,6524
3524,6524,6120,6121
3525,6318,6317,6517
3526,6517,6518,6318
3527,6113,6517,6516
3528,6516,6112,6113
3529,6522,6523,6323
3530,6323,6322,6522
3531,6523,6119,6120
3532,6120,6524,6523
3533,6363,6362,6562
3534,6562,6563,6363
3535,6159,6160,6564
3536,6564,6563,6159
3537,6357,6557,6558
3538,6558,6358,6357
3539,6153,6557,6556
3540,6556,6152,6153
3541,6349,6549,6550
3542,6550,6350,6349
3543,6144,6145,6549
3544,6549,6548,6144
3545,6554,6555,6355
3546,6355,6354,6554
3547,6151,6152,6556
3548,6556,6555,6151
3549,6594,6595,6395
3550,6395,6394,6594
3551,6191,6192,6596
3552,6596,6595,6191
3553,6389,6589,6590
3554,6590,6390,6389
3555,6185,6589,6588
3556,6588,6184,6185
3557,6381,6581,6582
3558,6582,6382,6381
3559,6177,6581,6580
3560,6580,6176,6177
3561,6586,6587,6387
3562,6387,6386,6586
3563,6183,6184,6588
3564,6588,6587,6183
3565,6626,6627,6427
3566,6427,6426,6626
3567,6223,6224,6628
3568,6628,6627,6223
3569,6422,6421,6621
3570,6621,6622,6422
3571,6217,6621,6620
3572,6620,6216,6217
3573,6413,6613,6614
3574,6614,6414,6413
3575,6209,6613,6612
3576,6612,6208,6209
3577,6618,6619,6419
3578,6419,6418,6618
3579,6215,6216,6620
3580,6620,6619,6215
3581,6470,6270,6269
3582,6269,6469,6470
3583,6065,6469,6468
3584,6468,6064,6065
3585,6274,6474,6475
3586,6475,6275,6274
3587,6071,6072,6476
3588,6476,6475,6071
3589,6282,6482,6483
3590,6483,6283,6282
3591,6079,6080,6484
3592,6484,6483,6079
3593,6277,6477,6478
3594,6478,6278,6277
3595,6073,6477,6476
3596,6476,6072,6073
3597,6502,6302,6301
3598,6301,6501,6502
3599,6097,6501,6500
3600,6500,6096,6097
3601,6506,6507,6307
3602,6307,6306,6506
3603,6103,6104,6508
3604,6508,6507,6103
3605,6514,6515,6315
3606,6315,6314,6514
3607,6111,6112,6516
3608,6516,6515,6111
3609,6309,6509,6510
3610,6510,6310,6309
3611,6105,6509,6508
3612,6508,6104,6105
3613,6533,6534,6334
3614,6334,6333,6533
3615,6129,6533,6532
3616,6532,6128,6129
3617,6538,6539,6339
3618,6339,6338,6538
3619,6135,6136,6540
3620,6540,6539,6135
3621,6546,6547,6347
3622,6347,6346,6546
3623,6548,6547,6143
3624,6143,6144,6548
3625,6341,6541,6542
3626,6542,6342,6341
3627,6137,6541,6540
3628,6540,6136,6137
3629,6565,6566,6366
3630,6366,6365,6565
3631,6161,6565,6564
3632,6564,6160,6161
3633,6570,6571,6371
3634,6371,6370,6570
3635,6167,6168,6572
3636,6572,6571,6167
3637,6578,6579,6379
3638,6379,6378,6578
3639,6175,6176,6580
3640,6580,6579,6175
3641,6373,6573,6574
3642,6574,6374,6373
3643,6169,6573,6572
3644,6572,6168,6169
3645,6397,6597,6598
3646,6598,6398,6397
3647,6193,6597,6596
3648,6596,6192,6193
3649,6602,6603,6403
3650,6403,6402,6602
3651,6199,6200,6604
3652,6604,6603,6199
3653,6610,6611,6411
3654,6411,6410,6610
3655,6207,6208,6612
3656,6612,6611,6207
3657,6406,6405,6605
3658,6605,6606,6406
3659,6201,6605,6604
3660,6604,6200,6201
3661,6430,6429,6629
3662,6629,6630,6430
3663,6225,6629,6628
3664,6628,6224,6225
3665,6634,6635,6435
3666,6435,6434,6634
3667,6231,6232,6636
3668,6636,6635,6231
3669,6642,6643,6443
3670,6443,6442,6642
3671,6239,6240,6644
3672,6644,6643,6239
3673,6438,6437,6637
3674,6637,6638,6438
3675,6233,6637,6636
3676,6636,6232,6233
3677,3662,3388,3355
3678,3355,3668,3662
3679,3668,3772,3774
3680,3774,3662,3668
3681,3775,3774,4082
3682,4082,4084,3775
3683,3875,3979,4082
3684,3774,3772,3875
3685,3875,4082,3774
3686,3663,3669,3562
3687,3562,3387,3663
3688,3669,3663,3773
3689,3773,3771,3669
3690,5424,5425,5839
3691,5839,5838,5424
3692,5642,5841,5427
3693,5427,5428,5642
3694,5016,5425,5424
3695,5424,4916,5016
3696,5017,4817,5428
3697,5428,5427,5017
3698,4817,4816,5227
3699,5227,5428,4817
3700,5639,5642,5428
3701,5428,5227,5639
3702,4810,4708,4338
3703,4706,4810,4338
3704,4338,4341,4706
3705,4396,4346,4338
3706,4605,4396,4338
3707,4605,4338,4812
3708,4812,4709,4605
3709,4338,4708,4812
3710,5232,5646,5645
3711,5645,5231,5232
3712,5641,5228,5229
3713,5229,5643,5641
3714,4919,4820,5232
3715,5232,5231,4919
3716,4918,5229,5228
3717,5228,4818,4918
3718,4818,5228,5226
3719,5226,4815,4818
3720,5638,5226,5228
3721,5228,5641,5638
3722,4608,4340,4337
3723,4337,4711,4608
3724,4337,4707,4711
3725,6265,6465,6466
3726,6466,6266,6265
3727,6464,6060,6061
3728,6061,6465,6464
3729,6267,5863,5862
3730,5862,6266,6267
3731,6064,6063,5661
3732,5661,5662,6064
3733,5862,5861,6265
3734,6265,6266,5862
3735,6061,6060,5658
3736,5658,5659,6061
3737,5858,5857,6261
3738,6261,6262,5858
3739,6462,6463,6263
3740,6263,6262,6462
3741,6059,6060,6464
3742,6464,6463,6059
3743,6263,5859,5858
3744,5858,6262,6263
3745,6060,6059,5657
3746,5657,5658,6060
3747,5234,5648,5647
3748,5647,5233,5234
3749,5234,5235,5649
3750,5649,5648,5234
3751,5238,5239,5653
3752,5653,5652,5238
3753,5238,5652,5651
3754,5651,5237,5238
3755,5850,5849,6253
3756,6253,6254,5850
3757,6254,6454,6455
3758,6455,6255,6254
3759,6456,6455,6051
3760,6051,6052,6456
3761,6254,6255,5851
3762,5851,5850,6254
3763,6051,5649,5650
3764,5650,6052,6051
3765,6259,5855,5854
3766,5854,6258,6259
3767,6257,6457,6458
3768,6458,6258,6257
3769,6053,6457,6456
3770,6456,6052,6053
3771,5854,5853,6257
3772,6257,6258,5854
3773,6053,6052,5650
3774,5650,5651,6053
3775,6297,6497,6498
3776,6498,6298,6297
3777,6496,6092,6093
3778,6093,6497,6496
3779,6299,5895,5894
3780,5894,6298,6299
3781,5894,5893,6297
3782,6297,6298,5894
3783,6294,5890,5889
3784,5889,6293,6294
3785,6089,6088,5686
3786,5686,5687,6089
3787,6494,6495,6295
3788,6295,6294,6494
3789,6091,6092,6496
3790,6496,6495,6091
3791,5890,6294,6295
3792,6295,5891,5890
3793,6092,6091,5689
3794,5689,5690,6092
3795,5266,5680,5679
3796,5679,5265,5266
3797,5266,5267,5681
3798,5681,5680,5266
3799,5270,5271,5685
3800,5685,5684,5270
3801,5270,5684,5683
3802,5683,5269,5270
3803,5882,5881,6285
3804,6285,6286,5882
3805,6081,6080,5678
3806,5678,5679,6081
3807,6486,6487,6287
3808,6287,6286,6486
3809,6488,6487,6083
3810,6083,6084,6488
3811,5882,6286,6287
3812,6287,5883,5882
3813,6291,5887,5886
3814,5886,6290,6291
3815,6087,5685,5686
3816,5686,6088,6087
3817,6490,6290,6289
3818,6289,6489,6490
3819,6085,6489,6488
3820,6488,6084,6085
3821,5886,5885,6289
3822,6289,6290,5886
3823,6085,6084,5682
3824,5682,5683,6085
3825,6329,6529,6530
3826,6530,6330,6329
3827,6528,6124,6125
3828,6125,6529,6528
3829,6331,5927,5926
3830,5926,6330,6331
3831,6128,6127,5725
3832,5725,5726,6128
3833,6329,6330,5926
3834,5926,5925,6329
3835,5922,5921,6325
3836,6325,6326,5922
3837,6526,6527,6327
3838,6327,6326,6526
3839,6123,6124,6528
3840,6528,6527,6123
3841,5923,5922,6326
3842,6326,6327,5923
3843,5298,5712,5711
3844,5711,5297,5298
3845,5298,5299,5713
3846,5713,5712,5298
3847,5302,5303,5717
3848,5717,5716,5302
3849,5302,5716,5715
3850,5715,5301,5302
3851,5914,5913,6317
3852,6317,6318,5914
3853,6518,6519,6319
3854,6319,6318,6518
3855,6520,6519,6115
3856,6115,6116,6520
3857,5914,6318,6319
3858,6319,5915,5914
3859,6323,5919,5918
3860,5918,6322,6323
3861,6119,5717,5718
3862,5718,6120,6119
3863,6322,6321,6521
3864,6521,6522,6322
3865,6117,6521,6520
3866,6520,6116,6117
3867,5918,5917,6321
3868,6321,6322,5918
3869,6361,6561,6562
3870,6562,6362,6361
3871,6560,6156,6157
3872,6157,6561,6560
3873,6363,5959,5958
3874,5958,6362,6363
3875,5958,5957,6361
3876,6361,6362,5958
3877,5953,6357,6358
3878,6358,5954,5953
3879,6153,6152,5750
3880,5750,5751,6153
3881,6558,6559,6359
3882,6359,6358,6558
3883,6155,6156,6560
3884,6560,6559,6155
3885,6359,5955,5954
3886,5954,6358,6359
3887,5330,5744,5743
3888,5743,5329,5330
3889,5331,5745,5744
3890,5744,5330,5331
3891,5335,5749,5748
3892,5748,5334,5335
3893,5747,5333,5334
3894,5334,5748,5747
3895,5946,5945,6349
3896,6349,6350,5946
3897,6351,6350,6550
3898,6550,6551,6351
3899,6552,6551,6147
3900,6147,6148,6552
3901,5946,6350,6351
3902,6351,5947,5946
3903,6355,5951,5950
3904,5950,6354,6355
3905,6353,6553,6554
3906,6554,6354,6353
3907,6553,6552,6148
3908,6148,6149,6553
3909,5950,5949,6353
3910,6353,6354,5950
3911,6394,6393,6593
3912,6593,6594,6394
3913,6592,6188,6189
3914,6189,6593,6592
3915,6395,5991,5990
3916,5990,6394,6395
3917,6192,6191,5789
3918,5789,5790,6192
3919,5990,5989,6393
3920,6393,6394,5990
3921,6189,6188,5786
3922,5786,5787,6189
3923,6390,5986,5985
3924,5985,6389,6390
3925,6590,6591,6391
3926,6391,6390,6590
3927,6187,6188,6592
3928,6592,6591,6187
3929,5986,6390,6391
3930,6391,5987,5986
3931,6188,6187,5785
3932,5785,5786,6188
3933,5362,5776,5775
3934,5775,5361,5362
3935,5776,5362,5363
3936,5363,5777,5776
3937,5780,5366,5367
3938,5367,5781,5780
3939,5366,5780,5779
3940,5779,5365,5366
3941,5978,5977,6381
3942,6381,6382,5978
3943,6582,6583,6383
3944,6383,6382,6582
3945,6584,6583,6179
3946,6179,6180,6584
3947,5978,6382,6383
3948,6383,5979,5978
3949,6179,5777,5778
3950,5778,6180,6179
3951,6387,5983,5982
3952,5982,6386,6387
3953,6385,6585,6586
3954,6586,6386,6385
3955,6181,6585,6584
3956,6584,6180,6181
3957,5982,5981,6385
3958,6385,6386,5982
3959,6181,6180,5778
3960,5778,5779,6181
3961,6425,6625,6626
3962,6626,6426,6425
3963,6624,6220,6221
3964,6221,6625,6624
3965,6426,6427,6023
3966,6023,6022,6426
3967,6022,6021,6425
3968,6425,6426,6022
3969,6018,6017,6421
3970,6421,6422,6018
3971,6217,6216,5814
3972,5814,5815,6217
3973,6622,6623,6423
3974,6423,6422,6622
3975,6219,6220,6624
3976,6624,6623,6219
3977,6423,6019,6018
3978,6018,6422,6423
3979,6220,6219,5817
3980,5817,5818,6220
3981,5394,5808,5807
3982,5807,5393,5394
3983,5394,5395,5809
3984,5809,5808,5394
3985,5812,5398,5399
3986,5399,5813,5812
3987,5398,5812,5811
3988,5811,5397,5398
3989,6010,6009,6413
3990,6413,6414,6010
3991,6209,6208,5806
3992,5806,5807,6209
3993,6614,6615,6415
3994,6415,6414,6614
3995,6616,6615,6211
3996,6211,6212,6616
3997,6414,6415,6011
3998,6011,6010,6414
3999,6419,6015,6014
4000,6014,6418,6419
4001,6215,5813,5814
4002,5814,6216,6215
4003,6418,6417,6617
4004,6617,6618,6418
4005,6213,6617,6616
4006,6616,6212,6213
4007,6014,6013,6417
4008,6417,6418,6014
4009,6213,6212,5810
4010,5810,5811,6213
4011,5866,5865,6269
4012,6269,6270,5866
4013,6270,6470,6471
4014,6471,6271,6270
4015,6472,6471,6067
4016,6067,6068,6472
4017,6270,6271,5867
4018,5867,5866,6270
4019,6275,5871,5870
4020,5870,6274,6275
4021,6072,6071,5669
4022,5669,5670,6072
4023,6474,6274,6273
4024,6273,6473,6474
4025,6069,6473,6472
4026,6472,6068,6069
4027,5870,5869,6273
4028,6273,6274,5870
4029,6069,6068,5666
4030,5666,5667,6069
4031,5262,5263,5677
4032,5677,5676,5262
4033,5262,5676,5675
4034,5675,5261,5262
4035,5258,5672,5671
4036,5671,5257,5258
4037,5258,5259,5673
4038,5673,5672,5258
4039,6282,6283,5879
4040,5879,5878,6282
4041,6482,6282,6281
4042,6281,6481,6482
4043,6480,6076,6077
4044,6077,6481,6480
4045,5878,5877,6281
4046,6281,6282,5878
4047,6077,6076,5674
4048,5674,5675,6077
4049,5874,5873,6277
4050,6277,6278,5874
4051,6478,6479,6279
4052,6279,6278,6478
4053,6075,6076,6480
4054,6480,6479,6075
4055,5874,6278,6279
4056,6279,5875,5874
4057,6075,5673,5674
4058,5674,6076,6075
4059,5898,5897,6301
4060,6301,6302,5898
4061,6097,6096,5694
4062,5694,5695,6097
4063,6302,6502,6503
4064,6503,6303,6302
4065,6504,6503,6099
4066,6099,6100,6504
4067,6303,5899,5898
4068,5898,6302,6303
4069,5902,6306,6307
4070,6307,5903,5902
4071,6306,6305,6505
4072,6505,6506,6306
4073,6101,6505,6504
4074,6504,6100,6101
4075,6306,5902,5901
4076,5901,6305,6306
4077,5294,5295,5709
4078,5709,5708,5294
4079,5294,5708,5707
4080,5707,5293,5294
4081,5290,5704,5703
4082,5703,5289,5290
4083,5290,5291,5705
4084,5705,5704,5290
4085,6315,5911,5910
4086,5910,6314,6315
4087,6111,5709,5710
4088,5710,6112,6111
4089,6313,6513,6514
4090,6514,6314,6313
4091,6512,6108,6109
4092,6109,6513,6512
4093,5910,5909,6313
4094,6313,6314,5910
4095,5906,5905,6309
4096,6309,6310,5906
4097,6105,6104,5702
4098,5702,5703,6105
4099,6510,6511,6311
4100,6311,6310,6510
4101,6107,6108,6512
4102,6512,6511,6107
4103,6310,6311,5907
4104,5907,5906,6310
4105,6107,5705,5706
4106,5706,6108,6107
4107,5930,5929,6333
4108,6333,6334,5930
4109,6534,6535,6335
4110,6335,6334,6534
4111,6535,6131,6132
4112,6132,6536,6535
4113,6335,5931,5930
4114,5930,6334,6335
4115,6132,6131,5729
4116,5729,5730,6132
4117,6339,5935,5934
4118,5934,6338,6339
4119,6337,6537,6538
4120,6538,6338,6337
4121,6537,6536,6132
4122,6132,6133,6537
4123,5934,5933,6337
4124,6337,6338,5934
4125,5731,6133,6132
4126,6132,5730,5731
4127,5326,5327,5741
4128,5741,5740,5326
4129,5326,5740,5739
4130,5739,5325,5326
4131,5322,5736,5735
4132,5735,5321,5322
4133,5323,5737,5736
4134,5736,5322,5323
4135,6347,5943,5942
4136,5942,6346,6347
4137,6545,6546,6346
4138,6346,6345,6545
4139,6141,6545,6544
4140,6544,6140,6141
4141,5941,6345,6346
4142,6346,5942,5941
4143,6341,6342,5938
4144,5938,5937,6341
4145,6343,6342,6542
4146,6542,6543,6343
4147,6543,6139,6140
4148,6140,6544,6543
4149,5938,6342,6343
4150,6343,5939,5938
4151,5962,5961,6365
4152,6365,6366,5962
4153,6367,6366,6566
4154,6566,6567,6367
4155,6568,6567,6163
4156,6163,6164,6568
4157,6367,5963,5962
4158,5962,6366,6367
4159,6371,5967,5966
4160,5966,6370,6371
4161,6168,6167,5765
4162,5765,5766,6168
4163,6569,6570,6370
4164,6370,6369,6569
4165,6165,6569,6568
4166,6568,6164,6165
4167,5966,5965,6369
4168,6369,6370,5966
4169,5772,5358,5359
4170,5359,5773,5772
4171,5358,5772,5771
4172,5771,5357,5358
4173,5353,5354,5768
4174,5768,5767,5353
4175,5354,5355,5769
4176,5769,5768,5354
4177,6379,5975,5974
4178,5974,6378,6379
4179,6378,6377,6577
4180,6577,6578,6378
4181,6576,6172,6173
4182,6173,6577,6576
4183,5974,5973,6377
4184,6377,6378,5974
4185,5970,5969,6373
4186,6373,6374,5970
4187,5767,6169,6168
4188,6168,5766,5767
4189,6574,6575,6375
4190,6375,6374,6574
4191,6171,6172,6576
4192,6576,6575,6171
4193,5970,6374,6375
4194,6375,5971,5970
4195,5994,5993,6397
4196,6397,6398,5994
4197,6598,6599,6399
4198,6399,6398,6598
4199,6600,6599,6195
4200,6195,6196,6600
4201,6398,6399,5995
4202,5995,5994,6398
4203,6402,6403,5999
4204,5999,5998,6402
4205,6200,6199,5797
4206,5797,5798,6200
4207,6401,6601,6602
4208,6602,6402,6401
4209,6197,6601,6600
4210,6600,6196,6197
4211,5998,5997,6401
4212,6401,6402,5998
4213,6197,6196,5794
4214,5794,5795,6197
4215,5390,5391,5805
4216,5805,5804,5390
4217,5390,5804,5803
4218,5803,5389,5390
4219,5386,5800,5799
4220,5799,5385,5386
4221,5386,5387,5801
4222,5801,5800,5386
4223,6411,6007,6006
4224,6006,6410,6411
4225,6410,6409,6609
4226,6609,6610,6410
4227,6608,6204,6205
4228,6205,6609,6608
4229,6006,6005,6409
4230,6409,6410,6006
4231,6205,6204,5802
4232,5802,5803,6205
4233,6002,6001,6405
4234,6405,6406,6002
4235,6606,6607,6407
4236,6407,6406,6606
4237,6203,6204,6608
4238,6608,6607,6203
4239,6002,6406,6407
4240,6407,6003,6002
4241,6203,5801,5802
4242,5802,6204,6203
4243,6430,6026,6025
4244,6025,6429,6430
4245,6225,6224,5822
4246,5822,5823,6225
4247,6630,6631,6431
4248,6431,6430,6630
4249,6632,6631,6227
4250,6227,6228,6632
4251,6026,6430,6431
4252,6431,6027,6026
4253,6435,6031,6030
4254,6030,6434,6435
4255,6433,6633,6634
4256,6634,6434,6433
4257,6229,6633,6632
4258,6632,6228,6229
4259,6030,6029,6433
4260,6433,6434,6030
4261,5836,5422,5423
4262,5423,5837,5836
4263,5422,5836,5835
4264,5835,5421,5422
4265,5418,5832,5831
4266,5831,5417,5418
4267,5418,5419,5833
4268,5833,5832,5418
4269,6443,6039,6038
4270,6038,6442,6443
4271,6239,5837,5838
4272,5838,6240,6239
4273,6441,6641,6642
4274,6642,6442,6441
4275,6640,6236,6237
4276,6237,6641,6640
4277,6038,6037,6441
4278,6441,6442,6038
4279,6438,6034,6033
4280,6033,6437,6438
4281,6233,6232,5830
4282,5830,5831,6233
4283,6638,6639,6439
4284,6439,6438,6638
4285,6235,6236,6640
4286,6640,6639,6235
4287,6034,6438,6439
4288,6439,6035,6034
4289,6235,5833,5834
4290,5834,6236,6235
4291,6241,6645,6644
4292,6644,6240,6241
4293,6445,6645,6646
4294,6646,6446,6445
4295,6047,6048,6452
4296,6452,6451,6047
4297,6250,6450,6451
4298,6451,6251,6250
4299,5426,5840,5839
4300,5839,5425,5426
4301,5426,5427,5841
4302,5841,5840,5426
4303,5636,5639,5227
4304,5227,5432,5636
4305,6042,6041,6445
4306,6445,6446,6042
4307,6646,6647,6447
4308,6447,6446,6646
4309,6647,6243,6245
4310,6245,6649,6647
4311,6042,6446,6447
4312,6447,6043,6042
4313,5841,5642,6245
4314,6245,6243,5841
4315,6649,6245,6248
4316,6248,6651,6649
4317,5230,5231,5645
4318,5645,5644,5230
4319,5644,5643,5229
4320,5229,5230,5644
4321,5635,5431,5226
4322,5226,5638,5635
4323,6048,6047,5645
4324,5645,5646,6048
4325,6251,5847,5846
4326,5846,6250,6251
4327,6450,6250,6249
4328,6249,6449,6450
4329,6449,6648,6244
4330,6244,6045,6449
4331,5846,5845,6249
4332,6249,6250,5846
4333,6448,6244,6648
4334,6648,6650,6448
4335,4717,5130,5028
4336,5028,4614,4717
4337,4718,4614,5028
4338,5028,5131,4718
4339,4720,4616,5030
4340,5030,5133,4720
4341,4719,5132,5030
4342,5030,4616,4719
4343,4923,5239,5238
4344,5238,4823,4923
4345,4922,4823,5238
4346,5238,5237,4922
4347,4505,4402,4821
4348,4821,4920,4505
4349,4920,4821,5234
4350,5234,5233,4920
4351,4921,5235,5234
4352,5234,4821,4921
4353,4716,4612,5026
4354,5026,5129,4716
4355,4715,5128,5026
4356,5026,4612,4715
4357,4713,5126,5024
4358,5024,4610,4713
4359,4714,4610,5024
4360,5024,5127,4714
4361,4510,4925,4825
4362,4825,4406,4510
4363,4512,4927,4827
4364,4827,4408,4512
4365,4733,5146,5044
4366,5044,4630,4733
4367,4734,4630,5044
4368,5044,5147,4734
4369,4736,4632,5046
4370,5046,5149,4736
4371,4735,5148,5046
4372,5046,4632,4735
4373,4524,4939,4839
4374,4839,4420,4524
4375,4939,5271,5270
4376,5270,4839,4939
4377,4523,4420,4839
4378,4839,4938,4523
4379,4938,4839,5270
4380,5270,5269,4938
4381,4936,4837,5266
4382,5266,5265,4936
4383,4522,4937,4837
4384,4837,4418,4522
4385,4937,5267,5266
4386,5266,4837,4937
4387,4732,4628,5042
4388,5042,5145,4732
4389,4731,5144,5042
4390,5042,4628,4731
4391,4729,5142,5040
4392,5040,4626,4729
4393,4730,4626,5040
4394,5040,5143,4730
4395,4525,4422,4841
4396,4841,4940,4525
4397,4940,4841,5274
4398,5274,5273,4940
4399,4749,5162,5060
4400,5060,4646,4749
4401,4750,4646,5060
4402,5060,5163,4750
4403,4752,4648,5062
4404,5062,5165,4752
4405,4751,5164,5062
4406,5062,4648,4751
4407,4955,5303,5302
4408,5302,4855,4955
4409,4954,4855,5302
4410,5302,5301,4954
4411,4537,4434,4853
4412,4853,4952,4537
4413,4952,4853,5298
4414,5298,5297,4952
4415,4953,5299,5298
4416,5298,4853,4953
4417,4748,4644,5058
4418,5058,5161,4748
4419,4747,5160,5058
4420,5058,4644,4747
4421,4745,5158,5056
4422,5056,4642,4745
4423,4746,4642,5056
4424,5056,5159,4746
4425,4544,4959,4859
4426,4859,4440,4544
4427,4543,4440,4859
4428,4859,4958,4543
4429,4765,5178,5076
4430,5076,4662,4765
4431,4766,4662,5076
4432,5076,5179,4766
4433,4768,4664,5078
4434,5078,5181,4768
4435,4767,5180,5078
4436,5078,4664,4767
4437,4556,4971,4871
4438,4871,4452,4556
4439,4971,5335,5334
4440,5334,4871,4971
4441,4970,4871,5334
4442,5334,5333,4970
4443,4968,4869,5330
4444,5330,5329,4968
4445,4554,4969,4869
4446,4869,4450,4554
4447,4969,5331,5330
4448,5330,4869,4969
4449,4764,4660,5074
4450,5074,5177,4764
4451,4763,5176,5074
4452,5074,4660,4763
4453,4761,5174,5072
4454,5072,4658,4761
4455,4762,4658,5072
4456,5072,5175,4762
4457,4557,4454,4873
4458,4873,4972,4557
4459,4972,4873,5338
4460,5338,5337,4972
4461,4558,4973,4873
4462,4873,4454,4558
4463,4781,5194,5092
4464,5092,4678,4781
4465,4782,4678,5092
4466,5092,5195,4782
4467,4784,4680,5094
4468,5094,5197,4784
4469,4783,5196,5094
4470,5094,4680,4783
4471,4987,5367,5366
4472,5366,4887,4987
4473,4986,4887,5366
4474,5366,5365,4986
4475,4569,4466,4885
4476,4885,4984,4569
4477,4984,4885,5362
4478,5362,5361,4984
4479,4985,5363,5362
4480,5362,4885,4985
4481,4780,4676,5090
4482,5090,5193,4780
4483,4779,5192,5090
4484,5090,4676,4779
4485,4777,5190,5088
4486,5088,4674,4777
4487,4778,4674,5088
4488,5088,5191,4778
4489,4574,4989,4889
4490,4889,4470,4574
4491,4576,4991,4891
4492,4891,4472,4576
4493,4797,5210,5108
4494,5108,4694,4797
4495,4798,4694,5108
4496,5108,5211,4798
4497,4800,4696,5110
4498,5110,5213,4800
4499,4799,5212,5110
4500,5110,4696,4799
4501,4588,5003,4903
4502,4903,4484,4588
4503,5003,5399,5398
4504,5398,4903,5003
4505,4587,4484,4903
4506,4903,5002,4587
4507,5002,4903,5398
4508,5398,5397,5002
4509,5000,4901,5394
4510,5394,5393,5000
4511,4586,5001,4901
4512,4901,4482,4586
4513,5001,5395,5394
4514,5394,4901,5001
4515,4796,4692,5106
4516,5106,5209,4796
4517,4795,5208,5106
4518,5106,4692,4795
4519,4793,5206,5104
4520,5104,4690,4793
4521,4794,4690,5104
4522,5104,5207,4794
4523,4589,4486,4905
4524,4905,5004,4589
4525,5004,4905,5402
4526,5402,5401,5004
4527,4724,4620,5034
4528,5034,5137,4724
4529,4723,5136,5034
4530,5034,4620,4723
4531,4721,5134,5032
4532,5032,4618,4721
4533,4722,4618,5032
4534,5032,5135,4722
4535,4932,4833,5258
4536,5258,5257,4932
4537,4933,5259,5258
4538,5258,4833,4933
4539,4935,5263,5262
4540,5262,4835,4935
4541,4934,4835,5262
4542,5262,5261,4934
4543,4516,4931,4831
4544,4831,4412,4516
4545,4931,5255,5254
4546,5254,4831,4931
4547,4515,4412,4831
4548,4831,4930,4515
4549,4930,4831,5254
4550,5254,5253,4930
4551,4513,4410,4829
4552,4829,4928,4513
4553,4514,4929,4829
4554,4829,4410,4514
4555,4725,5138,5036
4556,5036,4622,4725
4557,4726,4622,5036
4558,5036,5139,4726
4559,4728,4624,5038
4560,5038,5141,4728
4561,4727,5140,5038
4562,5038,4624,4727
4563,4740,4636,5050
4564,5050,5153,4740
4565,4739,5152,5050
4566,5050,4636,4739
4567,4737,5150,5048
4568,5048,4634,4737
4569,4738,4634,5048
4570,5048,5151,4738
4571,4948,4849,5290
4572,5290,5289,4948
4573,4534,4949,4849
4574,4849,4430,4534
4575,4949,5291,5290
4576,5290,4849,4949
4577,4951,5295,5294
4578,5294,4851,4951
4579,4535,4432,4851
4580,4851,4950,4535
4581,4950,4851,5294
4582,5294,5293,4950
4583,4532,4947,4847
4584,4847,4428,4532
4585,4947,5287,5286
4586,5286,4847,4947
4587,4529,4426,4845
4588,4845,4944,4529
4589,4944,4845,5282
4590,5282,5281,4944
4591,4945,5283,5282
4592,5282,4845,4945
4593,4741,5154,5052
4594,5052,4638,4741
4595,4742,4638,5052
4596,5052,5155,4742
4597,4744,4640,5054
4598,5054,5157,4744
4599,4743,5156,5054
4600,5054,4640,4743
4601,4756,4652,5066
4602,5066,5169,4756
4603,4755,5168,5066
4604,5066,4652,4755
4605,4753,5166,5064
4606,5064,4650,4753
4607,4754,4650,5064
4608,5064,5167,4754
4609,4964,4865,5322
4610,5322,5321,4964
4611,4965,5323,5322
4612,5322,4865,4965
4613,4967,5327,5326
4614,5326,4867,4967
4615,4966,4867,5326
4616,5326,5325,4966
4617,4548,4963,4863
4618,4863,4444,4548
4619,4963,5319,5318
4620,5318,4863,4963
4621,4962,4863,5318
4622,5318,5317,4962
4623,4545,4442,4861
4624,4861,4960,4545
4625,4757,5170,5068
4626,5068,4654,4757
4627,4758,4654,5068
4628,5068,5171,4758
4629,4760,4656,5070
4630,5070,5173,4760
4631,4759,5172,5070
4632,5070,4656,4759
4633,4772,4668,5082
4634,5082,5185,4772
4635,4771,5184,5082
4636,5082,4668,4771
4637,4769,5182,5080
4638,5080,4666,4769
4639,4770,4666,5080
4640,5080,5183,4770
4641,4980,4881,5354
4642,5354,5353,4980
4643,4981,5355,5354
4644,5354,4881,4981
4645,4983,5359,5358
4646,5358,4883,4983
4647,4567,4464,4883
4648,4883,4982,4567
4649,4982,4883,5358
4650,5358,5357,4982
4651,4564,4979,4879
4652,4879,4460,4564
4653,4979,5351,5350
4654,5350,4879,4979
4655,4561,4458,4877
4656,4877,4976,4561
4657,4976,4877,5346
4658,5346,5345,4976
4659,4562,4977,4877
4660,4877,4458,4562
4661,4977,5347,5346
4662,5346,4877,4977
4663,4773,5186,5084
4664,5084,4670,4773
4665,4774,4670,5084
4666,5084,5187,4774
4667,4776,4672,5086
4668,5086,5189,4776
4669,4775,5188,5086
4670,5086,4672,4775
4671,4788,4684,5098
4672,5098,5201,4788
4673,4787,5200,5098
4674,5098,4684,4787
4675,4785,5198,5096
4676,5096,4682,4785
4677,4786,4682,5096
4678,5096,5199,4786
4679,4996,4897,5386
4680,5386,5385,4996
4681,4997,5387,5386
4682,5386,4897,4997
4683,4999,5391,5390
4684,5390,4899,4999
4685,4998,4899,5390
4686,5390,5389,4998
4687,4580,4995,4895
4688,4895,4476,4580
4689,4995,5383,5382
4690,5382,4895,4995
4691,4579,4476,4895
4692,4895,4994,4579
4693,4994,4895,5382
4694,5382,5381,4994
4695,4577,4474,4893
4696,4893,4992,4577
4697,4578,4993,4893
4698,4893,4474,4578
4699,4789,5202,5100
4700,5100,4686,4789
4701,4790,4686,5100
4702,5100,5203,4790
4703,4792,4688,5102
4704,5102,5205,4792
4705,4791,5204,5102
4706,5102,4688,4791
4707,4804,4700,5114
4708,5114,5217,4804
4709,4803,5216,5114
4710,5114,4700,4803
4711,4801,5214,5112
4712,5112,4698,4801
4713,4802,4698,5112
4714,5112,5215,4802
4715,5012,4913,5418
4716,5418,5417,5012
4717,4598,5013,4913
4718,4913,4494,4598
4719,5013,5419,5418
4720,5418,4913,5013
4721,5015,5423,5422
4722,5422,4915,5015
4723,4599,4496,4915
4724,4915,5014,4599
4725,5014,4915,5422
4726,5422,5421,5014
4727,4596,5011,4911
4728,4911,4492,4596
4729,5011,5415,5414
4730,5414,4911,5011
4731,4593,4490,4909
4732,4909,5008,4593
4733,5008,4909,5410
4734,5410,5409,5008
4735,5009,5411,5410
4736,5410,4909,5009
4737,4805,5218,5116
4738,5116,4702,4805
4739,4806,4702,5116
4740,5116,5219,4806
4741,4808,4704,5118
4742,5118,5221,4808
4743,4807,5220,5118
4744,5118,4704,4807
4745,4502,4497,4917
4746,4917,5016,4502
4747,5016,4917,5426
4748,5426,5425,5016
4749,4601,5017,4917
4750,4917,4497,4601
4751,5017,5427,5426
4752,5426,4917,5017
4753,5018,5432,5227
4754,5018,5227,4816
4755,4816,4813,5018
4756,4809,5222,5120
4757,5120,4706,4809
4758,4810,4706,5120
4759,5120,5223,4810
4760,4812,5123,5019
4761,5019,4709,4812
4762,4919,5231,5230
4763,5230,4819,4919
4764,4918,4819,5230
4765,5230,5229,4918
4766,4606,4500,4602
4767,4606,4602,4815
4768,4815,4814,4606
4769,5224,4814,4815
4770,5224,4815,5226
4771,5226,5431,5224
4772,4712,4608,5022
4773,5022,5125,4712
4774,4711,5124,5022
4775,5022,4608,4711
4776,4811,4710,5020
4777,5020,5122,4811
4778,1477,1473,1683
4779,1683,1682,1477
4780,1689,1485,1486
4781,1486,1690,1689
4782,1683,1889,1888
4783,1888,1682,1683
4784,1896,1895,1689
4785,1689,1690,1896
4786,1697,1493,1494
4787,1494,1698,1697
4788,1486,1487,1691
4789,1691,1690,1486
4790,1904,1903,1697
4791,1697,1698,1904
4792,1691,1897,1896
4793,1896,1690,1691
4794,1494,1495,1699
4795,1699,1698,1494
4796,1501,1502,1706
4797,1706,1705,1501
4798,1699,1905,1904
4799,1904,1698,1699
4800,1912,1911,1705
4801,1705,1706,1912
4802,1713,1509,1510
4803,1510,1714,1713
4804,1502,1503,1707
4805,1707,1706,1502
4806,1713,1714,1920
4807,1920,1919,1713
4808,1707,1913,1912
4809,1912,1706,1707
4810,1715,1714,1510
4811,1510,1511,1715
4812,1721,1517,1518
4813,1518,1722,1721
4814,1715,1921,1920
4815,1920,1714,1715
4816,1928,1927,1721
4817,1721,1722,1928
4818,1730,1729,1525
4819,1525,1526,1730
4820,1518,1519,1723
4821,1723,1722,1518
4822,1936,1935,1729
4823,1729,1730,1936
4824,1723,1929,1928
4825,1928,1722,1723
4826,1526,1527,1731
4827,1731,1730,1526
4828,1737,1533,1534
4829,1534,1738,1737
4830,1730,1731,1937
4831,1937,1936,1730
4832,1944,1943,1737
4833,1737,1738,1944
4834,1541,1542,1746
4835,1746,1745,1541
4836,1534,1535,1739
4837,1739,1738,1534
4838,1951,1745,1746
4839,1746,1952,1951
4840,1739,1945,1944
4841,1944,1738,1739
4842,1542,1543,1747
4843,1747,1746,1542
4844,1549,1550,1754
4845,1754,1753,1549
4846,1747,1953,1952
4847,1952,1746,1747
4848,1959,1753,1754
4849,1754,1960,1959
4850,1761,1557,1558
4851,1558,1762,1761
4852,1551,1755,1754
4853,1754,1550,1551
4854,1968,1967,1761
4855,1761,1762,1968
4856,1755,1961,1960
4857,1960,1754,1755
4858,1558,1559,1763
4859,1763,1762,1558
4860,1769,1565,1566
4861,1566,1770,1769
4862,1763,1969,1968
4863,1968,1762,1763
4864,1975,1769,1770
4865,1770,1976,1975
4866,1478,1778,1777
4867,1777,1474,1478
4868,1771,1770,1566
4869,1566,1567,1771
4870,1984,1983,1777
4871,1777,1778,1984
4872,1771,1977,1976
4873,1976,1770,1771
4874,731,732,522
4875,522,521,731
4876,944,732,731
4877,731,943,944
4878,735,734,946
4879,946,947,735
4880,960,748,747
4881,747,959,960
4882,751,750,962
4883,962,963,751
4884,554,553,763
4885,763,764,554
4886,976,764,763
4887,763,975,976
4888,767,766,978
4889,978,979,767
4890,779,991,992
4891,992,780,779
4892,783,782,994
4893,994,995,783
4894,795,796,586
4895,586,585,795
4896,1008,796,795
4897,795,1007,1008
4898,799,798,1010
4899,1010,1011,799
4900,1024,812,811
4901,811,1023,1024
4902,814,1026,1027
4903,1027,815,814
4904,2733,3046,3045
4905,3045,2732,2733
4906,3464,3465,3254
4907,3254,3253,3464
4908,3022,3253,3254
4909,3254,3024,3022
4910,3468,3257,3256
4911,3256,3467,3468
4912,3029,3256,3257
4913,3257,3031,3029
4914,3048,2735,2736
4915,2736,3049,3048
4916,747,746,958
4917,958,959,747
4918,744,743,955
4919,955,956,744
4920,743,744,534
4921,534,533,743
4922,2747,2748,3061
4923,3061,3060,2747
4924,3480,3269,3268
4925,3268,3479,3480
4926,3268,3269,2946
4927,2946,2945,3268
4928,3476,3477,3266
4929,3266,3265,3476
4930,3062,3061,2748
4931,2748,2749,3062
4932,3480,3481,3270
4933,3270,3269,3480
4934,3270,2947,2946
4935,2946,3269,3270
4936,3484,3273,3272
4937,3272,3483,3484
4938,2949,3272,3273
4939,3273,2950,2949
4940,2751,2752,3065
4941,3065,3064,2751
4942,763,762,974
4943,974,975,763
4944,972,760,759
4945,759,971,972
4946,2763,2764,3077
4947,3077,3076,2763
4948,3495,3496,3285
4949,3285,3284,3495
4950,2961,3284,3285
4951,3285,2962,2961
4952,3492,3493,3282
4953,3282,3281,3492
4954,2765,3078,3077
4955,3077,2764,2765
4956,3496,3497,3286
4957,3286,3285,3496
4958,3286,2963,2962
4959,2962,3285,3286
4960,3499,3500,3289
4961,3289,3288,3499
4962,2965,3288,3289
4963,3289,2966,2965
4964,3080,2767,2768
4965,2768,3081,3080
4966,991,779,778
4967,778,990,991
4968,988,776,775
4969,775,987,988
4970,775,776,566
4971,566,565,775
4972,3093,3092,2779
4973,2779,2780,3093
4974,3512,3301,3300
4975,3300,3511,3512
4976,3301,2978,2977
4977,2977,3300,3301
4978,3508,3509,3298
4979,3298,3297,3508
4980,2780,2781,3094
4981,3094,3093,2780
4982,3512,3513,3302
4983,3302,3301,3512
4984,2978,3301,3302
4985,3302,2979,2978
4986,3516,3305,3304
4987,3304,3515,3516
4988,3304,3305,2982
4989,2982,2981,3304
4990,2783,2784,3097
4991,3097,3096,2783
4992,795,794,1006
4993,1006,1007,795
4994,1004,792,791
4995,791,1003,1004
4996,791,792,582
4997,582,581,791
4998,2795,2796,3109
4999,3109,3108,2795
5000,3527,3528,3317
5001,3317,3316,3527
5002,3316,3317,2994
5003,2994,2993,3316
5004,3314,3313,3524
5005,3524,3525,3314
5006,2797,3110,3109
5007,3109,2796,2797
5008,3528,3529,3318
5009,3318,3317,3528
5010,3318,2995,2994
5011,2994,3317,3318
5012,3532,3321,3320
5013,3320,3531,3532
5014,3320,3321,2998
5015,2998,2997,3320
5016,2799,2800,3113
5017,3113,3112,2799
5018,811,810,1022
5019,1022,1023,811
5020,808,807,1019
5021,1019,1020,808
5022,808,598,597
5023,597,807,808
5024,3124,2811,2812
5025,2812,3125,3124
5026,3544,3333,3332
5027,3332,3543,3544
5028,3332,3333,3010
5029,3010,3009,3332
5030,3540,3541,3330
5031,3330,3329,3540
5032,2813,3126,3125
5033,3125,2812,2813
5034,3545,3334,3333
5035,3333,3544,3545
5036,3011,3010,3333
5037,3333,3334,3011
5038,3547,3548,3337
5039,3337,3336,3547
5040,3336,3337,3014
5041,3014,3013,3336
5042,2815,2816,3129
5043,3129,3128,2815
5044,1038,1039,827
5045,827,826,1038
5046,1036,824,823
5047,823,1035,1036
5048,2827,2828,3141
5049,3141,3140,2827
5050,3559,3560,3349
5051,3349,3348,3559
5052,3023,3025,3348
5053,3348,3349,3023
5054,3556,3557,3346
5055,3346,3345,3556
5056,1477,1682,1681
5057,1681,1475,1477
5058,1888,1887,1681
5059,1681,1682,1888
5060,1144,1145,944
5061,944,943,1144
5062,946,1147,1148
5063,1148,947,946
5064,738,950,951
5065,951,739,738
5066,948,736,735
5067,735,947,948
5068,1151,1152,951
5069,951,950,1151
5070,1148,1149,948
5071,948,947,1148
5072,1160,1161,960
5073,960,959,1160
5074,1163,1164,963
5075,963,962,1163
5076,754,966,967
5077,967,755,754
5078,752,751,963
5079,963,964,752
5080,1167,1168,967
5081,967,966,1167
5082,1164,1165,964
5083,964,963,1164
5084,1176,1177,976
5085,976,975,1176
5086,1179,1180,979
5087,979,978,1179
5088,771,770,982
5089,982,983,771
5090,980,768,767
5091,767,979,980
5092,982,1183,1184
5093,1184,983,982
5094,1180,1181,980
5095,980,979,1180
5096,1192,1193,992
5097,992,991,1192
5098,994,1195,1196
5099,1196,995,994
5100,787,786,998
5101,998,999,787
5102,996,784,783
5103,783,995,996
5104,998,1199,1200
5105,1200,999,998
5106,1196,1197,996
5107,996,995,1196
5108,1008,1007,1208
5109,1208,1209,1008
5110,1211,1212,1011
5111,1011,1010,1211
5112,802,1014,1015
5113,1015,803,802
5114,1012,800,799
5115,799,1011,1012
5116,1014,1215,1216
5117,1216,1015,1014
5118,1012,1011,1212
5119,1212,1213,1012
5120,1224,1225,1024
5121,1024,1023,1224
5122,1026,1227,1228
5123,1228,1027,1026
5124,819,818,1030
5125,1030,1031,819
5126,816,815,1027
5127,1027,1028,816
5128,1030,1231,1232
5129,1232,1031,1030
5130,1229,1028,1027
5131,1027,1228,1229
5132,1478,1476,1779
5133,1779,1778,1478
5134,1779,1985,1984
5135,1984,1778,1779
5136,1685,1481,1482
5137,1482,1686,1685
5138,1482,1483,1687
5139,1687,1686,1482
5140,1892,1891,1685
5141,1685,1686,1892
5142,1687,1893,1892
5143,1892,1686,1687
5144,1490,1491,1695
5145,1695,1694,1490
5146,1693,1489,1490
5147,1490,1694,1693
5148,1695,1901,1900
5149,1900,1694,1695
5150,1900,1899,1693
5151,1693,1694,1900
5152,2739,2740,3053
5153,3053,3052,2739
5154,3472,3261,3260
5155,3260,3471,3472
5156,3468,3469,3258
5157,3258,3257,3468
5158,3031,3257,3258
5159,3258,3033,3031
5160,2737,3050,3049
5161,3049,2736,2737
5162,739,740,530
5163,530,529,739
5164,952,740,739
5165,739,951,952
5166,954,955,743
5167,743,742,954
5168,958,1159,1160
5169,1160,959,958
5170,1157,956,955
5171,955,1156,1157
5172,1152,1153,952
5173,952,951,1152
5174,954,1155,1156
5175,1156,955,954
5176,3054,3053,2740
5177,2740,2741,3054
5178,3472,3473,3262
5179,3262,3261,3472
5180,3476,3265,3264
5181,3264,3475,3476
5182,1701,1497,1498
5183,1498,1702,1701
5184,1498,1499,1703
5185,1703,1702,1498
5186,1908,1907,1701
5187,1701,1702,1908
5188,1703,1909,1908
5189,1908,1702,1703
5190,1506,1507,1711
5191,1711,1710,1506
5192,1709,1505,1506
5193,1506,1710,1709
5194,1711,1917,1916
5195,1916,1710,1711
5196,1916,1915,1709
5197,1709,1710,1916
5198,3068,2755,2756
5199,2756,3069,3068
5200,3488,3277,3276
5201,3276,3487,3488
5202,3274,3273,3484
5203,3484,3485,3274
5204,968,756,755
5205,755,967,968
5206,758,970,971
5207,971,759,758
5208,758,759,549
5209,549,548,758
5210,974,1175,1176
5211,1176,975,974
5212,972,971,1172
5213,1172,1173,972
5214,1168,1169,968
5215,968,967,1168
5216,970,1171,1172
5217,1172,971,970
5218,2757,3070,3069
5219,3069,2756,2757
5220,3488,3489,3278
5221,3278,3277,3488
5222,3278,2955,2954
5223,2954,3277,3278
5224,3492,3281,3280
5225,3280,3491,3492
5226,1513,1514,1718
5227,1718,1717,1513
5228,1514,1515,1719
5229,1719,1718,1514
5230,1924,1923,1717
5231,1717,1718,1924
5232,1719,1925,1924
5233,1924,1718,1719
5234,1522,1523,1727
5235,1727,1726,1522
5236,1725,1521,1522
5237,1522,1726,1725
5238,1727,1933,1932
5239,1932,1726,1727
5240,1932,1931,1725
5241,1725,1726,1932
5242,2771,2772,3085
5243,3085,3084,2771
5244,3504,3293,3292
5245,3292,3503,3504
5246,3500,3501,3290
5247,3290,3289,3500
5248,3290,2967,2966
5249,2966,3289,3290
5250,2769,3082,3081
5251,3081,2768,2769
5252,771,772,562
5253,562,561,771
5254,984,772,771
5255,771,983,984
5256,775,774,986
5257,986,987,775
5258,991,990,1191
5259,1191,1192,991
5260,1188,1189,988
5261,988,987,1188
5262,1184,1185,984
5263,984,983,1184
5264,986,1187,1188
5265,1188,987,986
5266,2773,3086,3085
5267,3085,2772,2773
5268,3504,3505,3294
5269,3294,3293,3504
5270,3508,3297,3296
5271,3296,3507,3508
5272,1733,1529,1530
5273,1530,1734,1733
5274,1530,1531,1735
5275,1735,1734,1530
5276,1940,1939,1733
5277,1733,1734,1940
5278,1735,1941,1940
5279,1940,1734,1735
5280,1538,1539,1743
5281,1743,1742,1538
5282,1741,1537,1538
5283,1538,1742,1741
5284,1743,1949,1948
5285,1948,1742,1743
5286,1948,1947,1741
5287,1741,1742,1948
5288,2787,2788,3101
5289,3101,3100,2787
5290,3520,3309,3308
5291,3308,3519,3520
5292,3516,3517,3306
5293,3306,3305,3516
5294,1000,788,787
5295,787,999,1000
5296,791,790,1002
5297,1002,1003,791
5298,790,791,581
5299,581,580,790
5300,1006,1207,1208
5301,1208,1007,1006
5302,1204,1205,1004
5303,1004,1003,1204
5304,1200,1201,1000
5305,1000,999,1200
5306,1002,1203,1204
5307,1204,1003,1002
5308,2789,3102,3101
5309,3101,2788,2789
5310,3520,3521,3310
5311,3310,3309,3520
5312,3310,2987,2986
5313,2986,3309,3310
5314,3524,3313,3312
5315,3312,3523,3524
5316,1749,1545,1546
5317,1546,1750,1749
5318,1547,1751,1750
5319,1750,1546,1547
5320,1749,1750,1956
5321,1956,1955,1749
5322,1751,1957,1956
5323,1956,1750,1751
5324,1554,1555,1759
5325,1759,1758,1554
5326,1757,1553,1554
5327,1554,1758,1757
5328,1759,1965,1964
5329,1964,1758,1759
5330,1963,1757,1758
5331,1758,1964,1963
5332,2803,2804,3117
5333,3117,3116,2803
5334,3536,3325,3324
5335,3324,3535,3536
5336,3533,3322,3321
5337,3321,3532,3533
5338,3322,2999,2998
5339,2998,3321,3322
5340,3114,3113,2800
5341,2800,2801,3114
5342,803,804,594
5343,594,593,803
5344,1016,804,803
5345,803,1015,1016
5346,807,806,1018
5347,1018,1019,807
5348,1022,1223,1224
5349,1224,1023,1022
5350,1220,1221,1020
5351,1020,1019,1220
5352,1216,1217,1016
5353,1016,1015,1216
5354,1018,1219,1220
5355,1220,1019,1018
5356,2805,3118,3117
5357,3117,2804,2805
5358,3536,3537,3326
5359,3326,3325,3536
5360,3540,3329,3328
5361,3328,3539,3540
5362,1765,1561,1562
5363,1562,1766,1765
5364,1562,1563,1767
5365,1767,1766,1562
5366,1972,1971,1765
5367,1765,1766,1972
5368,1767,1973,1972
5369,1972,1766,1767
5370,1775,1774,1570
5371,1570,1571,1775
5372,1569,1570,1774
5373,1774,1773,1569
5374,1775,1981,1980
5375,1980,1774,1775
5376,1979,1773,1774
5377,1774,1980,1979
5378,3132,2819,2820
5379,2820,3133,3132
5380,3551,3552,3341
5381,3341,3340,3551
5382,3338,3337,3548
5383,3548,3549,3338
5384,1032,820,819
5385,819,1031,1032
5386,823,822,1034
5387,1034,1035,823
5388,822,823,613
5389,613,612,822
5390,1038,1239,1240
5391,1240,1039,1038
5392,1236,1237,1036
5393,1036,1035,1236
5394,1232,1233,1032
5395,1032,1031,1232
5396,1034,1235,1236
5397,1236,1035,1034
5398,2821,3134,3133
5399,3133,2820,2821
5400,3552,3553,3342
5401,3342,3341,3552
5402,3039,3041,3341
5403,3341,3342,3039
5404,3556,3345,3344
5405,3344,3555,3556
5406,3464,3673,3674
5407,3674,3465,3464
5408,3468,3467,3676
5409,3676,3677,3468
5410,4349,4351,3988
5411,3988,3987,4349
5412,4189,4089,4090
5413,4090,4190,4189
5414,4343,4344,3985
5415,3985,3984,4343
5416,4086,4087,4187
5417,4187,4186,4086
5418,3480,3689,3690
5419,3690,3481,3480
5420,3692,3693,3484
5421,3484,3483,3692
5422,4382,4384,4004
5423,4004,4003,4382
5424,4205,4105,4106
5425,4106,4206,4205
5426,4376,4378,4001
5427,4001,4000,4376
5428,4102,4103,4203
5429,4203,4202,4102
5430,3496,3705,3706
5431,3706,3497,3496
5432,3499,3708,3709
5433,3709,3500,3499
5434,4300,4020,4019
5435,4019,4299,4300
5436,4121,4122,4222
5437,4222,4221,4121
5438,4297,4017,4016
5439,4016,4296,4297
5440,4119,4219,4218
5441,4218,4118,4119
5442,3512,3721,3722
5443,3722,3513,3512
5444,3516,3515,3724
5445,3724,3725,3516
5446,4316,4036,4035
5447,4035,4315,4316
5448,4237,4137,4138
5449,4138,4238,4237
5450,4032,4312,4313
5451,4313,4033,4032
5452,4234,4134,4135
5453,4135,4235,4234
5454,3528,3737,3738
5455,3738,3529,3528
5456,3532,3531,3740
5457,3740,3741,3532
5458,4331,4332,4052
5459,4052,4051,4331
5460,4153,4154,4254
5461,4254,4253,4153
5462,4328,4329,4049
5463,4049,4048,4328
5464,4150,4151,4251
5465,4251,4250,4150
5466,3544,3753,3754
5467,3754,3545,3544
5468,3548,3547,3756
5469,3756,3757,3548
5470,4368,4068,4067
5471,4067,4370,4368
5472,4269,4169,4170
5473,4170,4270,4269
5474,4375,4065,4064
5475,4064,4377,4375
5476,4166,4167,4267
5477,4267,4266,4166
5478,827,828,618
5479,618,617,827
5480,828,827,1039
5481,1039,1040,828
5482,420,419,213
5483,213,214,420
5484,109,110,213
5485,213,212,109
5486,109,6,7
5487,7,110,109
5488,418,212,213
5489,213,419,418
5490,111,214,213
5491,213,110,111
5492,111,110,7
5493,7,8,111
5494,432,226,227
5495,227,433,432
5496,125,228,227
5497,227,124,125
5498,124,21,22
5499,22,125,124
5500,537,331,330
5501,330,536,537
5502,535,536,330
5503,330,329,535
5504,434,433,227
5505,227,228,434
5506,123,124,227
5507,227,226,123
5508,21,124,123
5509,123,20,21
5510,3380,3151,3152
5511,3152,3378,3380
5512,3046,3047,3152
5513,3152,3151,3046
5514,3164,3059,3060
5515,3060,3165,3164
5516,3164,3165,3392
5517,3392,3391,3164
5518,435,229,230
5519,230,436,435
5520,125,126,229
5521,229,228,125
5522,126,125,22
5523,22,23,126
5524,229,435,434
5525,434,228,229
5526,127,230,229
5527,229,126,127
5528,23,24,127
5529,127,126,23
5530,449,448,242
5531,242,243,449
5532,141,244,243
5533,243,140,141
5534,141,140,37
5535,37,38,141
5536,552,553,347
5537,347,346,552
5538,346,345,551
5539,551,552,346
5540,243,244,450
5541,450,449,243
5542,139,140,243
5543,243,242,139
5544,139,36,37
5545,37,140,139
5546,3168,3395,3394
5547,3394,3167,3168
5548,3062,3063,3168
5549,3168,3167,3062
5550,3180,3075,3076
5551,3076,3181,3180
5552,245,246,452
5553,452,451,245
5554,141,142,245
5555,245,244,141
5556,39,142,141
5557,141,38,39
5558,451,450,244
5559,244,245,451
5560,143,246,245
5561,245,142,143
5562,142,39,40
5563,40,143,142
5564,464,258,259
5565,259,465,464
5566,260,259,156
5567,156,157,260
5568,54,157,156
5569,156,53,54
5570,569,363,362
5571,362,568,569
5572,567,568,362
5573,362,361,567
5574,466,465,259
5575,259,260,466
5576,155,156,259
5577,259,258,155
5578,155,52,53
5579,53,156,155
5580,3078,3079,3184
5581,3184,3183,3078
5582,3196,3091,3092
5583,3092,3197,3196
5584,3196,3197,3424
5585,3424,3423,3196
5586,468,467,261
5587,261,262,468
5588,157,158,261
5589,261,260,157
5590,157,54,55
5591,55,158,157
5592,466,260,261
5593,261,467,466
5594,159,262,261
5595,261,158,159
5596,159,158,55
5597,55,56,159
5598,481,480,274
5599,274,275,481
5600,275,172,173
5601,173,276,275
5602,69,70,173
5603,173,172,69
5604,585,379,378
5605,378,584,585
5606,583,584,378
5607,378,377,583
5608,275,276,482
5609,482,481,275
5610,172,275,274
5611,274,171,172
5612,172,171,68
5613,68,69,172
5614,3200,3427,3426
5615,3426,3199,3200
5616,3094,3095,3200
5617,3200,3199,3094
5618,3212,3107,3108
5619,3108,3213,3212
5620,3213,3440,3439
5621,3439,3212,3213
5622,483,277,278
5623,278,484,483
5624,277,276,173
5625,173,174,277
5626,173,70,71
5627,71,174,173
5628,277,483,482
5629,482,276,277
5630,174,175,278
5631,278,277,174
5632,175,174,71
5633,71,72,175
5634,496,290,291
5635,291,497,496
5636,189,292,291
5637,291,188,189
5638,188,85,86
5639,86,189,188
5640,601,395,394
5641,394,600,601
5642,599,600,394
5643,394,393,599
5644,498,497,291
5645,291,292,498
5646,187,188,291
5647,291,290,187
5648,85,188,187
5649,187,84,85
5650,3216,3443,3442
5651,3442,3215,3216
5652,3110,3111,3216
5653,3216,3215,3110
5654,3229,3228,3123
5655,3123,3124,3229
5656,3229,3456,3455
5657,3455,3228,3229
5658,293,294,500
5659,500,499,293
5660,189,190,293
5661,293,292,189
5662,189,86,87
5663,87,190,189
5664,499,498,292
5665,292,293,499
5666,191,294,293
5667,293,190,191
5668,191,190,87
5669,87,88,191
5670,307,513,512
5671,512,306,307
5672,204,205,308
5673,308,307,204
5674,205,204,101
5675,101,102,205
5676,616,617,411
5677,411,410,616
5678,410,409,615
5679,615,616,410
5680,307,306,203
5681,203,204,307
5682,203,100,101
5683,101,204,203
5684,513,307,308
5685,308,514,513
5686,3231,3232,3459
5687,3459,3458,3231
5688,3126,3127,3232
5689,3232,3231,3126
5690,3245,3244,3139
5691,3139,3140,3245
5692,942,943,731
5693,731,730,942
5694,3044,2731,2732
5695,2732,3045,3044
5696,3463,3464,3253
5697,3253,3252,3463
5698,3018,3252,3253
5699,3253,3022,3018
5700,1362,1146,1145
5701,1145,1361,1362
5702,1362,1361,1575
5703,1575,1576,1362
5704,1784,1785,1575
5705,1575,1574,1784
5706,1360,1574,1575
5707,1575,1361,1360
5708,1786,1576,1575
5709,1575,1785,1786
5710,1366,1580,1581
5711,1581,1367,1366
5712,1366,1367,1151
5713,1151,1150,1366
5714,1792,1582,1581
5715,1581,1791,1792
5716,1790,1791,1581
5717,1581,1580,1790
5718,1368,1367,1581
5719,1581,1582,1368
5720,3479,3688,3689
5721,3689,3480,3479
5722,3476,3685,3686
5723,3686,3477,3476
5724,4367,4369,3997
5725,3997,3996,4367
5726,4098,4099,4199
5727,4199,4198,4098
5728,4374,4376,4000
5729,4000,3999,4374
5730,4201,4101,4102
5731,4102,4202,4201
5732,1377,1378,1162
5733,1162,1161,1377
5734,1377,1591,1592
5735,1592,1378,1377
5736,1800,1801,1591
5737,1591,1590,1800
5738,1591,1377,1376
5739,1376,1590,1591
5740,1802,1592,1591
5741,1591,1801,1802
5742,1597,1383,1382
5743,1382,1596,1597
5744,1382,1383,1167
5745,1167,1166,1382
5746,1807,1808,1598
5747,1598,1597,1807
5748,1597,1596,1806
5749,1806,1807,1597
5750,1383,1597,1598
5751,1598,1384,1383
5752,1384,1168,1167
5753,1167,1383,1384
5754,3495,3704,3705
5755,3705,3496,3495
5756,3492,3701,3702
5757,3702,3493,3492
5758,4292,4293,4013
5759,4013,4012,4292
5760,4114,4115,4215
5761,4215,4214,4114
5762,4295,4296,4016
5763,4016,4015,4295
5764,4217,4117,4118
5765,4118,4218,4217
5766,1394,1393,1607
5767,1607,1608,1394
5768,1607,1606,1816
5769,1816,1817,1607
5770,1393,1177,1176
5771,1176,1392,1393
5772,1392,1606,1607
5773,1607,1393,1392
5774,1817,1818,1608
5775,1608,1607,1817
5776,1398,1612,1613
5777,1613,1399,1398
5778,1398,1399,1183
5779,1183,1182,1398
5780,1824,1614,1613
5781,1613,1823,1824
5782,1822,1823,1613
5783,1613,1612,1822
5784,1400,1399,1613
5785,1613,1614,1400
5786,3721,3512,3511
5787,3511,3720,3721
5788,3508,3717,3718
5789,3718,3509,3508
5790,4308,4309,4029
5791,4029,4028,4308
5792,4130,4131,4231
5793,4231,4230,4130
5794,4312,4032,4031
5795,4031,4311,4312
5796,4134,4234,4233
5797,4233,4133,4134
5798,1410,1194,1193
5799,1193,1409,1410
5800,1410,1409,1623
5801,1623,1624,1410
5802,1622,1832,1833
5803,1833,1623,1622
5804,1622,1623,1409
5805,1409,1408,1622
5806,1834,1624,1623
5807,1623,1833,1834
5808,1414,1628,1629
5809,1629,1415,1414
5810,1414,1415,1199
5811,1199,1198,1414
5812,1840,1630,1629
5813,1629,1839,1840
5814,1838,1839,1629
5815,1629,1628,1838
5816,1416,1415,1629
5817,1629,1630,1416
5818,3527,3736,3737
5819,3737,3528,3527
5820,3734,3525,3524
5821,3524,3733,3734
5822,4324,4325,4045
5823,4045,4044,4324
5824,4247,4246,4146
5825,4146,4147,4247
5826,4327,4328,4048
5827,4048,4047,4327
5828,4249,4149,4150
5829,4150,4250,4249
5830,1209,1425,1426
5831,1426,1210,1209
5832,1639,1640,1426
5833,1426,1425,1639
5834,1848,1849,1639
5835,1639,1638,1848
5836,1425,1424,1638
5837,1638,1639,1425
5838,1850,1640,1639
5839,1639,1849,1850
5840,1431,1430,1644
5841,1644,1645,1431
5842,1430,1431,1215
5843,1215,1214,1430
5844,1856,1646,1645
5845,1645,1855,1856
5846,1854,1855,1645
5847,1645,1644,1854
5848,1645,1646,1432
5849,1432,1431,1645
5850,3544,3543,3752
5851,3752,3753,3544
5852,3541,3540,3749
5853,3749,3750,3541
5854,4383,4061,4060
5855,4060,4385,4383
5856,4162,4163,4263
5857,4263,4262,4162
5858,4377,4064,4063
5859,4063,4379,4377
5860,4165,4166,4266
5861,4266,4265,4165
5862,1441,1442,1226
5863,1226,1225,1441
5864,1442,1441,1655
5865,1655,1656,1442
5866,1865,1655,1654
5867,1654,1864,1865
5868,1440,1654,1655
5869,1655,1441,1440
5870,1655,1865,1866
5871,1866,1656,1655
5872,1661,1447,1446
5873,1446,1660,1661
5874,1231,1230,1446
5875,1446,1447,1231
5876,1871,1872,1662
5877,1662,1661,1871
5878,1661,1660,1870
5879,1870,1871,1661
5880,1447,1661,1662
5881,1662,1448,1447
5882,1447,1448,1232
5883,1232,1231,1447
5884,3560,3559,3768
5885,3768,3769,3560
5886,3557,3556,3765
5887,3765,3766,3557
5888,4350,4077,4076
5889,4076,4352,4350
5890,4279,4278,4178
5891,4178,4179,4279
5892,4342,4080,4079
5893,4079,4345,4342
5894,4281,4181,4182
5895,4182,4282,4281
5896,3561,3350,3349
5897,3349,3560,3561
5898,3019,3023,3349
5899,3349,3350,3019
5900,1477,1257,1258
5901,1258,1473,1477
5902,1473,1471,1684
5903,1684,1683,1473
5904,424,218,219
5905,219,425,424
5906,117,220,219
5907,219,116,117
5908,117,116,13
5909,13,14,117
5910,115,116,219
5911,219,218,115
5912,115,12,13
5913,13,116,115
5914,426,425,219
5915,219,220,426
5916,1484,1485,1689
5917,1689,1688,1484
5918,1486,1485,1264
5919,1264,1265,1486
5920,2105,2104,1888
5921,1888,1889,2105
5922,1890,1889,1683
5923,1683,1684,1890
5924,1894,1688,1689
5925,1689,1895,1894
5926,2111,1895,1896
5927,1896,2112,2111
5928,2111,2112,2322
5929,2322,2321,2111
5930,428,427,221
5931,221,222,428
5932,117,118,221
5933,221,220,117
5934,117,14,15
5935,15,118,117
5936,529,530,324
5937,324,323,529
5938,119,222,221
5939,221,118,119
5940,119,118,15
5941,15,16,119
5942,426,220,221
5943,221,427,426
5944,531,325,324
5945,324,530,531
5946,1492,1493,1697
5947,1697,1696,1492
5948,1488,1692,1691
5949,1691,1487,1488
5950,2119,1903,1904
5951,1904,2120,2119
5952,2119,2120,2330
5953,2330,2329,2119
5954,1902,1696,1697
5955,1697,1903,1902
5956,2118,2119,2329
5957,2329,2328,2118
5958,2113,2112,1896
5959,1896,1897,2113
5960,1897,1691,1692
5961,1692,1898,1897
5962,2209,2210,2087
5963,2087,2085,2209
5964,2077,2085,1785
5965,1785,1784,2077
5966,2077,2208,2209
5967,2209,2085,2077
5968,2085,2087,1786
5969,1786,1785,2085
5970,3156,3051,3052
5971,3052,3157,3156
5972,1792,1791,1992
5973,1992,1993,1792
5974,1790,1991,1992
5975,1992,1791,1790
5976,1993,1992,2215
5977,2215,2216,1993
5978,1374,1588,1589
5979,1589,1375,1374
5980,1800,1590,1589
5981,1589,1799,1800
5982,1376,1375,1589
5983,1589,1590,1376
5984,1798,1799,1589
5985,1589,1588,1798
5986,1370,1369,1583
5987,1583,1584,1370
5988,1370,1154,1153
5989,1153,1369,1370
5990,1792,1793,1583
5991,1583,1582,1792
5992,1368,1582,1583
5993,1583,1369,1368
5994,1794,1584,1583
5995,1583,1793,1794
5996,3362,3159,3160
5997,3160,3360,3362
5998,3054,3055,3160
5999,3160,3159,3054
6000,2000,1999,2222
6001,2222,2223,2000
6002,1800,1799,2000
6003,2000,2001,1800
6004,1798,1999,2000
6005,2000,1799,1798
6006,2001,2000,2223
6007,2223,2224,2001
6008,1792,1993,1994
6009,1994,1793,1792
6010,1794,1793,1994
6011,1994,1995,1794
6012,1495,1494,1273
6013,1273,1274,1495
6014,1496,1700,1699
6015,1699,1495,1496
6016,440,234,235
6017,235,441,440
6018,132,133,236
6019,236,235,132
6020,132,29,30
6021,30,133,132
6022,235,234,131
6023,131,132,235
6024,29,132,131
6025,131,28,29
6026,442,441,235
6027,235,236,442
6028,1705,1704,1500
6029,1500,1501,1705
6030,1501,1280,1281
6031,1281,1502,1501
6032,2121,2120,1904
6033,1904,1905,2121
6034,1905,1699,1700
6035,1700,1906,1905
6036,1910,1704,1705
6037,1705,1911,1910
6038,2127,1911,1912
6039,1912,2128,2127
6040,2127,2128,2338
6041,2338,2337,2127
6042,2126,2127,2337
6043,2337,2336,2126
6044,237,238,444
6045,444,443,237
6046,134,237,236
6047,236,133,134
6048,133,30,31
6049,31,134,133
6050,545,546,340
6051,340,339,545
6052,237,134,135
6053,135,238,237
6054,135,134,31
6055,31,32,135
6056,443,442,236
6057,236,237,443
6058,547,341,340
6059,340,546,547
6060,1288,1289,1510
6061,1510,1509,1288
6062,1509,1713,1712
6063,1712,1508,1509
6064,1504,1708,1707
6065,1707,1503,1504
6066,2135,1919,1920
6067,1920,2136,2135
6068,1919,1918,1712
6069,1712,1713,1919
6070,2129,2128,1912
6071,1912,1913,2129
6072,2128,2129,2339
6073,2339,2338,2128
6074,1913,1707,1708
6075,1708,1914,1913
6076,2129,2130,2340
6077,2340,2339,2129
6078,2003,2002,2225
6079,2225,2226,2003
6080,1800,2001,2002
6081,2002,1801,1800
6082,1802,1801,2002
6083,2002,2003,1802
6084,2002,2001,2224
6085,2224,2225,2002
6086,3172,3173,3400
6087,3400,3399,3172
6088,3172,3067,3068
6089,3068,3173,3172
6090,1808,1807,2008
6091,2008,2009,1808
6092,1806,2007,2008
6093,2008,1807,1806
6094,1391,1175,1174
6095,1174,1390,1391
6096,1390,1604,1605
6097,1605,1391,1390
6098,1816,1606,1605
6099,1605,1815,1816
6100,1175,1391,1392
6101,1392,1176,1175
6102,1392,1391,1605
6103,1605,1606,1392
6104,1814,1815,1605
6105,1605,1604,1814
6106,1386,1385,1599
6107,1599,1600,1386
6108,1808,1809,1599
6109,1599,1598,1808
6110,1384,1598,1599
6111,1599,1385,1384
6112,1810,1600,1599
6113,1599,1809,1810
6114,3070,3071,3176
6115,3176,3175,3070
6116,2016,2015,2238
6117,2238,2239,2016
6118,1816,1815,2016
6119,2016,2017,1816
6120,1814,2015,2016
6121,2016,1815,1814
6122,2239,2240,2017
6123,2017,2016,2239
6124,2233,2234,2011
6125,2011,2010,2233
6126,1808,2009,2010
6127,2010,1809,1808
6128,2010,2009,2232
6129,2232,2233,2010
6130,1810,1809,2010
6131,2010,2011,1810
6132,1290,1511,1510
6133,1510,1289,1290
6134,1511,1512,1716
6135,1716,1715,1511
6136,456,250,251
6137,251,457,456
6138,149,252,251
6139,251,148,149
6140,149,148,45
6141,45,46,149
6142,147,148,251
6143,251,250,147
6144,147,44,45
6145,45,148,147
6146,458,457,251
6147,251,252,458
6148,1516,1517,1721
6149,1721,1720,1516
6150,2137,2136,1920
6151,1920,1921,2137
6152,2137,2347,2346
6153,2346,2136,2137
6154,1922,1921,1715
6155,1715,1716,1922
6156,2347,2137,2138
6157,2138,2348,2347
6158,1926,1720,1721
6159,1721,1927,1926
6160,2143,1927,1928
6161,1928,2144,2143
6162,2143,2144,2354
6163,2354,2353,2143
6164,460,459,253
6165,253,254,460
6166,149,150,253
6167,253,252,149
6168,149,46,47
6169,47,150,149
6170,561,562,356
6171,356,355,561
6172,151,254,253
6173,253,150,151
6174,151,150,47
6175,47,48,151
6176,458,252,253
6177,253,459,458
6178,563,357,356
6179,356,562,563
6180,1305,1526,1525
6181,1525,1304,1305
6182,1524,1525,1729
6183,1729,1728,1524
6184,1519,1518,1297
6185,1297,1298,1519
6186,1520,1724,1723
6187,1723,1519,1520
6188,1936,2152,2151
6189,2151,1935,1936
6190,1934,1728,1729
6191,1729,1935,1934
6192,2145,2144,1928
6193,1928,1929,2145
6194,2144,2145,2355
6195,2355,2354,2144
6196,1930,1929,1723
6197,1723,1724,1930
6198,2145,2146,2356
6199,2356,2355,2145
6200,1816,2017,2018
6201,2018,1817,1816
6202,1818,1817,2018
6203,2018,2019,1818
6204,3188,3189,3416
6205,3416,3415,3188
6206,3188,3083,3084
6207,3084,3189,3188
6208,2024,2023,2246
6209,2246,2247,2024
6210,1824,1823,2024
6211,2024,2025,1824
6212,1822,2023,2024
6213,2024,1823,1822
6214,2025,2024,2247
6215,2247,2248,2025
6216,1406,1620,1621
6217,1621,1407,1406
6218,1832,1622,1621
6219,1621,1831,1832
6220,1408,1192,1191
6221,1191,1407,1408
6222,1408,1407,1621
6223,1621,1622,1408
6224,1830,1831,1621
6225,1621,1620,1830
6226,1402,1401,1615
6227,1615,1616,1402
6228,1824,1825,1615
6229,1615,1614,1824
6230,1400,1614,1615
6231,1615,1401,1400
6232,1400,1401,1185
6233,1185,1184,1400
6234,1826,1616,1615
6235,1615,1825,1826
6236,3192,3419,3418
6237,3418,3191,3192
6238,3086,3087,3192
6239,3192,3191,3086
6240,1832,1831,2032
6241,2032,2033,1832
6242,1830,2031,2032
6243,2032,1831,1830
6244,2027,2026,2249
6245,2249,2250,2027
6246,1824,2025,2026
6247,2026,1825,1824
6248,1826,1825,2026
6249,2026,2027,1826
6250,1528,1732,1731
6251,1731,1527,1528
6252,472,266,267
6253,267,473,472
6254,165,268,267
6255,267,164,165
6256,165,164,61
6257,61,62,165
6258,163,164,267
6259,267,266,163
6260,163,60,61
6261,61,164,163
6262,474,473,267
6263,267,268,474
6264,1532,1533,1737
6265,1737,1736,1532
6266,1534,1533,1312
6267,1312,1313,1534
6268,2152,1936,1937
6269,1937,2153,2152
6270,1938,1937,1731
6271,1731,1732,1938
6272,2153,2154,2364
6273,2364,2363,2153
6274,1942,1736,1737
6275,1737,1943,1942
6276,2159,1943,1944
6277,1944,2160,2159
6278,476,475,269
6279,269,270,476
6280,165,166,269
6281,269,268,165
6282,165,62,63
6283,63,166,165
6284,577,578,372
6285,372,371,577
6286,167,270,269
6287,269,166,167
6288,167,166,63
6289,63,64,167
6290,474,268,269
6291,269,475,474
6292,579,373,372
6293,372,578,579
6294,1541,1320,1321
6295,1321,1542,1541
6296,1745,1744,1540
6297,1540,1541,1745
6298,1535,1534,1313
6299,1313,1314,1535
6300,1536,1740,1739
6301,1739,1535,1536
6302,1951,1952,2168
6303,2168,2167,1951
6304,2167,2168,2378
6305,2378,2377,2167
6306,1745,1951,1950
6307,1950,1744,1745
6308,2161,2160,1944
6309,1944,1945,2161
6310,1946,1945,1739
6311,1739,1740,1946
6312,2161,2162,2372
6313,2372,2371,2161
6314,2035,2034,2257
6315,2257,2258,2035
6316,1832,2033,2034
6317,2034,1833,1832
6318,1834,1833,2034
6319,2034,2035,1834
6320,2256,2257,2034
6321,2034,2033,2256
6322,3204,3205,3432
6323,3432,3431,3204
6324,3204,3099,3100
6325,3100,3205,3204
6326,2040,2039,2262
6327,2262,2263,2040
6328,1840,1839,2040
6329,2040,2041,1840
6330,1838,2039,2040
6331,2040,1839,1838
6332,1423,1207,1206
6333,1206,1422,1423
6334,1423,1422,1636
6335,1636,1637,1423
6336,1848,1638,1637
6337,1637,1847,1848
6338,1637,1638,1424
6339,1424,1423,1637
6340,1846,1847,1637
6341,1637,1636,1846
6342,1418,1417,1631
6343,1631,1632,1418
6344,1418,1202,1201
6345,1201,1417,1418
6346,1840,1841,1631
6347,1631,1630,1840
6348,1416,1630,1631
6349,1631,1417,1416
6350,1842,1632,1631
6351,1631,1841,1842
6352,3208,3435,3434
6353,3434,3207,3208
6354,3102,3103,3208
6355,3208,3207,3102
6356,2048,2047,2270
6357,2270,2271,2048
6358,1847,2048,2049
6359,2049,1848,1847
6360,2048,1847,1846
6361,1846,2047,2048
6362,2049,2048,2271
6363,2271,2272,2049
6364,1840,2041,2042
6365,2042,1841,1840
6366,2042,2041,2264
6367,2264,2265,2042
6368,1842,1841,2042
6369,2042,2043,1842
6370,1543,1542,1321
6371,1321,1322,1543
6372,1544,1748,1747
6373,1747,1543,1544
6374,489,488,282
6375,282,283,489
6376,283,180,181
6377,181,284,283
6378,77,78,181
6379,181,180,77
6380,180,283,282
6381,282,179,180
6382,180,179,76
6383,76,77,180
6384,283,284,490
6385,490,489,283
6386,1753,1752,1548
6387,1548,1549,1753
6388,1549,1328,1329
6389,1329,1550,1549
6390,2169,2168,1952
6391,1952,1953,2169
6392,1953,1747,1748
6393,1748,1954,1953
6394,1753,1959,1958
6395,1958,1752,1753
6396,2175,1959,1960
6397,1960,2176,2175
6398,2175,2176,2386
6399,2386,2385,2175
6400,491,285,286
6401,286,492,491
6402,285,284,181
6403,181,182,285
6404,79,182,181
6405,181,78,79
6406,388,387,593
6407,593,594,388
6408,182,183,286
6409,286,285,182
6410,182,79,80
6411,80,183,182
6412,285,491,490
6413,490,284,285
6414,594,595,389
6415,389,388,594
6416,1556,1557,1761
6417,1761,1760,1556
6418,1755,1551,1552
6419,1552,1756,1755
6420,1967,1968,2184
6421,2184,2183,1967
6422,2393,2183,2184
6423,2184,2394,2393
6424,1966,1760,1761
6425,1761,1967,1966
6426,2183,2393,2392
6427,2392,2182,2183
6428,2177,2176,1960
6429,1960,1961,2177
6430,1962,1961,1755
6431,1755,1756,1962
6432,2051,2050,2273
6433,2273,2274,2051
6434,2050,1849,1848
6435,1848,2049,2050
6436,1849,2050,2051
6437,2051,1850,1849
6438,2050,2049,2272
6439,2272,2273,2050
6440,3220,3115,3116
6441,3116,3221,3220
6442,1856,1855,2056
6443,2056,2057,1856
6444,1854,2055,2056
6445,2056,1855,1854
6446,2057,2056,2279
6447,2279,2280,2057
6448,1653,1439,1438
6449,1438,1652,1653
6450,1864,1654,1653
6451,1653,1863,1864
6452,1439,1653,1654
6453,1654,1440,1439
6454,1862,1863,1653
6455,1653,1652,1862
6456,1647,1648,1434
6457,1434,1433,1647
6458,1217,1433,1434
6459,1434,1218,1217
6460,1856,1857,1647
6461,1647,1646,1856
6462,1433,1432,1646
6463,1646,1647,1433
6464,1858,1648,1647
6465,1647,1857,1858
6466,3224,3451,3450
6467,3450,3223,3224
6468,3118,3119,3224
6469,3224,3223,3118
6470,2064,2063,2286
6471,2286,2287,2064
6472,2064,2065,1864
6473,1864,1863,2064
6474,1863,1862,2063
6475,2063,2064,1863
6476,2065,2064,2287
6477,2287,2288,2065
6478,2058,1857,1856
6479,1856,2057,2058
6480,1857,2058,2059
6481,2059,1858,1857
6482,1559,1558,1337
6483,1337,1338,1559
6484,1560,1764,1763
6485,1763,1559,1560
6486,299,505,504
6487,504,298,299
6488,197,300,299
6489,299,196,197
6490,93,94,197
6491,197,196,93
6492,195,196,299
6493,299,298,195
6494,196,195,92
6495,92,93,196
6496,505,299,300
6497,300,506,505
6498,1564,1565,1769
6499,1769,1768,1564
6500,1566,1565,1344
6501,1344,1345,1566
6502,2185,2184,1968
6503,1968,1969,2185
6504,1969,1763,1764
6505,1764,1970,1969
6506,1769,1975,1974
6507,1974,1768,1769
6508,1975,1976,2192
6509,2192,2191,1975
6510,2191,2192,2402
6511,2402,2401,2191
6512,2190,2191,2401
6513,2401,2400,2190
6514,301,302,508
6515,508,507,301
6516,198,301,300
6517,300,197,198
6518,198,197,94
6519,94,95,198
6520,610,404,403
6521,403,609,610
6522,301,198,199
6523,199,302,301
6524,95,96,199
6525,199,198,95
6526,507,506,300
6527,300,301,507
6528,404,610,611
6529,611,405,404
6530,1478,1474,1352
6531,1352,1353,1478
6532,1474,1777,1776
6533,1776,1472,1474
6534,1567,1568,1772
6535,1772,1771,1567
6536,2199,1983,1984
6537,1984,2200,2199
6538,1982,1776,1777
6539,1777,1983,1982
6540,2193,2192,1976
6541,1976,1977,2193
6542,2403,2402,2192
6543,2192,2193,2403
6544,1977,1771,1772
6545,1772,1978,1977
6546,2193,2194,2404
6547,2404,2403,2193
6548,2067,2066,2289
6549,2289,2290,2067
6550,1864,2065,2066
6551,2066,1865,1864
6552,1866,1865,2066
6553,2066,2067,1866
6554,2066,2065,2288
6555,2288,2289,2066
6556,3363,3361,3236
6557,3236,3237,3363
6558,3237,3236,3131
6559,3131,3132,3237
6560,1872,1871,2072
6561,2072,2073,1872
6562,1870,2071,2072
6563,2072,1871,1870
6564,1455,1239,1238
6565,1238,1454,1455
6566,1454,1668,1669
6567,1669,1455,1454
6568,1879,1880,1670
6569,1670,1669,1879
6570,1239,1455,1456
6571,1456,1240,1239
6572,1456,1455,1669
6573,1669,1670,1456
6574,1669,1668,1878
6575,1878,1879,1669
6576,1450,1449,1663
6577,1663,1664,1450
6578,1873,1663,1662
6579,1662,1872,1873
6580,1448,1662,1663
6581,1663,1449,1448
6582,1663,1873,1874
6583,1874,1664,1663
6584,3134,3135,3240
6585,3240,3239,3134
6586,2303,2086,2088
6587,2088,2302,2303
6588,2078,1880,1879
6589,1879,2086,2078
6590,2078,2086,2303
6591,2303,2304,2078
6592,2086,1879,1878
6593,1878,2088,2086
6594,2075,2074,2297
6595,2297,2298,2075
6596,1872,2073,2074
6597,2074,1873,1872
6598,2074,2073,2296
6599,2296,2297,2074
6600,1874,1873,2074
6601,2074,2075,1874
6602,944,945,733
6603,733,732,944
6604,733,734,524
6605,524,523,733
6606,733,945,946
6607,946,734,733
6608,3472,3471,3680
6609,3680,3681,3472
6610,3468,3677,3678
6611,3678,3469,3468
6612,4351,4353,3989
6613,3989,3988,4351
6614,4090,4091,4191
6615,4191,4190,4090
6616,4357,4359,3992
6617,3992,3991,4357
6618,4193,4093,4094
6619,4094,4194,4193
6620,4613,4351,4349
6621,4349,4716,4613
6622,4349,4612,4716
6623,4508,4404,4189
6624,4405,4508,4189
6625,4189,4190,4405
6626,4508,4923,4823
6627,4823,4404,4508
6628,4508,4405,4824
6629,4824,4923,4508
6630,4610,4344,4343
6631,4343,4713,4610
6632,4343,4609,4713
6633,4505,4401,4186
6634,4402,4505,4186
6635,4186,4187,4402
6636,4509,4405,4190
6637,4406,4509,4190
6638,4190,4191,4406
6639,4509,4406,4825
6640,4825,4924,4509
6641,4512,4408,4193
6642,4409,4512,4193
6643,4193,4194,4409
6644,960,961,749
6645,749,748,960
6646,749,750,540
6647,540,539,749
6648,749,961,962
6649,962,750,749
6650,3488,3487,3696
6651,3696,3697,3488
6652,3694,3485,3484
6653,3484,3693,3694
6654,4384,4386,4005
6655,4005,4004,4384
6656,4106,4107,4207
6657,4207,4206,4106
6658,4007,4390,4288
6659,4288,4008,4007
6660,4209,4109,4110
6661,4110,4210,4209
6662,4732,4629,4384
6663,4628,4732,4384
6664,4384,4382,4628
6665,4524,4420,4205
6666,4421,4524,4205
6667,4205,4206,4421
6668,4521,4417,4202
6669,4418,4521,4202
6670,4202,4203,4418
6671,4521,4418,4837
6672,4837,4936,4521
6673,4525,4421,4206
6674,4422,4525,4206
6675,4206,4207,4422
6676,4525,4940,4840
6677,4840,4421,4525
6678,4528,4424,4209
6679,4425,4528,4209
6680,4209,4210,4425
6681,4528,4943,4843
6682,4843,4424,4528
6683,4528,4425,4844
6684,4844,4943,4528
6685,976,977,765
6686,765,764,976
6687,765,766,556
6688,556,555,765
6689,765,977,978
6690,978,766,765
6691,3504,3503,3712
6692,3712,3713,3504
6693,3500,3709,3710
6694,3710,3501,3500
6695,4300,4301,4021
6696,4021,4020,4300
6697,4122,4123,4223
6698,4223,4222,4122
6699,4304,4024,4023
6700,4023,4303,4304
6701,4225,4125,4126
6702,4126,4226,4225
6703,4645,4300,4299
6704,4299,4748,4645
6705,4299,4644,4748
6706,4436,4221,4222
6707,4222,4540,4436
6708,4222,4437,4540
6709,4540,4955,4855
6710,4855,4436,4540
6711,4540,4437,4856
6712,4856,4955,4540
6713,4745,4642,4297
6714,4641,4745,4297
6715,4297,4296,4641
6716,4537,4433,4218
6717,4434,4537,4218
6718,4218,4219,4434
6719,4541,4437,4222
6720,4438,4541,4222
6721,4222,4223,4438
6722,4541,4438,4857
6723,4857,4956,4541
6724,4544,4440,4225
6725,4441,4544,4225
6726,4225,4226,4441
6727,992,993,781
6728,781,780,992
6729,781,782,572
6730,572,571,781
6731,781,993,994
6732,994,782,781
6733,3520,3519,3728
6734,3728,3729,3520
6735,3516,3725,3726
6736,3726,3517,3516
6737,4316,4317,4037
6738,4037,4036,4316
6739,4138,4139,4239
6740,4239,4238,4138
6741,4320,4040,4039
6742,4039,4319,4320
6743,4241,4141,4142
6744,4142,4242,4241
6745,4764,4661,4316
6746,4660,4764,4316
6747,4316,4315,4660
6748,4556,4452,4237
6749,4453,4556,4237
6750,4237,4238,4453
6751,4553,4449,4234
6752,4450,4553,4234
6753,4234,4235,4450
6754,4553,4450,4869
6755,4869,4968,4553
6756,4557,4453,4238
6757,4454,4557,4238
6758,4238,4239,4454
6759,4557,4972,4872
6760,4872,4453,4557
6761,4560,4456,4241
6762,4457,4560,4241
6763,4241,4242,4457
6764,4560,4975,4875
6765,4875,4456,4560
6766,4560,4457,4876
6767,4876,4975,4560
6768,796,1008,1009
6769,1009,797,796
6770,797,798,588
6771,588,587,797
6772,797,1009,1010
6773,1010,798,797
6774,3536,3535,3744
6775,3744,3745,3536
6776,3532,3741,3742
6777,3742,3533,3532
6778,4333,4053,4052
6779,4052,4332,4333
6780,4255,4254,4154
6781,4154,4155,4255
6782,4335,4336,4056
6783,4056,4055,4335
6784,4257,4157,4158
6785,4158,4258,4257
6786,4780,4677,4332
6787,4676,4780,4332
6788,4332,4331,4676
6789,4468,4253,4254
6790,4254,4572,4468
6791,4254,4469,4572
6792,4572,4987,4887
6793,4887,4468,4572
6794,4572,4469,4888
6795,4888,4987,4572
6796,4777,4674,4329
6797,4673,4777,4329
6798,4329,4328,4673
6799,4569,4465,4250
6800,4466,4569,4250
6801,4250,4251,4466
6802,4469,4254,4255
6803,4255,4573,4469
6804,4255,4470,4573
6805,4573,4470,4889
6806,4889,4988,4573
6807,4576,4472,4257
6808,4473,4576,4257
6809,4257,4258,4473
6810,812,1024,1025
6811,1025,813,812
6812,813,814,604
6813,604,603,813
6814,1026,814,813
6815,813,1025,1026
6816,3552,3551,3760
6817,3760,3761,3552
6818,3548,3757,3758
6819,3758,3549,3548
6820,4366,4069,4068
6821,4068,4368,4366
6822,4271,4270,4170
6823,4170,4171,4271
6824,4360,4072,4071
6825,4071,4362,4360
6826,4273,4173,4174
6827,4174,4274,4273
6828,4796,4693,4368
6829,4692,4796,4368
6830,4368,4370,4692
6831,4484,4269,4270
6832,4270,4588,4484
6833,4270,4485,4588
6834,4585,4481,4266
6835,4482,4585,4266
6836,4266,4267,4482
6837,4585,4482,4901
6838,4901,5000,4585
6839,4485,4270,4271
6840,4271,4589,4485
6841,4271,4486,4589
6842,4589,5004,4904
6843,4904,4485,4589
6844,4592,4488,4273
6845,4489,4592,4273
6846,4273,4274,4489
6847,4592,5007,4907
6848,4907,4488,4592
6849,4592,4489,4908
6850,4908,5007,4592
6851,1240,1246,1040
6852,1040,1039,1240
6853,420,631,630
6854,630,419,420
6855,837,629,630
6856,630,838,837
6857,418,419,630
6858,630,629,418
6859,839,838,630
6860,630,631,839
6861,420,214,215
6862,215,421,420
6863,113,216,215
6864,215,112,113
6865,113,112,9
6866,9,10,113
6867,111,112,215
6868,215,214,111
6869,111,8,9
6870,9,112,111
6871,422,421,215
6872,215,216,422
6873,432,431,225
6874,225,226,432
6875,121,122,225
6876,225,224,121
6877,121,18,19
6878,19,122,121
6879,533,534,328
6880,328,327,533
6881,535,329,328
6882,328,534,535
6883,123,226,225
6884,225,122,123
6885,123,122,19
6886,19,20,123
6887,430,224,225
6888,225,431,430
6889,644,643,432
6890,432,433,644
6891,537,536,746
6892,746,747,537
6893,852,644,645
6894,645,853,852
6895,535,745,746
6896,746,536,535
6897,433,434,645
6898,645,644,433
6899,644,852,851
6900,851,643,644
6901,535,534,744
6902,744,745,535
6903,3026,3029,2837
6904,2837,2836,3026
6905,3047,3046,2733
6906,2733,2734,3047
6907,3024,3254,3255
6908,3255,3026,3024
6909,3466,3255,3254
6910,3254,3465,3466
6911,3152,3047,3048
6912,3048,3153,3152
6913,3024,3026,2836
6914,2836,2835,3024
6915,3026,3255,3256
6916,3256,3029,3026
6917,3466,3467,3256
6918,3256,3255,3466
6919,2735,3048,3047
6920,3047,2734,2735
6921,958,746,745
6922,745,957,958
6923,956,957,745
6924,745,744,956
6925,2848,2847,2943
6926,2943,2944,2848
6927,3058,3059,3164
6928,3164,3163,3058
6929,3164,3391,3390
6930,3390,3163,3164
6931,3060,3059,2746
6932,2746,2747,3060
6933,2945,2944,3267
6934,3267,3268,2945
6935,3478,3479,3268
6936,3268,3267,3478
6937,2944,2943,3266
6938,3266,3267,2944
6939,3478,3267,3266
6940,3266,3477,3478
6941,2745,2746,3059
6942,3059,3058,2745
6943,2848,2944,2945
6944,2945,2849,2848
6945,435,436,647
6946,647,646,435
6947,853,645,646
6948,646,854,853
6949,646,645,434
6950,434,435,646
6951,855,854,646
6952,646,647,855
6953,231,437,436
6954,436,230,231
6955,129,232,231
6956,231,128,129
6957,25,26,129
6958,129,128,25
6959,127,128,231
6960,231,230,127
6961,128,127,24
6962,24,25,128
6963,437,231,232
6964,232,438,437
6965,448,447,241
6966,241,242,448
6967,241,240,137
6968,137,138,241
6969,35,138,137
6970,137,34,35
6971,344,343,549
6972,549,550,344
6973,550,551,345
6974,345,344,550
6975,138,139,242
6976,242,241,138
6977,138,35,36
6978,36,139,138
6979,446,240,241
6980,241,447,446
6981,448,449,660
6982,660,659,448
6983,553,552,762
6984,762,763,553
6985,869,868,660
6986,660,661,869
6987,450,661,660
6988,660,449,450
6989,867,659,660
6990,660,868,867
6991,549,759,760
6992,760,550,549
6993,551,550,760
6994,760,761,551
6995,2852,2948,2949
6996,2949,2853,2852
6997,2749,2750,3063
6998,3063,3062,2749
6999,2948,2947,3270
7000,3270,3271,2948
7001,3482,3271,3270
7002,3270,3481,3482
7003,3169,3396,3395
7004,3395,3168,3169
7005,3168,3063,3064
7006,3064,3169,3168
7007,3272,2949,2948
7008,2948,3271,3272
7009,3482,3483,3272
7010,3272,3271,3482
7011,2851,2947,2948
7012,2948,2852,2851
7013,2751,3064,3063
7014,3063,2750,2751
7015,761,762,552
7016,552,551,761
7017,974,762,761
7018,761,973,974
7019,760,972,973
7020,973,761,760
7021,2863,2959,2960
7022,2960,2864,2863
7023,3074,3075,3180
7024,3180,3179,3074
7025,3076,3075,2762
7026,2762,2763,3076
7027,3284,2961,2960
7028,2960,3283,3284
7029,3284,3283,3494
7030,3494,3495,3284
7031,2960,2959,3282
7032,3282,3283,2960
7033,3494,3283,3282
7034,3282,3493,3494
7035,3074,2761,2762
7036,2762,3075,3074
7037,2865,2864,2960
7038,2960,2961,2865
7039,452,663,662
7040,662,451,452
7041,869,661,662
7042,662,870,869
7043,450,451,662
7044,662,661,450
7045,871,870,662
7046,662,663,871
7047,453,452,246
7048,246,247,453
7049,145,248,247
7050,247,144,145
7051,145,144,41
7052,41,42,145
7053,143,144,247
7054,247,246,143
7055,143,40,41
7056,41,144,143
7057,247,248,454
7058,454,453,247
7059,464,463,257
7060,257,258,464
7061,153,154,257
7062,257,256,153
7063,153,50,51
7064,51,154,153
7065,565,566,360
7066,360,359,565
7067,567,361,360
7068,360,566,567
7069,155,258,257
7070,257,154,155
7071,155,154,51
7072,51,52,155
7073,462,256,257
7074,257,463,462
7075,464,465,676
7076,676,675,464
7077,779,569,568
7078,568,778,779
7079,677,885,884
7080,884,676,677
7081,567,777,778
7082,778,568,567
7083,677,676,465
7084,465,466,677
7085,883,675,676
7086,676,884,883
7087,567,566,776
7088,776,777,567
7089,2868,2964,2965
7090,2965,2869,2868
7091,3078,2765,2766
7092,2766,3079,3078
7093,2964,2963,3286
7094,3286,3287,2964
7095,3498,3287,3286
7096,3286,3497,3498
7097,3185,3412,3411
7098,3411,3184,3185
7099,3185,3184,3079
7100,3079,3080,3185
7101,3288,2965,2964
7102,2964,3287,3288
7103,3288,3287,3498
7104,3498,3499,3288
7105,2963,2964,2868
7106,2868,2867,2963
7107,2767,3080,3079
7108,3079,2766,2767
7109,990,778,777
7110,777,989,990
7111,988,989,777
7112,777,776,988
7113,2880,2879,2975
7114,2975,2976,2880
7115,3090,3091,3196
7116,3196,3195,3090
7117,3196,3423,3422
7118,3422,3195,3196
7119,3092,3091,2778
7120,2778,2779,3092
7121,2977,2976,3299
7122,3299,3300,2977
7123,3510,3511,3300
7124,3300,3299,3510
7125,3298,3299,2976
7126,2976,2975,3298
7127,3510,3299,3298
7128,3298,3509,3510
7129,3090,2777,2778
7130,2778,3091,3090
7131,2880,2976,2977
7132,2977,2881,2880
7133,468,679,678
7134,678,467,468
7135,885,677,678
7136,678,886,885
7137,466,467,678
7138,678,677,466
7139,887,886,678
7140,678,679,887
7141,468,262,263
7142,263,469,468
7143,161,264,263
7144,263,160,161
7145,161,160,57
7146,57,58,161
7147,159,160,263
7148,263,262,159
7149,159,56,57
7150,57,160,159
7151,470,469,263
7152,263,264,470
7153,479,273,274
7154,274,480,479
7155,273,272,169
7156,169,170,273
7157,67,170,169
7158,169,66,67
7159,376,375,581
7160,581,582,376
7161,582,583,377
7162,377,376,582
7163,170,171,274
7164,274,273,170
7165,170,67,68
7166,68,171,170
7167,273,479,478
7168,478,272,273
7169,481,692,691
7170,691,480,481
7171,794,795,585
7172,585,584,794
7173,901,900,692
7174,692,693,901
7175,584,583,793
7176,793,794,584
7177,692,481,482
7178,482,693,692
7179,899,691,692
7180,692,900,899
7181,583,582,792
7182,792,793,583
7183,2884,2980,2981
7184,2981,2885,2884
7185,3095,3094,2781
7186,2781,2782,3095
7187,2980,2979,3302
7188,3302,3303,2980
7189,3514,3303,3302
7190,3302,3513,3514
7191,3200,3095,3096
7192,3096,3201,3200
7193,3303,3304,2981
7194,2981,2980,3303
7195,3514,3515,3304
7196,3304,3303,3514
7197,2979,2980,2884
7198,2884,2883,2979
7199,3096,3095,2782
7200,2782,2783,3096
7201,1006,794,793
7202,793,1005,1006
7203,1004,1005,793
7204,793,792,1004
7205,2896,2895,2991
7206,2991,2992,2896
7207,3106,3107,3212
7208,3212,3211,3106
7209,3212,3439,3438
7210,3438,3211,3212
7211,3108,3107,2794
7212,2794,2795,3108
7213,2993,2992,3315
7214,3315,3316,2993
7215,3316,3315,3526
7216,3526,3527,3316
7217,2991,3314,3315
7218,3315,2992,2991
7219,3525,3526,3315
7220,3315,3314,3525
7221,3106,2793,2794
7222,2794,3107,3106
7223,2993,2897,2896
7224,2896,2992,2993
7225,484,695,694
7226,694,483,484
7227,902,901,693
7228,693,694,902
7229,482,483,694
7230,694,693,482
7231,694,695,903
7232,903,902,694
7233,485,484,278
7234,278,279,485
7235,177,280,279
7236,279,176,177
7237,177,176,73
7238,73,74,177
7239,175,176,279
7240,279,278,175
7241,175,72,73
7242,73,176,175
7243,279,280,486
7244,486,485,279
7245,496,495,289
7246,289,290,496
7247,289,288,185
7248,185,186,289
7249,83,186,185
7250,185,82,83
7251,597,598,392
7252,392,391,597
7253,599,393,392
7254,392,598,599
7255,186,187,290
7256,290,289,186
7257,186,83,84
7258,84,187,186
7259,494,288,289
7260,289,495,494
7261,496,497,708
7262,708,707,496
7263,600,810,811
7264,811,601,600
7265,917,916,708
7266,708,709,917
7267,810,600,599
7268,599,809,810
7269,498,709,708
7270,708,497,498
7271,915,707,708
7272,708,916,915
7273,598,808,809
7274,809,599,598
7275,2900,2996,2997
7276,2997,2901,2900
7277,3110,2797,2798
7278,2798,3111,3110
7279,2996,2995,3318
7280,3318,3319,2996
7281,3530,3319,3318
7282,3318,3529,3530
7283,3216,3111,3112
7284,3112,3217,3216
7285,2997,2996,3319
7286,3319,3320,2997
7287,3530,3531,3320
7288,3320,3319,3530
7289,2995,2996,2900
7290,2900,2899,2995
7291,3112,3111,2798
7292,2798,2799,3112
7293,1022,810,809
7294,809,1021,1022
7295,1020,1021,809
7296,809,808,1020
7297,2912,2911,3007
7298,3007,3008,2912
7299,3122,3123,3228
7300,3228,3227,3122
7301,3228,3455,3454
7302,3454,3227,3228
7303,2811,3124,3123
7304,3123,2810,2811
7305,3009,3008,3331
7306,3331,3332,3009
7307,3542,3543,3332
7308,3332,3331,3542
7309,3007,3330,3331
7310,3331,3008,3007
7311,3542,3331,3330
7312,3330,3541,3542
7313,3122,2809,2810
7314,2810,3123,3122
7315,3009,2913,2912
7316,2912,3008,3009
7317,500,711,710
7318,710,499,500
7319,710,918,917
7320,917,709,710
7321,498,499,710
7322,710,709,498
7323,918,710,711
7324,711,919,918
7325,500,294,295
7326,295,501,500
7327,193,296,295
7328,295,192,193
7329,89,90,193
7330,193,192,89
7331,191,192,295
7332,295,294,191
7333,192,191,88
7334,88,89,192
7335,502,501,295
7336,295,296,502
7337,512,511,305
7338,305,306,512
7339,202,305,304
7340,304,201,202
7341,202,201,98
7342,98,99,202
7343,614,408,407
7344,407,613,614
7345,408,614,615
7346,615,409,408
7347,305,202,203
7348,203,306,305
7349,99,100,203
7350,203,202,99
7351,510,304,305
7352,305,511,510
7353,724,723,512
7354,512,513,724
7355,616,826,827
7356,827,617,616
7357,933,932,724
7358,724,725,933
7359,513,514,725
7360,725,724,513
7361,931,723,724
7362,724,932,931
7363,613,823,824
7364,824,614,613
7365,615,614,824
7366,824,825,615
7367,3013,2917,2916
7368,2916,3012,3013
7369,3127,3126,2813
7370,2813,2814,3127
7371,3334,3335,3012
7372,3012,3011,3334
7373,3334,3545,3546
7374,3546,3335,3334
7375,3233,3460,3459
7376,3459,3232,3233
7377,3232,3127,3128
7378,3128,3233,3232
7379,3013,3012,3335
7380,3335,3336,3013
7381,3336,3335,3546
7382,3546,3547,3336
7383,2915,3011,3012
7384,3012,2916,2915
7385,2815,3128,3127
7386,3127,2814,2815
7387,826,616,615
7388,615,825,826
7389,826,825,1037
7390,1037,1038,826
7391,1036,1037,825
7392,825,824,1036
7393,3027,2928,2927
7394,2927,3030,3027
7395,3138,3139,3244
7396,3244,3243,3138
7397,3140,3139,2826
7398,2826,2827,3140
7399,3025,3027,3347
7400,3347,3348,3025
7401,3348,3347,3558
7402,3558,3559,3348
7403,3027,3030,3346
7404,3346,3347,3027
7405,3558,3347,3346
7406,3346,3557,3558
7407,3025,2929,2928
7408,2928,3027,3025
7409,3138,2825,2826
7410,2826,3139,3138
7411,1144,943,942
7412,942,1245,1144
7413,1145,1144,1360
7414,1360,1361,1145
7415,1146,945,944
7416,944,1145,1146
7417,1362,1363,1147
7418,1147,1146,1362
7419,1362,1576,1577
7420,1577,1363,1362
7421,1788,1578,1577
7422,1577,1787,1788
7423,1364,1148,1147
7424,1147,1363,1364
7425,1364,1363,1577
7426,1577,1578,1364
7427,1786,1787,1577
7428,1577,1576,1786
7429,946,945,1146
7430,1146,1147,946
7431,950,738,737
7432,737,949,950
7433,948,949,737
7434,737,736,948
7435,737,527,526
7436,526,736,737
7437,1366,1150,1149
7438,1149,1365,1366
7439,1366,1365,1579
7440,1579,1580,1366
7441,1788,1789,1579
7442,1579,1578,1788
7443,1364,1578,1579
7444,1579,1365,1364
7445,1790,1580,1579
7446,1579,1789,1790
7447,1152,1151,1367
7448,1367,1368,1152
7449,950,949,1150
7450,1150,1151,950
7451,1148,1364,1365
7452,1365,1149,1148
7453,948,1149,1150
7454,1150,949,948
7455,3472,3681,3682
7456,3682,3473,3472
7457,3476,3475,3684
7458,3684,3685,3476
7459,4365,4367,3996
7460,3996,3995,4365
7461,4197,4097,4098
7462,4098,4198,4197
7463,4359,4361,3993
7464,3993,3992,4359
7465,4094,4095,4195
7466,4195,4194,4094
7467,4725,4622,4369
7468,4621,4725,4369
7469,4369,4367,4621
7470,4517,4413,4198
7471,4414,4517,4198
7472,4198,4199,4414
7473,4517,4414,4833
7474,4833,4932,4517
7475,4520,4416,4201
7476,4417,4520,4201
7477,4201,4202,4417
7478,4520,4935,4835
7479,4835,4416,4520
7480,4520,4417,4836
7481,4836,4935,4520
7482,4412,4197,4198
7483,4198,4516,4412
7484,4198,4413,4516
7485,4513,4409,4194
7486,4410,4513,4194
7487,4194,4195,4410
7488,1161,1160,1376
7489,1376,1377,1161
7490,1162,961,960
7491,960,1161,1162
7492,1379,1163,1162
7493,1162,1378,1379
7494,1379,1378,1592
7495,1592,1593,1379
7496,1804,1594,1593
7497,1593,1803,1804
7498,1593,1594,1380
7499,1380,1379,1593
7500,1802,1803,1593
7501,1593,1592,1802
7502,962,961,1162
7503,1162,1163,962
7504,1163,1379,1380
7505,1380,1164,1163
7506,966,754,753
7507,753,965,966
7508,544,543,753
7509,753,754,544
7510,964,965,753
7511,753,752,964
7512,753,543,542
7513,542,752,753
7514,1165,1381,1382
7515,1382,1166,1165
7516,1382,1381,1595
7517,1595,1596,1382
7518,1595,1594,1804
7519,1804,1805,1595
7520,1381,1165,1164
7521,1164,1380,1381
7522,1380,1594,1595
7523,1595,1381,1380
7524,1805,1806,1596
7525,1596,1595,1805
7526,966,965,1166
7527,1166,1167,966
7528,964,1165,1166
7529,1166,965,964
7530,3488,3697,3698
7531,3698,3489,3488
7532,3492,3491,3700
7533,3700,3701,3492
7534,4292,4012,4011
7535,4011,4291,4292
7536,4213,4113,4114
7537,4114,4214,4213
7538,4009,4008,4288
7539,4288,4289,4009
7540,4110,4111,4211
7541,4211,4210,4110
7542,4533,4429,4214
7543,4430,4533,4214
7544,4214,4215,4430
7545,4533,4430,4849
7546,4849,4948,4533
7547,4641,4296,4295
7548,4295,4744,4641
7549,4295,4640,4744
7550,4432,4217,4218
7551,4218,4536,4432
7552,4218,4433,4536
7553,4536,4951,4851
7554,4851,4432,4536
7555,4428,4213,4214
7556,4214,4532,4428
7557,4214,4429,4532
7558,4532,4429,4848
7559,4848,4947,4532
7560,4529,4425,4210
7561,4426,4529,4210
7562,4210,4211,4426
7563,4529,4944,4844
7564,4844,4425,4529
7565,1178,977,976
7566,976,1177,1178
7567,1395,1179,1178
7568,1178,1394,1395
7569,1394,1608,1609
7570,1609,1395,1394
7571,1819,1820,1610
7572,1610,1609,1819
7573,1179,1395,1396
7574,1396,1180,1179
7575,1396,1395,1609
7576,1609,1610,1396
7577,1609,1608,1818
7578,1818,1819,1609
7579,978,977,1178
7580,1178,1179,978
7581,982,770,769
7582,769,981,982
7583,980,981,769
7584,769,768,980
7585,769,559,558
7586,558,768,769
7587,1398,1182,1181
7588,1181,1397,1398
7589,1398,1397,1611
7590,1611,1612,1398
7591,1820,1821,1611
7592,1611,1610,1820
7593,1396,1610,1611
7594,1611,1397,1396
7595,1822,1612,1611
7596,1611,1821,1822
7597,1184,1183,1399
7598,1399,1400,1184
7599,1182,1183,982
7600,982,981,1182
7601,1180,1396,1397
7602,1397,1181,1180
7603,980,1181,1182
7604,1182,981,980
7605,3504,3713,3714
7606,3714,3505,3504
7607,3508,3507,3716
7608,3716,3717,3508
7609,4308,4028,4027
7610,4027,4307,4308
7611,4229,4129,4130
7612,4130,4230,4229
7613,4304,4305,4025
7614,4025,4024,4304
7615,4126,4127,4227
7616,4227,4226,4126
7617,4757,4654,4309
7618,4653,4757,4309
7619,4309,4308,4653
7620,4549,4445,4230
7621,4446,4549,4230
7622,4230,4231,4446
7623,4549,4446,4865
7624,4865,4964,4549
7625,4552,4448,4233
7626,4449,4552,4233
7627,4233,4234,4449
7628,4552,4967,4867
7629,4867,4448,4552
7630,4552,4449,4868
7631,4868,4967,4552
7632,4548,4444,4229
7633,4445,4548,4229
7634,4229,4230,4445
7635,4545,4441,4226
7636,4442,4545,4226
7637,4226,4227,4442
7638,1192,1408,1409
7639,1409,1193,1192
7640,1194,993,992
7641,992,1193,1194
7642,1410,1411,1195
7643,1195,1194,1410
7644,1410,1624,1625
7645,1625,1411,1410
7646,1836,1626,1625
7647,1625,1835,1836
7648,1412,1411,1625
7649,1625,1626,1412
7650,1834,1835,1625
7651,1625,1624,1834
7652,994,993,1194
7653,1194,1195,994
7654,1196,1195,1411
7655,1411,1412,1196
7656,998,786,785
7657,785,997,998
7658,785,786,576
7659,576,575,785
7660,996,997,785
7661,785,784,996
7662,785,575,574
7663,574,784,785
7664,1414,1198,1197
7665,1197,1413,1414
7666,1414,1413,1627
7667,1627,1628,1414
7668,1836,1837,1627
7669,1627,1626,1836
7670,1412,1413,1197
7671,1197,1196,1412
7672,1412,1626,1627
7673,1627,1413,1412
7674,1838,1628,1627
7675,1627,1837,1838
7676,1200,1199,1415
7677,1415,1416,1200
7678,1198,1199,998
7679,998,997,1198
7680,996,1197,1198
7681,1198,997,996
7682,3520,3729,3730
7683,3730,3521,3520
7684,3524,3523,3732
7685,3732,3733,3524
7686,4324,4044,4043
7687,4043,4323,4324
7688,4245,4145,4146
7689,4146,4246,4245
7690,4320,4321,4041
7691,4041,4040,4320
7692,4142,4143,4243
7693,4243,4242,4142
7694,4461,4246,4247
7695,4247,4565,4461
7696,4247,4462,4565
7697,4565,4462,4881
7698,4881,4980,4565
7699,4776,4673,4328
7700,4672,4776,4328
7701,4328,4327,4672
7702,4464,4249,4250
7703,4250,4568,4464
7704,4250,4465,4568
7705,4568,4983,4883
7706,4883,4464,4568
7707,4564,4460,4245
7708,4461,4564,4245
7709,4245,4246,4461
7710,4564,4461,4880
7711,4880,4979,4564
7712,4561,4457,4242
7713,4458,4561,4242
7714,4242,4243,4458
7715,4561,4976,4876
7716,4876,4457,4561
7717,1425,1209,1208
7718,1208,1424,1425
7719,1209,1210,1009
7720,1009,1008,1209
7721,1427,1211,1210
7722,1210,1426,1427
7723,1426,1640,1641
7724,1641,1427,1426
7725,1852,1642,1641
7726,1641,1851,1852
7727,1211,1427,1428
7728,1428,1212,1211
7729,1428,1427,1641
7730,1641,1642,1428
7731,1850,1851,1641
7732,1641,1640,1850
7733,1010,1009,1210
7734,1210,1211,1010
7735,1014,802,801
7736,801,1013,1014
7737,1012,1013,801
7738,801,800,1012
7739,801,591,590
7740,590,800,801
7741,1430,1214,1213
7742,1213,1429,1430
7743,1430,1429,1643
7744,1643,1644,1430
7745,1853,1643,1642
7746,1642,1852,1853
7747,1428,1642,1643
7748,1643,1429,1428
7749,1643,1853,1854
7750,1854,1644,1643
7751,1216,1215,1431
7752,1431,1432,1216
7753,1214,1215,1014
7754,1014,1013,1214
7755,1212,1428,1429
7756,1429,1213,1212
7757,1213,1214,1013
7758,1013,1012,1213
7759,3536,3745,3746
7760,3746,3537,3536
7761,3540,3539,3748
7762,3748,3749,3540
7763,4385,4060,4059
7764,4059,4387,4385
7765,4161,4162,4262
7766,4262,4261,4161
7767,4057,4056,4336
7768,4336,4391,4057
7769,4259,4258,4158
7770,4158,4159,4259
7771,4789,4686,4383
7772,4685,4789,4383
7773,4383,4385,4685
7774,4581,4477,4262
7775,4478,4581,4262
7776,4262,4263,4478
7777,4581,4478,4897
7778,4897,4996,4581
7779,4480,4265,4266
7780,4266,4584,4480
7781,4266,4481,4584
7782,4584,4999,4899
7783,4899,4480,4584
7784,4584,4481,4900
7785,4900,4999,4584
7786,4476,4261,4262
7787,4262,4580,4476
7788,4262,4477,4580
7789,4473,4258,4259
7790,4259,4577,4473
7791,4259,4474,4577
7792,1225,1224,1440
7793,1440,1441,1225
7794,1226,1025,1024
7795,1024,1225,1226
7796,1227,1226,1442
7797,1442,1443,1227
7798,1442,1656,1657
7799,1657,1443,1442
7800,1868,1658,1657
7801,1657,1867,1868
7802,1444,1443,1657
7803,1657,1658,1444
7804,1866,1867,1657
7805,1657,1656,1866
7806,1026,1025,1226
7807,1226,1227,1026
7808,1443,1444,1228
7809,1228,1227,1443
7810,1030,818,817
7811,817,1029,1030
7812,608,607,817
7813,817,818,608
7814,1028,1029,817
7815,817,816,1028
7816,817,607,606
7817,606,816,817
7818,1445,1446,1230
7819,1230,1229,1445
7820,1445,1659,1660
7821,1660,1446,1445
7822,1868,1869,1659
7823,1659,1658,1868
7824,1229,1228,1444
7825,1444,1445,1229
7826,1659,1445,1444
7827,1444,1658,1659
7828,1870,1660,1659
7829,1659,1869,1870
7830,1231,1030,1029
7831,1029,1230,1231
7832,1028,1229,1230
7833,1230,1029,1028
7834,3553,3552,3761
7835,3761,3762,3553
7836,3556,3555,3764
7837,3764,3765,3556
7838,4352,4076,4075
7839,4075,4354,4352
7840,4277,4177,4178
7841,4178,4278,4277
7842,4358,4073,4072
7843,4072,4360,4358
7844,4275,4274,4174
7845,4174,4175,4275
7846,4597,4493,4278
7847,4494,4597,4278
7848,4278,4279,4494
7849,4597,4494,4913
7850,4913,5012,4597
7851,4808,4705,4342
7852,4704,4808,4342
7853,4342,4345,4704
7854,4600,4496,4281
7855,4399,4600,4281
7856,4281,4282,4399
7857,4600,5015,4915
7858,4915,4496,4600
7859,4492,4277,4278
7860,4278,4596,4492
7861,4278,4493,4596
7862,4596,4493,4912
7863,4912,5011,4596
7864,4593,4489,4274
7865,4490,4593,4274
7866,4274,4275,4490
7867,4593,5008,4908
7868,4908,4489,4593
7869,1259,1258,1046
7870,1046,1047,1259
7871,837,838,1046
7872,1046,1045,837
7873,839,1047,1046
7874,1046,838,839
7875,1257,1045,1046
7876,1046,1258,1257
7877,1684,1471,1481
7878,1481,1685,1684
7879,1482,1481,1260
7880,1260,1261,1482
7881,424,423,217
7882,217,218,424
7883,113,114,217
7884,217,216,113
7885,113,10,11
7886,11,114,113
7887,422,216,217
7888,217,423,422
7889,115,218,217
7890,217,114,115
7891,115,114,11
7892,11,12,115
7893,424,425,636
7894,636,635,424
7895,845,844,636
7896,636,637,845
7897,843,635,636
7898,636,844,843
7899,426,637,636
7900,636,425,426
7901,1687,1483,1484
7902,1484,1688,1687
7903,1263,1051,1052
7904,1052,1264,1263
7905,845,1053,1052
7906,1052,844,845
7907,843,844,1052
7908,1052,1051,843
7909,1265,1264,1052
7910,1052,1053,1265
7911,1890,1684,1685
7912,1685,1891,1890
7913,1892,2108,2107
7914,2107,1891,1892
7915,1894,1893,1687
7916,1687,1688,1894
7917,2109,2108,1892
7918,1892,1893,2109
7919,2108,2109,2319
7920,2319,2318,2108
7921,2109,2110,2320
7922,2320,2319,2109
7923,428,222,223
7924,223,429,428
7925,120,121,224
7926,224,223,120
7927,120,17,18
7928,18,121,120
7929,533,327,326
7930,326,532,533
7931,430,429,223
7932,223,224,430
7933,223,222,119
7934,119,120,223
7935,17,120,119
7936,119,16,17
7937,531,532,326
7938,326,325,531
7939,428,639,638
7940,638,427,428
7941,845,637,638
7942,638,846,845
7943,426,427,638
7944,638,637,426
7945,847,846,638
7946,638,639,847
7947,533,532,742
7948,742,743,533
7949,531,741,742
7950,742,532,531
7951,1271,1059,1060
7952,1060,1272,1271
7953,853,1061,1060
7954,1060,852,853
7955,851,852,1060
7956,1060,1059,851
7957,1273,1272,1060
7958,1060,1061,1273
7959,1695,1491,1492
7960,1492,1696,1695
7961,1267,1266,1054
7962,1054,1055,1267
7963,845,846,1054
7964,1054,1053,845
7965,1265,1053,1054
7966,1054,1266,1265
7967,847,1055,1054
7968,1054,846,847
7969,1693,1692,1488
7970,1488,1489,1693
7971,1490,1489,1268
7972,1268,1269,1490
7973,1901,1695,1696
7974,1696,1902,1901
7975,2117,2116,1900
7976,1900,1901,2117
7977,2116,2117,2327
7978,2327,2326,2116
7979,1898,1692,1693
7980,1693,1899,1898
7981,2115,1899,1900
7982,1900,2116,2115
7983,2115,2116,2326
7984,2326,2325,2115
7985,2325,2324,2114
7986,2114,2115,2325
7987,2211,2210,2422
7988,2422,2423,2211
7989,2211,2212,2091
7990,2091,2089,2211
7991,2210,2211,2089
7992,2089,2087,2210
7993,2089,2091,1788
7994,1788,1787,2089
7995,2087,2089,1787
7996,1787,1786,2087
7997,2422,2210,2209
7998,2209,2421,2422
7999,3033,3036,2840
8000,2840,2839,3033
8001,3050,3051,3156
8002,3156,3155,3050
8003,3052,3051,2738
8004,2738,2739,3052
8005,3036,3259,3260
8006,3260,3038,3036
8007,3470,3471,3260
8008,3260,3259,3470
8009,3033,3258,3259
8010,3259,3036,3033
8011,3470,3259,3258
8012,3258,3469,3470
8013,3050,2737,2738
8014,2738,3051,3050
8015,3036,3038,2841
8016,2841,2840,3036
8017,2426,2214,2213
8018,2213,2425,2426
8019,2213,2214,1991
8020,1991,1990,2213
8021,1990,1789,1788
8022,1788,2091,1990
8023,1990,1991,1790
8024,1790,1789,1990
8025,2212,2213,1990
8026,1990,2091,2212
8027,2426,2427,2215
8028,2215,2214,2426
8029,741,531,530
8030,530,740,741
8031,952,953,741
8032,741,740,952
8033,742,741,953
8034,953,954,742
8035,1160,1159,1375
8036,1375,1376,1160
8037,1158,1159,958
8038,958,957,1158
8039,1374,1373,1587
8040,1587,1588,1374
8041,1796,1797,1587
8042,1587,1586,1796
8043,1372,1586,1587
8044,1587,1373,1372
8045,1798,1588,1587
8046,1587,1797,1798
8047,956,1157,1158
8048,1158,957,956
8049,1156,1372,1373
8050,1373,1157,1156
8051,1153,1152,1368
8052,1368,1369,1153
8053,1154,953,952
8054,952,1153,1154
8055,1370,1584,1585
8056,1585,1371,1370
8057,1796,1586,1585
8058,1585,1795,1796
8059,1372,1371,1585
8060,1585,1586,1372
8061,1794,1795,1585
8062,1585,1584,1794
8063,1155,954,953
8064,953,1154,1155
8065,1156,1155,1371
8066,1371,1372,1156
8067,2941,2845,2844
8068,2844,2940,2941
8069,3161,3160,3055
8070,3055,3056,3161
8071,2741,2742,3055
8072,3055,3054,2741
8073,2940,2939,3262
8074,3262,3263,2940
8075,3474,3263,3262
8076,3262,3473,3474
8077,2941,2940,3263
8078,3263,3264,2941
8079,3474,3475,3264
8080,3264,3263,3474
8081,2743,3056,3055
8082,3055,2742,2743
8083,2939,2940,2844
8084,2844,2843,2939
8085,2434,2222,2221
8086,2221,2433,2434
8087,2221,2222,1999
8088,1999,1998,2221
8089,1796,1997,1998
8090,1998,1797,1796
8091,1798,1797,1998
8092,1998,1999,1798
8093,1998,1997,2220
8094,2220,2221,1998
8095,2434,2435,2223
8096,2223,2222,2434
8097,2219,2218,2430
8098,2430,2431,2219
8099,2219,1996,1995
8100,1995,2218,2219
8101,1996,1997,1796
8102,1796,1795,1996
8103,1795,1794,1995
8104,1995,1996,1795
8105,1996,2219,2220
8106,2220,1997,1996
8107,2430,2218,2217
8108,2217,2429,2430
8109,1275,1274,1062
8110,1062,1063,1275
8111,853,854,1062
8112,1062,1061,853
8113,855,1063,1062
8114,1062,854,855
8115,1273,1061,1062
8116,1062,1274,1273
8117,1497,1701,1700
8118,1700,1496,1497
8119,439,233,234
8120,234,440,439
8121,129,130,233
8122,233,232,129
8123,129,26,27
8124,27,130,129
8125,233,439,438
8126,438,232,233
8127,131,234,233
8128,233,130,131
8129,131,130,27
8130,27,28,131
8131,441,652,651
8132,651,440,441
8133,861,860,652
8134,652,653,861
8135,859,651,652
8136,652,860,859
8137,652,441,442
8138,442,653,652
8139,1703,1499,1500
8140,1500,1704,1703
8141,1499,1498,1277
8142,1277,1278,1499
8143,1280,1279,1067
8144,1067,1068,1280
8145,861,1069,1068
8146,1068,860,861
8147,859,860,1068
8148,1068,1067,859
8149,1068,1069,1281
8150,1281,1280,1068
8151,1906,1700,1701
8152,1701,1907,1906
8153,1907,1908,2124
8154,2124,2123,1907
8155,2333,2123,2124
8156,2124,2334,2333
8157,2123,2333,2332
8158,2332,2122,2123
8159,1909,1703,1704
8160,1704,1910,1909
8161,2125,2124,1908
8162,1908,1909,2125
8163,2335,2125,2126
8164,2126,2336,2335
8165,445,444,238
8166,238,239,445
8167,137,240,239
8168,239,136,137
8169,137,136,33
8170,33,34,137
8171,549,343,342
8172,342,548,549
8173,239,240,446
8174,446,445,239
8175,135,136,239
8176,239,238,135
8177,135,32,33
8178,33,136,135
8179,547,548,342
8180,342,341,547
8181,654,443,444
8182,444,655,654
8183,756,546,545
8184,545,755,756
8185,862,861,653
8186,653,654,862
8187,443,654,653
8188,653,442,443
8189,654,655,863
8190,863,862,654
8191,1076,1288,1287
8192,1287,1075,1076
8193,869,1077,1076
8194,1076,868,869
8195,867,868,1076
8196,1076,1075,867
8197,1288,1076,1077
8198,1077,1289,1288
8199,1711,1507,1508
8200,1508,1712,1711
8201,1283,1282,1070
8202,1070,1071,1283
8203,861,862,1070
8204,1070,1069,861
8205,1281,1069,1070
8206,1070,1282,1281
8207,863,1071,1070
8208,1070,862,863
8209,1505,1709,1708
8210,1708,1504,1505
8211,1284,1285,1506
8212,1506,1505,1284
8213,1918,1917,1711
8214,1711,1712,1918
8215,1917,2133,2132
8216,2132,1916,1917
8217,1914,1708,1709
8218,1709,1915,1914
8219,2131,1915,1916
8220,1916,2132,2131
8221,2131,2132,2342
8222,2342,2341,2131
8223,2130,2131,2341
8224,2341,2340,2130
8225,2227,2226,2438
8226,2438,2439,2227
8227,2227,2004,2003
8228,2003,2226,2227
8229,1804,1803,2004
8230,2004,2005,1804
8231,1802,2003,2004
8232,2004,1803,1802
8233,2004,2227,2228
8234,2228,2005,2004
8235,2437,2438,2226
8236,2226,2225,2437
8237,2951,2952,2856
8238,2856,2855,2951
8239,3172,3399,3398
8240,3398,3171,3172
8241,3066,3067,3172
8242,3172,3171,3066
8243,2755,3068,3067
8244,3067,2754,2755
8245,2953,2952,3275
8246,3275,3276,2953
8247,3486,3487,3276
8248,3276,3275,3486
8249,2951,3274,3275
8250,3275,2952,2951
8251,3485,3486,3275
8252,3275,3274,3485
8253,2753,2754,3067
8254,3067,3066,2753
8255,2857,2856,2952
8256,2952,2953,2857
8257,2442,2230,2229
8258,2229,2441,2442
8259,2229,2230,2007
8260,2007,2006,2229
8261,2006,1805,1804
8262,1804,2005,2006
8263,1805,2006,2007
8264,2007,1806,1805
8265,2006,2005,2228
8266,2228,2229,2006
8267,2231,2230,2442
8268,2442,2443,2231
8269,546,756,757
8270,757,547,546
8271,968,969,757
8272,757,756,968
8273,548,547,757
8274,757,758,548
8275,970,758,757
8276,757,969,970
8277,1174,1175,974
8278,974,973,1174
8279,1173,1389,1390
8280,1390,1174,1173
8281,1390,1389,1603
8282,1603,1604,1390
8283,1603,1602,1812
8284,1812,1813,1603
8285,1389,1173,1172
8286,1172,1388,1389
8287,1388,1602,1603
8288,1603,1389,1388
8289,1813,1814,1604
8290,1604,1603,1813
8291,1173,1174,973
8292,973,972,1173
8293,1169,1168,1384
8294,1384,1385,1169
8295,1170,969,968
8296,968,1169,1170
8297,1386,1387,1171
8298,1171,1170,1386
8299,1386,1600,1601
8300,1601,1387,1386
8301,1812,1602,1601
8302,1601,1811,1812
8303,1388,1387,1601
8304,1601,1602,1388
8305,1810,1811,1601
8306,1601,1600,1810
8307,970,969,1170
8308,1170,1171,970
8309,1172,1171,1387
8310,1387,1388,1172
8311,2860,2956,2957
8312,2957,2861,2860
8313,3177,3404,3403
8314,3403,3176,3177
8315,3177,3176,3071
8316,3071,3072,3177
8317,3070,2757,2758
8318,2758,3071,3070
8319,2955,3278,3279
8320,3279,2956,2955
8321,3490,3279,3278
8322,3278,3489,3490
8323,2957,2956,3279
8324,3279,3280,2957
8325,3490,3491,3280
8326,3280,3279,3490
8327,2759,3072,3071
8328,3071,2758,2759
8329,2955,2956,2860
8330,2860,2859,2955
8331,2449,2450,2238
8332,2238,2237,2449
8333,2237,2238,2015
8334,2015,2014,2237
8335,2236,2237,2014
8336,2014,2013,2236
8337,2014,1813,1812
8338,1812,2013,2014
8339,1813,2014,2015
8340,2015,1814,1813
8341,2450,2451,2239
8342,2239,2238,2450
8343,2235,2234,2446
8344,2446,2447,2235
8345,2234,2235,2012
8346,2012,2011,2234
8347,2235,2236,2013
8348,2013,2012,2235
8349,1812,1811,2012
8350,2012,2013,1812
8351,1810,2011,2012
8352,2012,1811,1810
8353,2446,2234,2233
8354,2233,2445,2446
8355,1291,1290,1078
8356,1078,1079,1291
8357,869,870,1078
8358,1078,1077,869
8359,871,1079,1078
8360,1078,870,871
8361,1289,1077,1078
8362,1078,1290,1289
8363,1717,1716,1512
8364,1512,1513,1717
8365,1513,1292,1293
8366,1293,1514,1513
8367,456,455,249
8368,249,250,456
8369,145,146,249
8370,249,248,145
8371,145,42,43
8372,43,146,145
8373,454,248,249
8374,249,455,454
8375,147,250,249
8376,249,146,147
8377,147,146,43
8378,43,44,147
8379,456,457,668
8380,668,667,456
8381,877,876,668
8382,668,669,877
8383,875,667,668
8384,668,876,875
8385,458,669,668
8386,668,457,458
8387,1719,1515,1516
8388,1516,1720,1719
8389,1515,1514,1293
8390,1293,1294,1515
8391,1295,1083,1084
8392,1084,1296,1295
8393,877,1085,1084
8394,1084,876,877
8395,875,876,1084
8396,1084,1083,875
8397,1297,1296,1084
8398,1084,1085,1297
8399,1922,1716,1717
8400,1717,1923,1922
8401,2139,1923,1924
8402,1924,2140,2139
8403,2139,2140,2350
8404,2350,2349,2139
8405,2349,2348,2138
8406,2138,2139,2349
8407,1926,1925,1719
8408,1719,1720,1926
8409,2141,2140,1924
8410,1924,1925,2141
8411,460,254,255
8412,255,461,460
8413,153,256,255
8414,255,152,153
8415,153,152,49
8416,49,50,153
8417,565,359,358
8418,358,564,565
8419,462,461,255
8420,255,256,462
8421,151,152,255
8422,255,254,151
8423,151,48,49
8424,49,152,151
8425,563,564,358
8426,358,357,563
8427,460,671,670
8428,670,459,460
8429,877,669,670
8430,670,878,877
8431,458,459,670
8432,670,669,458
8433,879,878,670
8434,670,671,879
8435,565,564,774
8436,774,775,565
8437,1303,1091,1092
8438,1092,1304,1303
8439,1093,1092,884
8440,884,885,1093
8441,883,884,1092
8442,1092,1091,883
8443,1093,1305,1304
8444,1304,1092,1093
8445,1727,1523,1524
8446,1524,1728,1727
8447,1299,1298,1086
8448,1086,1087,1299
8449,877,878,1086
8450,1086,1085,877
8451,1297,1085,1086
8452,1086,1298,1297
8453,879,1087,1086
8454,1086,878,879
8455,1725,1724,1520
8456,1520,1521,1725
8457,1522,1521,1300
8458,1300,1301,1522
8459,1934,1933,1727
8460,1727,1728,1934
8461,1932,1933,2149
8462,2149,2148,1932
8463,2148,2149,2359
8464,2359,2358,2148
8465,1930,1724,1725
8466,1725,1931,1930
8467,2147,1931,1932
8468,1932,2148,2147
8469,2147,2148,2358
8470,2358,2357,2147
8471,2146,2147,2357
8472,2357,2356,2146
8473,2454,2455,2243
8474,2243,2242,2454
8475,2242,2243,2020
8476,2020,2019,2242
8477,1819,2020,2021
8478,2021,1820,1819
8479,2020,1819,1818
8480,1818,2019,2020
8481,2021,2020,2243
8482,2243,2244,2021
8483,2454,2242,2241
8484,2241,2453,2454
8485,2872,2871,2967
8486,2967,2968,2872
8487,3188,3415,3414
8488,3414,3187,3188
8489,3082,3083,3188
8490,3188,3187,3082
8491,3084,3083,2770
8492,2770,2771,3084
8493,3292,2969,2968
8494,2968,3291,3292
8495,3502,3503,3292
8496,3292,3291,3502
8497,2968,2967,3290
8498,3290,3291,2968
8499,3502,3291,3290
8500,3290,3501,3502
8501,3082,2769,2770
8502,2770,3083,3082
8503,2872,2968,2969
8504,2969,2873,2872
8505,2458,2246,2245
8506,2245,2457,2458
8507,2245,2246,2023
8508,2023,2022,2245
8509,2244,2245,2022
8510,2022,2021,2244
8511,1820,2021,2022
8512,2022,1821,1820
8513,1822,1821,2022
8514,2022,2023,1822
8515,2458,2459,2247
8516,2247,2246,2458
8517,773,563,562
8518,562,772,773
8519,984,985,773
8520,773,772,984
8521,773,774,564
8522,564,563,773
8523,773,985,986
8524,986,774,773
8525,1190,1191,990
8526,990,989,1190
8527,1406,1405,1619
8528,1619,1620,1406
8529,1828,1829,1619
8530,1619,1618,1828
8531,1404,1405,1189
8532,1189,1188,1404
8533,1404,1618,1619
8534,1619,1405,1404
8535,1830,1620,1619
8536,1619,1829,1830
8537,1190,989,988
8538,988,1189,1190
8539,1186,985,984
8540,984,1185,1186
8541,1402,1403,1187
8542,1187,1186,1402
8543,1402,1616,1617
8544,1617,1403,1402
8545,1828,1618,1617
8546,1617,1827,1828
8547,1404,1188,1187
8548,1187,1403,1404
8549,1404,1403,1617
8550,1617,1618,1404
8551,1826,1827,1617
8552,1617,1616,1826
8553,986,985,1186
8554,1186,1187,986
8555,2876,2972,2973
8556,2973,2877,2876
8557,3192,3193,3420
8558,3420,3419,3192
8559,3192,3087,3088
8560,3088,3193,3192
8561,3087,3086,2773
8562,2773,2774,3087
8563,2972,2971,3294
8564,3294,3295,2972
8565,3506,3295,3294
8566,3294,3505,3506
8567,2973,2972,3295
8568,3295,3296,2973
8569,3506,3507,3296
8570,3296,3295,3506
8571,3088,3087,2774
8572,2774,2775,3088
8573,2971,2972,2876
8574,2876,2875,2971
8575,2466,2254,2253
8576,2253,2465,2466
8577,2252,2253,2030
8578,2030,2029,2252
8579,2031,2030,2253
8580,2253,2254,2031
8581,1828,2029,2030
8582,2030,1829,1828
8583,1830,1829,2030
8584,2030,2031,1830
8585,2466,2467,2255
8586,2255,2254,2466
8587,2251,2250,2462
8588,2462,2463,2251
8589,2251,2252,2029
8590,2029,2028,2251
8591,2028,2027,2250
8592,2250,2251,2028
8593,1828,1827,2028
8594,2028,2029,1828
8595,1826,2027,2028
8596,2028,1827,1826
8597,2462,2250,2249
8598,2249,2461,2462
8599,1307,1306,1094
8600,1094,1095,1307
8601,885,886,1094
8602,1094,1093,885
8603,887,1095,1094
8604,1094,886,887
8605,1305,1093,1094
8606,1094,1306,1305
8607,1733,1732,1528
8608,1528,1529,1733
8609,472,471,265
8610,265,266,472
8611,161,162,265
8612,265,264,161
8613,161,58,59
8614,59,162,161
8615,470,264,265
8616,265,471,470
8617,163,266,265
8618,265,162,163
8619,163,162,59
8620,59,60,163
8621,472,473,684
8622,684,683,472
8623,893,892,684
8624,684,685,893
8625,891,683,684
8626,684,892,891
8627,474,685,684
8628,684,473,474
8629,1735,1531,1532
8630,1532,1736,1735
8631,1531,1530,1309
8632,1309,1310,1531
8633,1311,1099,1100
8634,1100,1312,1311
8635,893,1101,1100
8636,1100,892,893
8637,891,892,1100
8638,1100,1099,891
8639,1313,1312,1100
8640,1100,1101,1313
8641,1938,1732,1733
8642,1733,1939,1938
8643,1940,2156,2155
8644,2155,1939,1940
8645,1942,1941,1735
8646,1735,1736,1942
8647,2157,2156,1940
8648,1940,1941,2157
8649,2156,2157,2367
8650,2367,2366,2156
8651,2157,2158,2368
8652,2368,2367,2157
8653,476,270,271
8654,271,477,476
8655,169,272,271
8656,271,168,169
8657,169,168,65
8658,65,66,169
8659,581,375,374
8660,374,580,581
8661,478,477,271
8662,271,272,478
8663,167,168,271
8664,271,270,167
8665,167,64,65
8666,65,168,167
8667,579,580,374
8668,374,373,579
8669,476,687,686
8670,686,475,476
8671,577,787,788
8672,788,578,577
8673,893,685,686
8674,686,894,893
8675,474,475,686
8676,686,685,474
8677,895,894,686
8678,686,687,895
8679,579,578,788
8680,788,789,579
8681,1320,1319,1107
8682,1107,1108,1320
8683,901,1109,1108
8684,1108,900,901
8685,899,900,1108
8686,1108,1107,899
8687,1108,1109,1321
8688,1321,1320,1108
8689,1743,1539,1540
8690,1540,1744,1743
8691,1538,1317,1318
8692,1318,1539,1538
8693,1315,1314,1102
8694,1102,1103,1315
8695,893,894,1102
8696,1102,1101,893
8697,1313,1101,1102
8698,1102,1314,1313
8699,895,1103,1102
8700,1102,894,895
8701,1741,1740,1536
8702,1536,1537,1741
8703,1950,1949,1743
8704,1743,1744,1950
8705,1948,1949,2165
8706,2165,2164,1948
8707,2164,2165,2375
8708,2375,2374,2164
8709,2165,2166,2376
8710,2376,2375,2165
8711,1946,1740,1741
8712,1741,1947,1946
8713,2163,1947,1948
8714,1948,2164,2163
8715,2470,2471,2259
8716,2259,2258,2470
8717,2258,2259,2036
8718,2036,2035,2258
8719,2259,2260,2037
8720,2037,2036,2259
8721,1836,1835,2036
8722,2036,2037,1836
8723,1834,2035,2036
8724,2036,1835,1834
8725,2470,2258,2257
8726,2257,2469,2470
8727,2888,2887,2983
8728,2983,2984,2888
8729,3204,3431,3430
8730,3430,3203,3204
8731,3098,3099,3204
8732,3204,3203,3098
8733,3100,3099,2786
8734,2786,2787,3100
8735,2985,2984,3307
8736,3307,3308,2985
8737,3518,3519,3308
8738,3308,3307,3518
8739,2984,2983,3306
8740,3306,3307,2984
8741,3518,3307,3306
8742,3306,3517,3518
8743,3098,2785,2786
8744,2786,3099,3098
8745,2888,2984,2985
8746,2985,2889,2888
8747,2474,2262,2261
8748,2261,2473,2474
8749,2260,2261,2038
8750,2038,2037,2260
8751,2039,2038,2261
8752,2261,2262,2039
8753,1836,2037,2038
8754,2038,1837,1836
8755,1838,1837,2038
8756,2038,2039,1838
8757,2474,2475,2263
8758,2263,2262,2474
8759,1000,1001,789
8760,789,788,1000
8761,789,790,580
8762,580,579,789
8763,789,1001,1002
8764,1002,790,789
8765,1207,1423,1424
8766,1424,1208,1207
8767,1206,1207,1006
8768,1006,1005,1206
8769,1422,1206,1205
8770,1205,1421,1422
8771,1421,1635,1636
8772,1636,1422,1421
8773,1635,1634,1844
8774,1844,1845,1635
8775,1635,1421,1420
8776,1420,1634,1635
8777,1845,1846,1636
8778,1636,1635,1845
8779,1206,1005,1004
8780,1004,1205,1206
8781,1204,1420,1421
8782,1421,1205,1204
8783,1201,1200,1416
8784,1416,1417,1201
8785,1202,1001,1000
8786,1000,1201,1202
8787,1418,1419,1203
8788,1203,1202,1418
8789,1418,1632,1633
8790,1633,1419,1418
8791,1844,1634,1633
8792,1633,1843,1844
8793,1420,1204,1203
8794,1203,1419,1420
8795,1420,1419,1633
8796,1633,1634,1420
8797,1842,1843,1633
8798,1633,1632,1842
8799,1002,1001,1202
8800,1202,1203,1002
8801,2892,2988,2989
8802,2989,2893,2892
8803,3208,3103,3104
8804,3104,3209,3208
8805,3103,3102,2789
8806,2789,2790,3103
8807,2988,2987,3310
8808,3310,3311,2988
8809,3522,3311,3310
8810,3310,3521,3522
8811,2989,2988,3311
8812,3311,3312,2989
8813,3522,3523,3312
8814,3312,3311,3522
8815,3104,3103,2790
8816,2790,2791,3104
8817,2987,2988,2892
8818,2892,2891,2987
8819,2269,2481,2482
8820,2482,2270,2269
8821,2269,2270,2047
8822,2047,2046,2269
8823,2046,1845,1844
8824,1844,2045,2046
8825,1845,2046,2047
8826,2047,1846,1845
8827,2046,2045,2268
8828,2268,2269,2046
8829,2482,2483,2271
8830,2271,2270,2482
8831,2267,2266,2478
8832,2478,2479,2267
8833,2266,2267,2044
8834,2044,2043,2266
8835,1844,1843,2044
8836,2044,2045,1844
8837,1842,2043,2044
8838,2044,1843,1842
8839,2045,2044,2267
8840,2267,2268,2045
8841,2478,2266,2265
8842,2265,2477,2478
8843,1322,1110,1111
8844,1111,1323,1322
8845,901,902,1110
8846,1110,1109,901
8847,903,1111,1110
8848,1110,902,903
8849,1110,1322,1321
8850,1321,1109,1110
8851,1545,1749,1748
8852,1748,1544,1545
8853,1546,1545,1324
8854,1324,1325,1546
8855,488,487,281
8856,281,282,488
8857,177,178,281
8858,281,280,177
8859,177,74,75
8860,75,178,177
8861,486,280,281
8862,281,487,486
8863,179,282,281
8864,281,178,179
8865,179,178,75
8866,75,76,179
8867,488,489,700
8868,700,699,488
8869,909,908,700
8870,700,701,909
8871,907,699,700
8872,700,908,907
8873,490,701,700
8874,700,489,490
8875,1751,1547,1548
8876,1548,1752,1751
8877,1327,1115,1116
8878,1116,1328,1327
8879,909,1117,1116
8880,1116,908,909
8881,907,908,1116
8882,1116,1115,907
8883,1329,1328,1116
8884,1116,1117,1329
8885,1955,1954,1748
8886,1748,1749,1955
8887,2171,1955,1956
8888,1956,2172,2171
8889,1958,1957,1751
8890,1751,1752,1958
8891,2173,2172,1956
8892,1956,1957,2173
8893,2172,2173,2383
8894,2383,2382,2172
8895,2173,2174,2384
8896,2384,2383,2173
8897,492,286,287
8898,287,493,492
8899,185,288,287
8900,287,184,185
8901,184,81,82
8902,82,185,184
8903,597,391,390
8904,390,596,597
8905,494,493,287
8906,287,288,494
8907,183,184,287
8908,287,286,183
8909,81,184,183
8910,183,80,81
8911,595,596,390
8912,390,389,595
8913,491,492,703
8914,703,702,491
8915,909,701,702
8916,702,910,909
8917,702,701,490
8918,490,491,702
8919,911,910,702
8920,702,703,911
8921,597,596,806
8922,806,807,597
8923,595,805,806
8924,806,596,595
8925,1335,1123,1124
8926,1124,1336,1335
8927,916,917,1125
8928,1125,1124,916
8929,1124,1123,915
8930,915,916,1124
8931,1337,1336,1124
8932,1124,1125,1337
8933,1759,1555,1556
8934,1556,1760,1759
8935,1331,1330,1118
8936,1118,1119,1331
8937,909,910,1118
8938,1118,1117,909
8939,1329,1117,1118
8940,1118,1330,1329
8941,911,1119,1118
8942,1118,910,911
8943,1757,1756,1552
8944,1552,1553,1757
8945,1554,1553,1332
8946,1332,1333,1554
8947,1966,1965,1759
8948,1759,1760,1966
8949,1964,1965,2181
8950,2181,2180,1964
8951,2180,2181,2391
8952,2391,2390,2180
8953,1757,1963,1962
8954,1962,1756,1757
8955,1963,1964,2180
8956,2180,2179,1963
8957,2389,2179,2180
8958,2180,2390,2389
8959,2179,2389,2388
8960,2388,2178,2179
8961,2275,2274,2486
8962,2486,2487,2275
8963,2275,2276,2053
8964,2053,2052,2275
8965,2052,2051,2274
8966,2274,2275,2052
8967,1852,1851,2052
8968,2052,2053,1852
8969,1850,2051,2052
8970,2052,1851,1850
8971,2485,2486,2274
8972,2274,2273,2485
8973,2999,3000,2904
8974,2904,2903,2999
8975,3219,3114,3115
8976,3115,3220,3219
8977,3116,3115,2802
8978,2802,2803,3116
8979,3001,3000,3323
8980,3323,3324,3001
8981,3534,3535,3324
8982,3324,3323,3534
8983,3000,2999,3322
8984,3322,3323,3000
8985,3322,3533,3534
8986,3534,3323,3322
8987,2801,2802,3115
8988,3115,3114,2801
8989,3001,2905,2904
8990,2904,3000,3001
8991,2490,2278,2277
8992,2277,2489,2490
8993,2277,2278,2055
8994,2055,2054,2277
8995,1853,1852,2053
8996,2053,2054,1853
8997,2054,2055,1854
8998,1854,1853,2054
8999,2054,2053,2276
9000,2276,2277,2054
9001,2491,2279,2278
9002,2278,2490,2491
9003,805,595,594
9004,594,804,805
9005,1016,1017,805
9006,805,804,1016
9007,805,1017,1018
9008,1018,806,805
9009,1439,1440,1224
9010,1224,1223,1439
9011,1222,1223,1022
9012,1022,1021,1222
9013,1437,1651,1652
9014,1652,1438,1437
9015,1651,1650,1860
9016,1860,1861,1651
9017,1651,1437,1436
9018,1436,1650,1651
9019,1861,1862,1652
9020,1652,1651,1861
9021,1222,1021,1020
9022,1020,1221,1222
9023,1220,1436,1437
9024,1437,1221,1220
9025,1433,1217,1216
9026,1216,1432,1433
9027,1218,1017,1016
9028,1016,1217,1218
9029,1434,1648,1649
9030,1649,1435,1434
9031,1860,1650,1649
9032,1649,1859,1860
9033,1436,1435,1649
9034,1649,1650,1436
9035,1858,1859,1649
9036,1649,1648,1858
9037,1018,1017,1218
9038,1218,1219,1018
9039,1220,1219,1435
9040,1435,1436,1220
9041,3005,2909,2908
9042,2908,3004,3005
9043,3224,3119,3120
9044,3120,3225,3224
9045,2805,2806,3119
9046,3119,3118,2805
9047,3326,3327,3004
9048,3004,3003,3326
9049,3538,3327,3326
9050,3326,3537,3538
9051,3005,3004,3327
9052,3327,3328,3005
9053,3538,3539,3328
9054,3328,3327,3538
9055,3120,3119,2806
9056,2806,2807,3120
9057,2907,3003,3004
9058,3004,2908,2907
9059,2498,2286,2285
9060,2285,2497,2498
9061,2062,2285,2286
9062,2286,2063,2062
9063,1860,2061,2062
9064,2062,1861,1860
9065,1862,1861,2062
9066,2062,2063,1862
9067,2285,2062,2061
9068,2061,2284,2285
9069,2499,2287,2286
9070,2286,2498,2499
9071,2283,2282,2494
9072,2494,2495,2283
9073,2282,2283,2060
9074,2060,2059,2282
9075,1860,1859,2060
9076,2060,2061,1860
9077,1858,2059,2060
9078,2060,1859,1858
9079,2061,2060,2283
9080,2283,2284,2061
9081,2494,2282,2281
9082,2281,2493,2494
9083,1339,1338,1126
9084,1126,1127,1339
9085,1126,1125,917
9086,917,918,1126
9087,918,919,1127
9088,1127,1126,918
9089,1337,1125,1126
9090,1126,1338,1337
9091,1765,1764,1560
9092,1560,1561,1765
9093,297,298,504
9094,504,503,297
9095,194,297,296
9096,296,193,194
9097,193,90,91
9098,91,194,193
9099,503,502,296
9100,296,297,503
9101,297,194,195
9102,195,298,297
9103,195,194,91
9104,91,92,195
9105,504,505,716
9106,716,715,504
9107,925,924,716
9108,716,717,925
9109,923,715,716
9110,716,924,923
9111,506,717,716
9112,716,505,506
9113,1767,1563,1564
9114,1564,1768,1767
9115,1563,1562,1341
9116,1341,1342,1563
9117,1343,1131,1132
9118,1132,1344,1343
9119,924,925,1133
9120,1133,1132,924
9121,1132,1131,923
9122,923,924,1132
9123,1345,1344,1132
9124,1132,1133,1345
9125,1970,1764,1765
9126,1765,1971,1970
9127,1972,2188,2187
9128,2187,1971,1972
9129,2187,2188,2398
9130,2398,2397,2187
9131,2186,2187,2397
9132,2397,2396,2186
9133,1974,1973,1767
9134,1767,1768,1974
9135,2189,2188,1972
9136,1972,1973,2189
9137,2189,2190,2400
9138,2400,2399,2189
9139,303,509,508
9140,508,302,303
9141,201,304,303
9142,303,200,201
9143,201,200,97
9144,97,98,201
9145,613,407,406
9146,406,612,613
9147,509,303,304
9148,304,510,509
9149,199,200,303
9150,303,302,199
9151,199,96,97
9152,97,200,199
9153,611,612,406
9154,406,405,611
9155,718,507,508
9156,508,719,718
9157,609,819,820
9158,820,610,609
9159,925,717,718
9160,718,926,925
9161,507,718,717
9162,717,506,507
9163,927,926,718
9164,718,719,927
9165,1352,1351,1139
9166,1139,1140,1352
9167,1140,932,933
9168,933,1141,1140
9169,932,1140,1139
9170,1139,931,932
9171,1140,1141,1353
9172,1353,1352,1140
9173,1776,1775,1571
9174,1571,1472,1776
9175,1347,1346,1134
9176,1134,1135,1347
9177,1134,1133,925
9178,925,926,1134
9179,1345,1133,1134
9180,1134,1346,1345
9181,926,927,1135
9182,1135,1134,926
9183,1773,1772,1568
9184,1568,1569,1773
9185,1569,1348,1349
9186,1349,1570,1569
9187,1982,1981,1775
9188,1775,1776,1982
9189,1980,1981,2197
9190,2197,2196,1980
9191,1773,1979,1978
9192,1978,1772,1773
9193,2195,1979,1980
9194,1980,2196,2195
9195,2195,2196,2406
9196,2406,2405,2195
9197,2194,2195,2405
9198,2405,2404,2194
9199,2291,2290,2502
9200,2502,2503,2291
9201,2291,2068,2067
9202,2067,2290,2291
9203,1868,1867,2068
9204,2068,2069,1868
9205,1866,2067,2068
9206,2068,1867,1866
9207,2068,2291,2292
9208,2292,2069,2068
9209,2501,2502,2290
9210,2290,2289,2501
9211,2920,2919,3015
9212,3015,3016,2920
9213,3361,3359,3235
9214,3235,3236,3361
9215,3130,3131,3236
9216,3236,3235,3130
9217,2819,3132,3131
9218,3131,2818,2819
9219,3340,3017,3016
9220,3016,3339,3340
9221,3340,3339,3550
9222,3550,3551,3340
9223,3016,3015,3338
9224,3338,3339,3016
9225,3549,3550,3339
9226,3339,3338,3549
9227,2817,2818,3131
9228,3131,3130,2817
9229,2921,2920,3016
9230,3016,3017,2921
9231,2293,2505,2506
9232,2506,2294,2293
9233,2293,2294,2071
9234,2071,2070,2293
9235,1868,2069,2070
9236,2070,1869,1868
9237,1870,1869,2070
9238,2070,2071,1870
9239,2070,2069,2292
9240,2292,2293,2070
9241,2506,2507,2295
9242,2295,2294,2506
9243,821,611,610
9244,610,820,821
9245,1032,1033,821
9246,821,820,1032
9247,821,822,612
9248,612,611,821
9249,821,1033,1034
9250,1034,822,821
9251,1238,1239,1038
9252,1038,1037,1238
9253,1453,1454,1238
9254,1238,1237,1453
9255,1453,1667,1668
9256,1668,1454,1453
9257,1667,1666,1876
9258,1876,1877,1667
9259,1237,1236,1452
9260,1452,1453,1237
9261,1667,1453,1452
9262,1452,1666,1667
9263,1877,1878,1668
9264,1668,1667,1877
9265,1238,1037,1036
9266,1036,1237,1238
9267,1233,1232,1448
9268,1448,1449,1233
9269,1234,1033,1032
9270,1032,1233,1234
9271,1451,1235,1234
9272,1234,1450,1451
9273,1451,1450,1664
9274,1664,1665,1451
9275,1665,1875,1876
9276,1876,1666,1665
9277,1665,1666,1452
9278,1452,1451,1665
9279,1875,1665,1664
9280,1664,1874,1875
9281,1034,1033,1234
9282,1234,1235,1034
9283,1235,1451,1452
9284,1452,1236,1235
9285,3034,2925,2924
9286,2924,3037,3034
9287,3371,3369,3240
9288,3240,3241,3371
9289,3240,3135,3136
9290,3136,3241,3240
9291,3135,3134,2821
9292,2821,2822,3135
9293,3037,3039,3342
9294,3342,3343,3037
9295,3554,3343,3342
9296,3342,3553,3554
9297,3034,3037,3343
9298,3343,3344,3034
9299,3554,3555,3344
9300,3344,3343,3554
9301,3136,3135,2822
9302,2822,2823,3136
9303,3037,2924,2923
9304,2923,3039,3037
9305,2301,2513,2514
9306,2514,2302,2301
9307,2302,2088,2090
9308,2090,2301,2302
9309,2301,2090,2092
9310,2092,2300,2301
9311,2090,1877,1876
9312,1876,2092,2090
9313,2088,1878,1877
9314,1877,2090,2088
9315,2303,2302,2514
9316,2514,2515,2303
9317,2299,2298,2510
9318,2510,2511,2299
9319,2298,2299,2076
9320,2076,2075,2298
9321,2300,2092,2076
9322,2076,2299,2300
9323,2076,2092,1876
9324,1876,1875,2076
9325,1875,1874,2075
9326,2075,2076,1875
9327,2510,2298,2297
9328,2297,2509,2510
9329,3561,3560,3769
9330,3769,3770,3561
9331,4341,4081,4080
9332,4080,4342,4341
9333,4182,4084,4283
9334,4283,4282,4182
9335,211,108,109
9336,109,212,211
9337,109,108,5
9338,5,6,109
9339,520,521,315
9340,315,314,520
9341,418,417,211
9342,211,212,418
9343,211,417,516
9344,516,209,211
9345,312,518,520
9346,520,314,312
9347,108,211,209
9348,209,106,108
9349,106,3,5
9350,5,108,106
9351,3147,3042,3044
9352,3044,3149,3147
9353,3149,3385,3387
9354,3387,3147,3149
9355,309,308,205
9356,205,206,309
9357,103,206,205
9358,205,102,103
9359,514,308,309
9360,309,515,514
9361,309,210,517
9362,517,515,309
9363,206,107,210
9364,210,309,206
9365,107,206,103
9366,103,4,107
9367,3247,3148,3388
9368,3388,3386,3247
9369,3148,3247,3142
9370,3142,3043,3148
9371,3464,3463,3672
9372,3672,3673,3464
9373,4340,4343,3984
9374,3984,3983,4340
9375,4185,4085,4086
9376,4086,4186,4185
9377,1573,1670,1880
9378,1880,1783,1573
9379,1456,1458,1246
9380,1246,1240,1456
9381,1458,1456,1670
9382,1670,1573,1458
9383,1355,1242,1246
9384,1246,1458,1355
9385,1458,1460,1355
9386,1460,1458,1573
9387,1573,1468,1460
9388,1573,1783,1680
9389,1680,1468,1573
9390,1257,1477,1475
9391,1475,1255,1257
9392,1681,1780,1479
9393,1479,1475,1681
9394,1887,1888,2104
9395,2104,2103,1887
9396,2313,2103,2104
9397,2104,2314,2313
9398,1780,1681,1887
9399,1887,1986,1780
9400,2103,2313,2412
9401,2412,2101,2103
9402,1572,1782,1784
9403,1784,1574,1572
9404,1457,1572,1574
9405,1574,1360,1457
9406,1459,1467,1572
9407,1572,1457,1459
9408,1572,1467,1679
9409,1679,1782,1572
9410,1784,1782,2079
9411,2079,2077,1784
9412,2208,2077,2079
9413,2079,2305,2208
9414,2202,2307,2305
9415,2202,2305,2079
9416,2079,2083,2202
9417,1782,1679,2083
9418,2083,2079,1782
9419,1779,1476,1480
9420,1480,1781,1779
9421,2201,2200,1984
9422,1984,1985,2201
9423,2201,2411,2410
9424,2410,2200,2201
9425,1781,1987,1985
9426,1985,1779,1781
9427,2201,2102,2413
9428,2413,2411,2201
9429,1880,2078,2080
9430,2080,1783,1880
9431,1783,2080,2084
9432,2084,1680,1783
9433,3466,3465,3674
9434,3674,3675,3466
9435,3779,4088,4087
9436,4087,3778,3779
9437,3881,3882,3674
9438,3674,3673,3881
9439,3777,3778,4087
9440,4087,4086,3777
9441,3883,3675,3674
9442,3674,3882,3883
9443,3466,3675,3676
9444,3676,3467,3466
9445,3885,3677,3676
9446,3676,3884,3885
9447,3883,3884,3676
9448,3676,3675,3883
9449,3781,4090,4089
9450,4089,3780,3781
9451,3885,3884,3987
9452,3987,3988,3885
9453,4189,4188,4088
9454,4088,4089,4189
9455,4347,4349,3987
9456,3987,3986,4347
9457,3883,3986,3987
9458,3987,3884,3883
9459,3881,3984,3985
9460,3985,3882,3881
9461,4088,4188,4187
9462,4187,4087,4088
9463,4344,4347,3986
9464,3986,3985,4344
9465,3883,3882,3985
9466,3985,3986,3883
9467,3482,3481,3690
9468,3690,3691,3482
9469,3690,3689,3897
9470,3897,3898,3690
9471,3898,3899,3691
9472,3691,3690,3898
9473,3483,3482,3691
9474,3691,3692,3483
9475,3901,3693,3692
9476,3692,3900,3901
9477,3899,3900,3692
9478,3692,3691,3899
9479,4105,3796,3797
9480,3797,4106,4105
9481,3901,3900,4003
9482,4003,4004,3901
9483,4205,4204,4104
9484,4104,4105,4205
9485,4380,4382,4003
9486,4003,4002,4380
9487,3899,4002,4003
9488,4003,3900,3899
9489,3794,4103,4102
9490,4102,3793,3794
9491,3897,4000,4001
9492,4001,3898,3897
9493,4104,4204,4203
9494,4203,4103,4104
9495,4378,4380,4002
9496,4002,4001,4378
9497,3899,3898,4001
9498,4001,4002,3899
9499,3498,3497,3706
9500,3706,3707,3498
9501,3811,4120,4119
9502,4119,3810,3811
9503,3706,3705,3913
9504,3913,3914,3706
9505,3809,3810,4119
9506,4119,4118,3809
9507,3914,3915,3707
9508,3707,3706,3914
9509,3708,3499,3498
9510,3498,3707,3708
9511,3811,3812,4121
9512,4121,4120,3811
9513,3917,3709,3708
9514,3708,3916,3917
9515,3915,3916,3708
9516,3708,3707,3915
9517,3813,4122,4121
9518,4121,3812,3813
9519,4019,4020,3917
9520,3917,3916,4019
9521,4221,4220,4120
9522,4120,4121,4221
9523,4298,4299,4019
9524,4019,4018,4298
9525,3916,3915,4018
9526,4018,4019,3916
9527,3913,4016,4017
9528,4017,3914,3913
9529,4219,4119,4120
9530,4120,4220,4219
9531,4017,4297,4298
9532,4298,4018,4017
9533,3915,3914,4017
9534,4017,4018,3915
9535,3514,3513,3722
9536,3722,3723,3514
9537,3827,4136,4135
9538,4135,3826,3827
9539,3929,3930,3722
9540,3722,3721,3929
9541,3931,3723,3722
9542,3722,3930,3931
9543,3514,3723,3724
9544,3724,3515,3514
9545,3827,3828,4137
9546,4137,4136,3827
9547,3933,3725,3724
9548,3724,3932,3933
9549,3931,3932,3724
9550,3724,3723,3931
9551,3829,4138,4137
9552,4137,3828,3829
9553,3933,3932,4035
9554,4035,4036,3933
9555,4237,4236,4136
9556,4136,4137,4237
9557,4314,4315,4035
9558,4035,4034,4314
9559,3931,4034,4035
9560,4035,3932,3931
9561,3825,3826,4135
9562,4135,4134,3825
9563,3929,4032,4033
9564,4033,3930,3929
9565,4136,4236,4235
9566,4235,4135,4136
9567,4314,4034,4033
9568,4033,4313,4314
9569,3931,3930,4033
9570,4033,4034,3931
9571,3530,3529,3738
9572,3738,3739,3530
9573,3843,4152,4151
9574,4151,3842,3843
9575,3738,3737,3945
9576,3945,3946,3738
9577,3841,3842,4151
9578,4151,4150,3841
9579,3946,3947,3739
9580,3739,3738,3946
9581,3530,3739,3740
9582,3740,3531,3530
9583,3949,3741,3740
9584,3740,3948,3949
9585,3947,3948,3740
9586,3740,3739,3947
9587,3845,4154,4153
9588,4153,3844,3845
9589,3949,3948,4051
9590,4051,4052,3949
9591,4253,4252,4152
9592,4152,4153,4253
9593,4051,4050,4330
9594,4330,4331,4051
9595,3947,4050,4051
9596,4051,3948,3947
9597,4049,3946,3945
9598,3945,4048,4049
9599,4152,4252,4251
9600,4251,4151,4152
9601,4330,4050,4049
9602,4049,4329,4330
9603,3946,4049,4050
9604,4050,3947,3946
9605,3546,3545,3754
9606,3754,3755,3546
9607,3754,3753,3961
9608,3961,3962,3754
9609,3962,3963,3755
9610,3755,3754,3962
9611,3546,3755,3756
9612,3756,3547,3546
9613,3756,3964,3965
9614,3965,3757,3756
9615,3964,3756,3755
9616,3755,3963,3964
9617,3861,4170,4169
9618,4169,3860,3861
9619,3965,3964,4067
9620,4067,4068,3965
9621,4269,4268,4168
9622,4168,4169,4269
9623,4370,4067,4066
9624,4066,4372,4370
9625,3963,4066,4067
9626,4067,3964,3963
9627,4167,4166,3857
9628,3857,3858,4167
9629,4065,3962,3961
9630,3961,4064,4065
9631,4168,4268,4267
9632,4267,4167,4168
9633,4372,4066,4065
9634,4065,4375,4372
9635,3962,4065,4066
9636,4066,3963,3962
9637,828,830,519
9638,519,618,828
9639,941,830,828
9640,828,1040,941
9641,624,416,519
9642,519,830,624
9643,830,832,624
9644,937,832,830
9645,830,941,937
9646,4809,4706,4341
9647,4705,4809,4341
9648,4341,4342,4705
9649,4399,4282,4283
9650,4283,4502,4399
9651,4283,4497,4502
9652,520,730,731
9653,731,521,520
9654,837,934,726
9655,726,629,837
9656,629,726,417
9657,417,418,629
9658,627,516,417
9659,417,726,627
9660,934,938,627
9661,627,726,934
9662,209,516,619
9663,619,207,209
9664,415,518,312
9665,312,413,415
9666,207,104,106
9667,106,209,207
9668,1,3,106
9669,106,104,1
9670,1041,833,1249
9671,1249,1247,1041
9672,623,831,829
9673,623,829,518
9674,518,415,623
9675,730,520,518
9676,518,829,730
9677,940,942,730
9678,730,829,940
9679,936,940,829
9680,829,831,936
9681,2731,3044,3042
9682,3042,2729,2731
9683,3252,3018,3020
9684,3020,3351,3252
9685,3351,3461,3463
9686,3463,3252,3351
9687,2931,3020,3018
9688,3018,2832,2931
9689,2931,2830,2937
9690,2937,3020,2931
9691,3145,3143,3042
9692,3042,3147,3145
9693,3387,3562,3248
9694,3147,3387,3248
9695,3248,3145,3147
9696,3250,3353,3351
9697,3250,3351,3020
9698,3020,2937,3250
9699,3353,3374,3461
9700,3461,3351,3353
9701,2935,2727,2729
9702,2935,2729,3042
9703,3042,3143,2935
9704,3688,3479,3478
9705,3478,3687,3688
9706,3791,3792,4101
9707,4101,4100,3791
9708,3896,3897,3689
9709,3689,3688,3896
9710,3793,4102,4101
9711,4101,3792,3793
9712,3688,3687,3895
9713,3895,3896,3688
9714,3478,3477,3686
9715,3686,3687,3478
9716,3791,4100,4099
9717,4099,3790,3791
9718,3893,3894,3686
9719,3686,3685,3893
9720,3895,3687,3686
9721,3686,3894,3895
9722,4098,3789,3790
9723,3790,4099,4098
9724,3893,3996,3997
9725,3997,3894,3893
9726,4199,4099,4100
9727,4100,4200,4199
9728,4369,4371,3998
9729,3998,3997,4369
9730,3895,3894,3997
9731,3997,3998,3895
9732,3897,3896,3999
9733,3999,4000,3897
9734,4201,4200,4100
9735,4100,4101,4201
9736,4371,4374,3999
9737,3999,3998,4371
9738,3895,3998,3999
9739,3999,3896,3895
9740,3704,3495,3494
9741,3494,3703,3704
9742,3807,3808,4117
9743,4117,4116,3807
9744,3912,3913,3705
9745,3705,3704,3912
9746,3704,3703,3911
9747,3911,3912,3704
9748,3494,3493,3702
9749,3702,3703,3494
9750,3806,3807,4116
9751,4116,4115,3806
9752,3909,3910,3702
9753,3702,3701,3909
9754,4115,4114,3805
9755,3805,3806,4115
9756,3911,3703,3702
9757,3702,3910,3911
9758,3909,4012,4013
9759,4013,3910,3909
9760,4215,4115,4116
9761,4116,4216,4215
9762,4294,4014,4013
9763,4013,4293,4294
9764,3911,3910,4013
9765,4013,4014,3911
9766,4118,4117,3808
9767,3808,3809,4118
9768,3912,4015,4016
9769,4016,3913,3912
9770,4217,4216,4116
9771,4116,4117,4217
9772,4015,4014,4294
9773,4294,4295,4015
9774,4015,3912,3911
9775,3911,4014,4015
9776,3510,3719,3720
9777,3720,3511,3510
9778,3823,3824,4133
9779,4133,4132,3823
9780,3721,3720,3928
9781,3928,3929,3721
9782,4134,4133,3824
9783,3824,3825,4134
9784,3927,3928,3720
9785,3720,3719,3927
9786,3510,3509,3718
9787,3718,3719,3510
9788,3925,3926,3718
9789,3718,3717,3925
9790,3927,3719,3718
9791,3718,3926,3927
9792,4130,3821,3822
9793,3822,4131,4130
9794,3925,4028,4029
9795,4029,3926,3925
9796,4231,4131,4132
9797,4132,4232,4231
9798,4310,4030,4029
9799,4029,4309,4310
9800,3927,3926,4029
9801,4029,4030,3927
9802,3929,3928,4031
9803,4031,4032,3929
9804,4233,4232,4132
9805,4132,4133,4233
9806,4310,4311,4031
9807,4031,4030,4310
9808,3927,4030,4031
9809,4031,3928,3927
9810,3736,3527,3526
9811,3526,3735,3736
9812,3945,3737,3736
9813,3736,3944,3945
9814,3943,3944,3736
9815,3736,3735,3943
9816,3525,3734,3735
9817,3735,3526,3525
9818,4147,3838,3839
9819,3839,4148,4147
9820,3941,3942,3734
9821,3734,3733,3941
9822,3838,4147,4146
9823,4146,3837,3838
9824,3943,3735,3734
9825,3734,3942,3943
9826,3941,4044,4045
9827,4045,3942,3941
9828,4147,4148,4248
9829,4248,4247,4147
9830,4326,4046,4045
9831,4045,4325,4326
9832,3943,3942,4045
9833,4045,4046,3943
9834,3840,3841,4150
9835,4150,4149,3840
9836,3945,3944,4047
9837,4047,4048,3945
9838,4249,4248,4148
9839,4148,4149,4249
9840,4047,4046,4326
9841,4326,4327,4047
9842,3943,4046,4047
9843,4047,3944,3943
9844,3542,3751,3752
9845,3752,3543,3542
9846,3855,3856,4165
9847,4165,4164,3855
9848,3961,3753,3752
9849,3752,3960,3961
9850,3857,4166,4165
9851,4165,3856,3857
9852,3959,3960,3752
9853,3752,3751,3959
9854,3750,3751,3542
9855,3542,3541,3750
9856,3855,4164,4163
9857,4163,3854,3855
9858,3958,3750,3749
9859,3749,3957,3958
9860,3750,3958,3959
9861,3959,3751,3750
9862,4162,3853,3854
9863,3854,4163,4162
9864,3957,4060,4061
9865,4061,3958,3957
9866,4263,4163,4164
9867,4164,4264,4263
9868,4381,4062,4061
9869,4061,4383,4381
9870,3959,3958,4061
9871,4061,4062,3959
9872,3961,3960,4063
9873,4063,4064,3961
9874,4265,4264,4164
9875,4164,4165,4265
9876,4379,4063,4062
9877,4062,4381,4379
9878,3959,4062,4063
9879,4063,3960,3959
9880,3558,3767,3768
9881,3768,3559,3558
9882,3871,3872,4181
9883,4181,4180,3871
9884,3768,3976,3977
9885,3977,3769,3768
9886,3976,3768,3767
9887,3767,3975,3976
9888,3766,3767,3558
9889,3558,3557,3766
9890,3871,4180,4179
9891,4179,3870,3871
9892,3974,3766,3765
9893,3765,3973,3974
9894,3869,3870,4179
9895,4179,4178,3869
9896,3766,3974,3975
9897,3975,3767,3766
9898,3974,3973,4076
9899,4076,4077,3974
9900,4179,4180,4280
9901,4280,4279,4179
9902,4348,4078,4077
9903,4077,4350,4348
9904,4077,4078,3975
9905,3975,3974,4077
9906,4181,3872,3873
9907,3873,4182,4181
9908,4079,4080,3977
9909,3977,3976,4079
9910,4281,4280,4180
9911,4180,4181,4281
9912,4345,4079,4078
9913,4078,4348,4345
9914,3976,3975,4078
9915,4078,4079,3976
9916,933,725,727
9917,727,935,933
9918,725,514,515
9919,515,727,725
9920,628,727,515
9921,515,517,628
9922,935,727,628
9923,628,939,935
9924,210,208,620
9925,620,517,210
9926,208,210,107
9927,107,105,208
9928,2,105,107
9929,107,4,2
9930,2829,2730,3043
9931,3043,3142,2829
9932,3350,3352,3021
9933,3021,3019,3350
9934,3352,3350,3561
9935,3561,3462,3352
9936,2932,2833,3019
9937,3019,3021,2932
9938,2932,3021,2938
9939,2938,2831,2932
9940,3146,3148,3043
9941,3043,3144,3146
9942,3251,2938,3021
9943,3021,3352,3251
9944,3352,3354,3251
9945,3354,3352,3462
9946,3462,3375,3354
9947,2936,3144,3043
9948,3043,2730,2936
9949,2730,2728,2936
9950,4504,4400,4185
9951,4401,4504,4185
9952,4185,4186,4401
9953,4504,4401,4820
9954,4820,4919,4504
9955,4504,4919,4819
9956,4819,4400,4504
9957,3470,3679,3680
9958,3680,3471,3470
9959,3889,3681,3680
9960,3680,3888,3889
9961,3887,3888,3680
9962,3680,3679,3887
9963,3470,3469,3678
9964,3678,3679,3470
9965,3783,4092,4091
9966,4091,3782,3783
9967,3885,3886,3678
9968,3678,3677,3885
9969,3781,3782,4091
9970,4091,4090,3781
9971,3887,3679,3678
9972,3678,3886,3887
9973,3885,3988,3989
9974,3989,3886,3885
9975,4191,4091,4092
9976,4092,4192,4191
9977,4353,4355,3990
9978,3990,3989,4353
9979,3887,3886,3989
9980,3989,3990,3887
9981,4094,4093,3784
9982,3784,3785,4094
9983,3889,3888,3991
9984,3991,3992,3889
9985,4193,4192,4092
9986,4092,4093,4193
9987,4355,4357,3991
9988,3991,3990,4355
9989,3887,3990,3991
9990,3991,3888,3887
9991,5130,5027,5445
9992,5445,5446,5130
9993,4925,4826,5244
9994,5244,5243,4925
9995,5131,5448,5449
9996,5449,5029,5131
9997,5248,5662,5661
9998,5661,5247,5248
9999,5452,5863,5864
10000,5864,5453,5452
10001,5244,5245,5659
10002,5659,5658,5244
10003,5860,5861,5450
10004,5450,5449,5860
10005,5240,5241,5655
10006,5655,5654,5240
10007,5655,6057,6056
10008,6056,5654,5655
10009,5856,5857,5446
10010,5446,5445,5856
10011,5244,5658,5657
10012,5657,5243,5244
10013,5448,5859,5860
10014,5860,5449,5448
10015,4927,4828,5248
10016,5248,5247,4927
10017,5133,5452,5453
10018,5453,5031,5133
10019,4926,5245,5244
10020,5244,4826,4926
10021,5132,5029,5449
10022,5449,5450,5132
10023,4507,4403,4188
10024,4404,4507,4188
10025,4188,4189,4404
10026,4507,4404,4823
10027,4823,4922,4507
10028,4402,4187,4188
10029,4188,4506,4402
10030,4188,4403,4506
10031,4506,4921,4821
10032,4821,4402,4506
10033,4506,4403,4822
10034,4822,4921,4506
10035,5129,5444,5445
10036,5445,5027,5129
10037,5128,5025,5441
10038,5441,5442,5128
10039,5647,6049,6048
10040,6048,5646,5647
10041,5848,5849,5438
10042,5438,5437,5848
10043,5440,5851,5852
10044,5852,5441,5440
10045,5126,5023,5437
10046,5437,5438,5126
10047,5127,5440,5441
10048,5441,5025,5127
10049,5653,5654,6056
10050,6056,6055,5653
10051,5444,5855,5856
10052,5856,5445,5444
10053,5852,5853,5442
10054,5442,5441,5852
10055,4406,4191,4192
10056,4192,4510,4406
10057,4192,4407,4510
10058,4510,4407,4826
10059,4826,4925,4510
10060,4511,4407,4192
10061,4408,4511,4192
10062,4192,4193,4408
10063,4511,4408,4827
10064,4827,4926,4511
10065,3486,3695,3696
10066,3696,3487,3486
10067,3800,4109,4108
10068,4108,3799,3800
10069,3905,3697,3696
10070,3696,3904,3905
10071,3903,3904,3696
10072,3696,3695,3903
10073,4109,3800,3801
10074,3801,4110,4109
10075,3485,3694,3695
10076,3695,3486,3485
10077,3799,4108,4107
10078,4107,3798,3799
10079,3901,3902,3694
10080,3694,3693,3901
10081,3797,3798,4107
10082,4107,4106,3797
10083,3903,3695,3694
10084,3694,3902,3903
10085,3901,4004,4005
10086,4005,3902,3901
10087,4207,4107,4108
10088,4108,4208,4207
10089,4386,4388,4006
10090,4006,4005,4386
10091,3903,3902,4005
10092,4005,4006,3903
10093,3905,3904,4007
10094,4007,4008,3905
10095,4209,4208,4108
10096,4108,4109,4209
10097,4388,4390,4007
10098,4007,4006,4388
10099,3903,4006,4007
10100,4007,3904,3903
10101,4940,5273,5272
10102,5272,4840,4940
10103,5146,5043,5477
10104,5477,5478,5146
10105,5147,5480,5481
10106,5481,5045,5147
10107,5280,5694,5693
10108,5693,5279,5280
10109,5693,5694,6096
10110,6096,6095,5693
10111,5484,5895,5896
10112,5896,5485,5484
10113,5276,5277,5691
10114,5691,5690,5276
10115,5892,5893,5482
10116,5482,5481,5892
10117,5691,6093,6092
10118,6092,5690,5691
10119,5272,5273,5687
10120,5687,5686,5272
10121,5888,5889,5478
10122,5478,5477,5888
10123,5276,5690,5689
10124,5689,5275,5276
10125,5480,5891,5892
10126,5892,5481,5480
10127,4943,4844,5280
10128,5280,5279,4943
10129,5149,5484,5485
10130,5485,5047,5149
10131,4942,5277,5276
10132,5276,4842,4942
10133,5148,5045,5481
10134,5481,5482,5148
10135,4523,4419,4204
10136,4420,4523,4204
10137,4204,4205,4420
10138,4731,4628,4382
10139,4627,4731,4382
10140,4382,4380,4627
10141,4522,4418,4203
10142,4419,4522,4203
10143,4203,4204,4419
10144,4730,4627,4380
10145,4626,4730,4380
10146,4380,4378,4626
10147,5145,5476,5477
10148,5477,5043,5145
10149,5144,5041,5473
10150,5473,5474,5144
10151,5880,5881,5470
10152,5470,5469,5880
10153,5472,5883,5884
10154,5884,5473,5472
10155,5681,5682,6084
10156,6084,6083,5681
10157,5142,5039,5469
10158,5469,5470,5142
10159,5143,5472,5473
10160,5473,5041,5143
10161,5476,5887,5888
10162,5888,5477,5476
10163,5884,5885,5474
10164,5474,5473,5884
10165,4526,4422,4207
10166,4423,4526,4207
10167,4207,4208,4423
10168,4526,4941,4841
10169,4841,4422,4526
10170,4526,4423,4842
10171,4842,4941,4526
10172,4527,4423,4208
10173,4424,4527,4208
10174,4208,4209,4424
10175,4527,4424,4843
10176,4843,4942,4527
10177,4527,4942,4842
10178,4842,4423,4527
10179,3502,3711,3712
10180,3712,3503,3502
10181,3921,3713,3712
10182,3712,3920,3921
10183,3919,3920,3712
10184,3712,3711,3919
10185,3817,4126,4125
10186,4125,3816,3817
10187,3502,3501,3710
10188,3710,3711,3502
10189,3917,3918,3710
10190,3710,3709,3917
10191,3919,3711,3710
10192,3710,3918,3919
10193,4122,3813,3814
10194,3814,4123,4122
10195,3917,4020,4021
10196,4021,3918,3917
10197,4223,4123,4124
10198,4124,4224,4223
10199,4302,4022,4021
10200,4021,4301,4302
10201,3919,3918,4021
10202,4021,4022,3919
10203,3921,3920,4023
10204,4023,4024,3921
10205,4225,4224,4124
10206,4124,4125,4225
10207,4302,4303,4023
10208,4023,4022,4302
10209,3919,4022,4023
10210,4023,3920,3919
10211,4956,5305,5304
10212,5304,4856,4956
10213,5162,5059,5509
10214,5509,5510,5162
10215,4957,4858,5308
10216,5308,5307,4957
10217,5163,5512,5513
10218,5513,5061,5163
10219,5312,5726,5725
10220,5725,5311,5312
10221,5516,5927,5928
10222,5928,5517,5516
10223,5308,5309,5723
10224,5723,5722,5308
10225,5925,5514,5513
10226,5513,5924,5925
10227,5723,6125,6124
10228,6124,5722,5723
10229,5304,5305,5719
10230,5719,5718,5304
10231,5719,6121,6120
10232,6120,5718,5719
10233,5920,5921,5510
10234,5510,5509,5920
10235,5308,5722,5721
10236,5721,5307,5308
10237,5512,5923,5924
10238,5924,5513,5512
10239,6123,5721,5722
10240,5722,6124,6123
10241,4959,4860,5312
10242,5312,5311,4959
10243,5165,5516,5517
10244,5517,5063,5165
10245,4958,5309,5308
10246,5308,4858,4958
10247,5164,5061,5513
10248,5513,5514,5164
10249,4539,4435,4220
10250,4436,4539,4220
10251,4220,4221,4436
10252,4539,4436,4855
10253,4855,4954,4539
10254,4539,4954,4854
10255,4854,4435,4539
10256,4538,4434,4219
10257,4435,4538,4219
10258,4219,4220,4435
10259,4746,4643,4298
10260,4642,4746,4298
10261,4298,4297,4642
10262,4538,4953,4853
10263,4853,4434,4538
10264,4538,4435,4854
10265,4854,4953,4538
10266,5161,5508,5509
10267,5509,5059,5161
10268,5160,5057,5505
10269,5505,5506,5160
10270,5711,6113,6112
10271,6112,5710,5711
10272,5912,5913,5502
10273,5502,5501,5912
10274,5504,5915,5916
10275,5916,5505,5504
10276,5713,5714,6116
10277,6116,6115,5713
10278,5158,5055,5501
10279,5501,5502,5158
10280,5159,5504,5505
10281,5505,5057,5159
10282,5508,5919,5920
10283,5920,5509,5508
10284,5916,5917,5506
10285,5506,5505,5916
10286,5715,6117,6116
10287,6116,5714,5715
10288,4542,4438,4223
10289,4439,4542,4223
10290,4223,4224,4439
10291,4542,4957,4857
10292,4857,4438,4542
10293,4543,4439,4224
10294,4440,4543,4224
10295,4224,4225,4440
10296,3518,3727,3728
10297,3728,3519,3518
10298,3831,3832,4141
10299,4141,4140,3831
10300,3937,3729,3728
10301,3728,3936,3937
10302,3935,3936,3728
10303,3728,3727,3935
10304,3833,4142,4141
10305,4141,3832,3833
10306,3518,3517,3726
10307,3726,3727,3518
10308,3933,3934,3726
10309,3726,3725,3933
10310,3829,3830,4139
10311,4139,4138,3829
10312,3935,3727,3726
10313,3726,3934,3935
10314,3933,4036,4037
10315,4037,3934,3933
10316,4239,4139,4140
10317,4140,4240,4239
10318,4318,4038,4037
10319,4037,4317,4318
10320,3935,3934,4037
10321,4037,4038,3935
10322,3937,3936,4039
10323,4039,4040,3937
10324,4241,4240,4140
10325,4140,4141,4241
10326,4318,4319,4039
10327,4039,4038,4318
10328,3935,4038,4039
10329,4039,3936,3935
10330,5178,5075,5541
10331,5541,5542,5178
10332,5179,5544,5545
10333,5545,5077,5179
10334,5344,5758,5757
10335,5757,5343,5344
10336,6159,5757,5758
10337,5758,6160,6159
10338,5548,5959,5960
10339,5960,5549,5548
10340,5340,5341,5755
10341,5755,5754,5340
10342,5546,5545,5956
10343,5956,5957,5546
10344,5755,6157,6156
10345,6156,5754,5755
10346,5336,5337,5751
10347,5751,5750,5336
10348,5542,5541,5952
10349,5952,5953,5542
10350,5753,5339,5340
10351,5340,5754,5753
10352,5544,5955,5956
10353,5956,5545,5544
10354,5753,5754,6156
10355,6156,6155,5753
10356,5181,5548,5549
10357,5549,5079,5181
10358,5180,5077,5545
10359,5545,5546,5180
10360,4555,4451,4236
10361,4452,4555,4236
10362,4236,4237,4452
10363,4763,4660,4315
10364,4659,4763,4315
10365,4315,4314,4659
10366,4555,4452,4871
10367,4871,4970,4555
10368,4554,4450,4235
10369,4451,4554,4235
10370,4235,4236,4451
10371,4762,4659,4314
10372,4658,4762,4314
10373,4314,4313,4658
10374,5177,5540,5541
10375,5541,5075,5177
10376,5176,5073,5537
10377,5537,5538,5176
10378,6144,5742,5743
10379,5743,6145,6144
10380,5533,5944,5945
10381,5945,5534,5533
10382,5536,5947,5948
10383,5948,5537,5536
10384,5745,5746,6148
10385,6148,6147,5745
10386,5174,5071,5533
10387,5533,5534,5174
10388,5175,5536,5537
10389,5537,5073,5175
10390,5749,5750,6152
10391,6152,6151,5749
10392,5540,5951,5952
10393,5952,5541,5540
10394,5949,5538,5537
10395,5537,5948,5949
10396,5747,6149,6148
10397,6148,5746,5747
10398,4558,4454,4239
10399,4455,4558,4239
10400,4239,4240,4455
10401,4559,4455,4240
10402,4456,4559,4240
10403,4240,4241,4456
10404,4559,4456,4875
10405,4875,4974,4559
10406,4559,4974,4874
10407,4874,4455,4559
10408,3534,3743,3744
10409,3744,3535,3534
10410,3953,3745,3744
10411,3744,3952,3953
10412,3951,3952,3744
10413,3744,3743,3951
10414,3534,3533,3742
10415,3742,3743,3534
10416,3847,4156,4155
10417,4155,3846,3847
10418,3949,3950,3742
10419,3742,3741,3949
10420,3845,3846,4155
10421,4155,4154,3845
10422,3951,3743,3742
10423,3742,3950,3951
10424,3950,3949,4052
10425,4052,4053,3950
10426,4155,4156,4256
10427,4256,4255,4155
10428,4053,4333,4334
10429,4334,4054,4053
10430,4053,4054,3951
10431,3951,3950,4053
10432,4158,4157,3848
10433,3848,3849,4158
10434,3953,3952,4055
10435,4055,4056,3953
10436,4157,4257,4256
10437,4256,4156,4157
10438,4055,4054,4334
10439,4334,4335,4055
10440,3951,4054,4055
10441,4055,3952,3951
10442,5194,5091,5573
10443,5573,5574,5194
10444,4989,4890,5372
10445,5372,5371,4989
10446,5195,5576,5577
10447,5577,5093,5195
10448,5376,5790,5789
10449,5789,5375,5376
10450,5580,5991,5992
10451,5992,5581,5580
10452,5372,5373,5787
10453,5787,5786,5372
10454,5988,5989,5578
10455,5578,5577,5988
10456,5368,5369,5783
10457,5783,5782,5368
10458,5783,6185,6184
10459,6184,5782,5783
10460,5984,5985,5574
10461,5574,5573,5984
10462,5372,5786,5785
10463,5785,5371,5372
10464,5576,5987,5988
10465,5988,5577,5576
10466,4991,4892,5376
10467,5376,5375,4991
10468,5197,5580,5581
10469,5581,5095,5197
10470,4990,5373,5372
10471,5372,4890,4990
10472,5196,5093,5577
10473,5577,5578,5196
10474,4467,4252,4253
10475,4253,4571,4467
10476,4253,4468,4571
10477,4571,4468,4887
10478,4887,4986,4571
10479,4570,4466,4251
10480,4467,4570,4251
10481,4251,4252,4467
10482,4570,4985,4885
10483,4885,4466,4570
10484,4570,4467,4886
10485,4886,4985,4570
10486,5193,5572,5573
10487,5573,5091,5193
10488,5192,5089,5569
10489,5569,5570,5192
10490,5775,6177,6176
10491,6176,5774,5775
10492,5976,5977,5566
10493,5566,5565,5976
10494,5568,5979,5980
10495,5980,5569,5568
10496,5190,5087,5565
10497,5565,5566,5190
10498,5191,5568,5569
10499,5569,5089,5191
10500,5781,5782,6184
10501,6184,6183,5781
10502,5572,5983,5984
10503,5984,5573,5572
10504,5980,5981,5570
10505,5570,5569,5980
10506,4470,4255,4256
10507,4256,4574,4470
10508,4256,4471,4574
10509,4574,4471,4890
10510,4890,4989,4574
10511,4575,4471,4256
10512,4472,4575,4256
10513,4256,4257,4472
10514,4575,4472,4891
10515,4891,4990,4575
10516,3550,3759,3760
10517,3760,3551,3550
10518,3863,3864,4173
10519,4173,4172,3863
10520,3760,3968,3969
10521,3969,3761,3760
10522,3968,3760,3759
10523,3759,3967,3968
10524,3865,4174,4173
10525,4173,3864,3865
10526,3550,3549,3758
10527,3758,3759,3550
10528,4171,3862,3863
10529,3863,4172,4171
10530,3965,3966,3758
10531,3758,3757,3965
10532,3862,4171,4170
10533,4170,3861,3862
10534,3967,3759,3758
10535,3758,3966,3967
10536,3965,4068,4069
10537,4069,3966,3965
10538,4171,4172,4272
10539,4272,4271,4171
10540,4364,4070,4069
10541,4069,4366,4364
10542,3967,3966,4069
10543,4069,4070,3967
10544,4071,4072,3969
10545,3969,3968,4071
10546,4273,4272,4172
10547,4172,4173,4273
10548,4362,4071,4070
10549,4070,4364,4362
10550,3968,3967,4070
10551,4070,4071,3968
10552,5004,5401,5400
10553,5400,4904,5004
10554,5210,5107,5605
10555,5605,5606,5210
10556,5211,5608,5609
10557,5609,5109,5211
10558,5408,5822,5821
10559,5821,5407,5408
10560,5821,5822,6224
10561,6224,6223,5821
10562,5612,6023,6024
10563,6024,5613,5612
10564,5404,5405,5819
10565,5819,5818,5404
10566,6020,6021,5610
10567,5610,5609,6020
10568,5819,6221,6220
10569,6220,5818,5819
10570,5400,5401,5815
10571,5815,5814,5400
10572,6016,6017,5606
10573,5606,5605,6016
10574,5404,5818,5817
10575,5817,5403,5404
10576,5608,6019,6020
10577,6020,5609,5608
10578,5007,4908,5408
10579,5408,5407,5007
10580,5213,5612,5613
10581,5613,5111,5213
10582,5006,5405,5404
10583,5404,4906,5006
10584,5212,5109,5609
10585,5609,5610,5212
10586,4587,4483,4268
10587,4484,4587,4268
10588,4268,4269,4484
10589,4795,4692,4370
10590,4691,4795,4370
10591,4370,4372,4691
10592,4482,4267,4268
10593,4268,4586,4482
10594,4268,4483,4586
10595,4794,4691,4372
10596,4690,4794,4372
10597,4372,4375,4690
10598,5209,5604,5605
10599,5605,5107,5209
10600,5208,5105,5601
10601,5601,5602,5208
10602,6008,6009,5598
10603,5598,5597,6008
10604,5600,6011,6012
10605,6012,5601,5600
10606,5809,5810,6212
10607,6212,6211,5809
10608,5206,5103,5597
10609,5597,5598,5206
10610,5207,5600,5601
10611,5601,5105,5207
10612,5604,6015,6016
10613,6016,5605,5604
10614,6012,6013,5602
10615,5602,5601,6012
10616,4486,4271,4272
10617,4272,4590,4486
10618,4272,4487,4590
10619,4590,5005,4905
10620,4905,4486,4590
10621,4590,4487,4906
10622,4906,5005,4590
10623,4591,4487,4272
10624,4488,4591,4272
10625,4272,4273,4488
10626,4591,4488,4907
10627,4907,5006,4591
10628,4591,5006,4906
10629,4906,4487,4591
10630,1242,941,1040
10631,1040,1246,1242
10632,1044,937,941
10633,941,1242,1044
10634,1042,1248,1250
10635,1250,834,1042
10636,1359,1250,1248
10637,1359,1248,1357
10638,1357,1462,1359
10639,1142,934,837
10640,837,1045,1142
10641,1255,1142,1045
10642,1045,1257,1255
10643,1253,1243,1142
10644,1142,1255,1253
10645,1142,1243,938
10646,938,934,1142
10647,1671,1479,1780
10648,1780,1881,1671
10649,1673,1469,1465
10650,1465,1677,1673
10651,1354,1251,1356
10652,1465,1469,1463
10653,1354,1356,1465
10654,1465,1463,1354
10655,1881,1780,1986
10656,1986,2081,1881
10657,1360,1144,1245
10658,1245,1457,1360
10659,1241,1245,942
10660,942,940,1241
10661,1043,1241,940
10662,940,936,1043
10663,2307,2414,2418
10664,2418,2305,2307
10665,2097,2202,2083
10666,2083,1988,2097
10667,1883,1988,2083
10668,2083,1679,1883
10669,3474,3473,3682
10670,3682,3683,3474
10671,3889,3890,3682
10672,3682,3681,3889
10673,3891,3683,3682
10674,3682,3890,3891
10675,3474,3683,3684
10676,3684,3475,3474
10677,3787,3788,4097
10678,4097,4096,3787
10679,3893,3685,3684
10680,3684,3892,3893
10681,3789,4098,4097
10682,4097,3788,3789
10683,3891,3892,3684
10684,3684,3683,3891
10685,3893,3892,3995
10686,3995,3996,3893
10687,4197,4196,4096
10688,4096,4097,4197
10689,4363,4365,3995
10690,3995,3994,4363
10691,3891,3994,3995
10692,3995,3892,3891
10693,4094,3785,3786
10694,3786,4095,4094
10695,3889,3992,3993
10696,3993,3890,3889
10697,4096,4196,4195
10698,4195,4095,4096
10699,4361,4363,3994
10700,3994,3993,4361
10701,3891,3890,3993
10702,3993,3994,3891
10703,5137,5460,5461
10704,5461,5035,5137
10705,4930,5253,5252
10706,5252,4830,4930
10707,5136,5033,5457
10708,5457,5458,5136
10709,5248,5249,5663
10710,5663,5662,5248
10711,5663,6065,6064
10712,6064,5662,5663
10713,5864,5865,5454
10714,5454,5453,5864
10715,5252,5666,5665
10716,5665,5251,5252
10717,5456,5867,5868
10718,5868,5457,5456
10719,5665,5666,6068
10720,6068,6067,5665
10721,4928,5249,5248
10722,5248,4828,4928
10723,5134,5031,5453
10724,5453,5454,5134
10725,4929,4830,5252
10726,5252,5251,4929
10727,5135,5456,5457
10728,5457,5033,5135
10729,5256,5670,5669
10730,5669,5255,5256
10731,5460,5871,5872
10732,5872,5461,5460
10733,5252,5253,5667
10734,5667,5666,5252
10735,5868,5869,5458
10736,5458,5457,5868
10737,4414,4199,4200
10738,4200,4518,4414
10739,4200,4415,4518
10740,4726,4623,4371
10741,4622,4726,4371
10742,4371,4369,4622
10743,4518,4933,4833
10744,4833,4414,4518
10745,4519,4415,4200
10746,4416,4519,4200
10747,4200,4201,4416
10748,4727,4624,4374
10749,4623,4727,4374
10750,4374,4371,4623
10751,4519,4416,4835
10752,4835,4934,4519
10753,4519,4934,4834
10754,4834,4415,4519
10755,4515,4411,4196
10756,4412,4515,4196
10757,4196,4197,4412
10758,4410,4195,4196
10759,4196,4514,4410
10760,4196,4411,4514
10761,4514,4411,4830
10762,4830,4929,4514
10763,5138,5035,5461
10764,5461,5462,5138
10765,5139,5464,5465
10766,5465,5037,5139
10767,5677,5678,6080
10768,6080,6079,5677
10769,5468,5879,5880
10770,5880,5469,5468
10771,5876,5877,5466
10772,5466,5465,5876
10773,5141,5468,5469
10774,5469,5039,5141
10775,5140,5037,5465
10776,5465,5466,5140
10777,5671,6073,6072
10778,6072,5670,5671
10779,5872,5873,5462
10780,5462,5461,5872
10781,5464,5875,5876
10782,5876,5465,5464
10783,3490,3489,3698
10784,3698,3699,3490
10785,3698,3697,3905
10786,3905,3906,3698
10787,3802,4111,4110
10788,4110,3801,3802
10789,3906,3907,3699
10790,3699,3698,3906
10791,3490,3699,3700
10792,3700,3491,3490
10793,3803,3804,4113
10794,4113,4112,3803
10795,3909,3701,3700
10796,3700,3908,3909
10797,3805,4114,4113
10798,4113,3804,3805
10799,3907,3908,3700
10800,3700,3699,3907
10801,3909,3908,4011
10802,4011,4012,3909
10803,4213,4212,4112
10804,4112,4113,4213
10805,4290,4291,4011
10806,4011,4010,4290
10807,3907,4010,4011
10808,4011,3908,3907
10809,4009,3906,3905
10810,3905,4008,4009
10811,4112,4212,4211
10812,4211,4111,4112
10813,4289,4290,4010
10814,4010,4009,4289
10815,3906,4009,4010
10816,4010,3907,3906
10817,4947,4848,5288
10818,5288,5287,4947
10819,5153,5492,5493
10820,5493,5051,5153
10821,4946,5285,5284
10822,5284,4846,4946
10823,5152,5049,5489
10824,5489,5490,5152
10825,5280,5281,5695
10826,5695,5694,5280
10827,5896,5897,5486
10828,5486,5485,5896
10829,5284,5698,5697
10830,5697,5283,5284
10831,5488,5899,5900
10832,5900,5489,5488
10833,5697,5698,6100
10834,6100,6099,5697
10835,4944,5281,5280
10836,5280,4844,4944
10837,5150,5047,5485
10838,5485,5486,5150
10839,5151,5488,5489
10840,5489,5049,5151
10841,5288,5702,5701
10842,5701,5287,5288
10843,5701,5702,6104
10844,6104,6103,5701
10845,5492,5903,5904
10846,5904,5493,5492
10847,5284,5285,5699
10848,5699,5698,5284
10849,5900,5901,5490
10850,5490,5489,5900
10851,5699,6101,6100
10852,6100,5698,5699
10853,4430,4215,4216
10854,4216,4534,4430
10855,4216,4431,4534
10856,4534,4431,4850
10857,4850,4949,4534
10858,4535,4431,4216
10859,4432,4535,4216
10860,4216,4217,4432
10861,4640,4295,4294
10862,4294,4743,4640
10863,4294,4639,4743
10864,4427,4212,4213
10865,4213,4531,4427
10866,4213,4428,4531
10867,4531,4428,4847
10868,4847,4946,4531
10869,4530,4426,4211
10870,4427,4530,4211
10871,4211,4212,4427
10872,4530,4945,4845
10873,4845,4426,4530
10874,4530,4427,4846
10875,4846,4945,4530
10876,5154,5051,5493
10877,5493,5494,5154
10878,5155,5496,5497
10879,5497,5053,5155
10880,5500,5911,5912
10881,5912,5501,5500
10882,5908,5909,5498
10883,5498,5497,5908
10884,5707,6109,6108
10885,6108,5706,5707
10886,5157,5500,5501
10887,5501,5055,5157
10888,5156,5053,5497
10889,5497,5498,5156
10890,5904,5905,5494
10891,5494,5493,5904
10892,5496,5907,5908
10893,5908,5497,5496
10894,3506,3505,3714
10895,3714,3715,3506
10896,3819,4128,4127
10897,4127,3818,3819
10898,3921,3922,3714
10899,3714,3713,3921
10900,3817,3818,4127
10901,4127,4126,3817
10902,3923,3715,3714
10903,3714,3922,3923
10904,3506,3715,3716
10905,3716,3507,3506
10906,3819,3820,4129
10907,4129,4128,3819
10908,3925,3717,3716
10909,3716,3924,3925
10910,3923,3924,3716
10911,3716,3715,3923
10912,4130,4129,3820
10913,3820,3821,4130
10914,3925,3924,4027
10915,4027,4028,3925
10916,4229,4228,4128
10917,4128,4129,4229
10918,4306,4307,4027
10919,4027,4026,4306
10920,3923,4026,4027
10921,4027,3924,3923
10922,3921,4024,4025
10923,4025,3922,3921
10924,4128,4228,4227
10925,4227,4127,4128
10926,4306,4026,4025
10927,4025,4305,4306
10928,3923,3922,4025
10929,4025,4026,3923
10930,5169,5524,5525
10931,5525,5067,5169
10932,5168,5065,5521
10933,5521,5522,5168
10934,5313,5727,5726
10935,5726,5312,5313
10936,5727,6129,6128
10937,6128,5726,5727
10938,5929,5518,5517
10939,5517,5928,5929
10940,5316,5730,5729
10941,5729,5315,5316
10942,5520,5931,5932
10943,5932,5521,5520
10944,5166,5063,5517
10945,5517,5518,5166
10946,5167,5520,5521
10947,5521,5065,5167
10948,5320,5734,5733
10949,5733,5319,5320
10950,6135,5733,5734
10951,5734,6136,6135
10952,5524,5935,5936
10953,5936,5525,5524
10954,5316,5317,5731
10955,5731,5730,5316
10956,5932,5933,5522
10957,5522,5521,5932
10958,4550,4446,4231
10959,4447,4550,4231
10960,4231,4232,4447
10961,4758,4655,4310
10962,4654,4758,4310
10963,4310,4309,4654
10964,4550,4965,4865
10965,4865,4446,4550
10966,4550,4447,4866
10967,4866,4965,4550
10968,4551,4447,4232
10969,4448,4551,4232
10970,4232,4233,4448
10971,4759,4656,4311
10972,4655,4759,4311
10973,4311,4310,4655
10974,4551,4448,4867
10975,4867,4966,4551
10976,4551,4966,4866
10977,4866,4447,4551
10978,4547,4443,4228
10979,4444,4547,4228
10980,4228,4229,4444
10981,4547,4444,4863
10982,4863,4962,4547
10983,4546,4442,4227
10984,4443,4546,4227
10985,4227,4228,4443
10986,4546,4961,4861
10987,4861,4442,4546
10988,5170,5067,5525
10989,5525,5526,5170
10990,5171,5528,5529
10991,5529,5069,5171
10992,5742,6144,6143
10993,6143,5741,5742
10994,5944,5533,5532
10995,5532,5943,5944
10996,5940,5941,5530
10997,5530,5529,5940
10998,5739,6141,6140
10999,6140,5738,5739
11000,5173,5532,5533
11001,5533,5071,5173
11002,5172,5069,5529
11003,5529,5530,5172
11004,5735,6137,6136
11005,6136,5734,5735
11006,5937,5526,5525
11007,5525,5936,5937
11008,5528,5939,5940
11009,5940,5529,5528
11010,5737,5738,6140
11011,6140,6139,5737
11012,3522,3521,3730
11013,3730,3731,3522
11014,3835,4144,4143
11015,4143,3834,3835
11016,3937,3938,3730
11017,3730,3729,3937
11018,3939,3731,3730
11019,3730,3938,3939
11020,3522,3731,3732
11021,3732,3523,3522
11022,3941,3733,3732
11023,3732,3940,3941
11024,3837,4146,4145
11025,4145,3836,3837
11026,3939,3940,3732
11027,3732,3731,3939
11028,3941,3940,4043
11029,4043,4044,3941
11030,4245,4244,4144
11031,4144,4145,4245
11032,4322,4323,4043
11033,4043,4042,4322
11034,3939,4042,4043
11035,4043,3940,3939
11036,4142,3833,3834
11037,3834,4143,4142
11038,3937,4040,4041
11039,4041,3938,3937
11040,4144,4244,4243
11041,4243,4143,4144
11042,4322,4042,4041
11043,4041,4321,4322
11044,3939,3938,4041
11045,4041,4042,3939
11046,4979,4880,5352
11047,5352,5351,4979
11048,5185,5556,5557
11049,5557,5083,5185
11050,5184,5081,5553
11051,5553,5554,5184
11052,5345,5759,5758
11053,5758,5344,5345
11054,5759,6161,6160
11055,6160,5758,5759
11056,5960,5961,5550
11057,5550,5549,5960
11058,5761,5347,5348
11059,5348,5762,5761
11060,5552,5963,5964
11061,5964,5553,5552
11062,5761,5762,6164
11063,6164,6163,5761
11064,4976,5345,5344
11065,5344,4876,4976
11066,5182,5079,5549
11067,5549,5550,5182
11068,5183,5552,5553
11069,5553,5081,5183
11070,5352,5766,5765
11071,5765,5351,5352
11072,5556,5967,5968
11073,5968,5557,5556
11074,5349,5763,5762
11075,5762,5348,5349
11076,5964,5965,5554
11077,5554,5553,5964
11078,6165,6164,5762
11079,5762,5763,6165
11080,4462,4247,4248
11081,4248,4566,4462
11082,4248,4463,4566
11083,4566,4981,4881
11084,4881,4462,4566
11085,4567,4463,4248
11086,4464,4567,4248
11087,4248,4249,4464
11088,4567,4982,4882
11089,4882,4463,4567
11090,4563,4459,4244
11091,4460,4563,4244
11092,4244,4245,4460
11093,4563,4460,4879
11094,4879,4978,4563
11095,4563,4978,4878
11096,4878,4459,4563
11097,4562,4458,4243
11098,4459,4562,4243
11099,4243,4244,4459
11100,4562,4459,4878
11101,4878,4977,4562
11102,5186,5083,5557
11103,5557,5558,5186
11104,5187,5560,5561
11105,5561,5085,5187
11106,5773,5774,6176
11107,6176,6175,5773
11108,5564,5975,5976
11109,5976,5565,5564
11110,5972,5973,5562
11111,5562,5561,5972
11112,5771,6173,6172
11113,6172,5770,5771
11114,5189,5564,5565
11115,5565,5087,5189
11116,5188,5085,5561
11117,5561,5562,5188
11118,5558,5557,5968
11119,5968,5969,5558
11120,5560,5971,5972
11121,5972,5561,5560
11122,5769,5770,6172
11123,6172,6171,5769
11124,3538,3537,3746
11125,3746,3747,3538
11126,3954,3746,3745
11127,3745,3953,3954
11128,3746,3954,3955
11129,3955,3747,3746
11130,3538,3747,3748
11131,3748,3539,3538
11132,3852,4161,4160
11133,4160,3851,3852
11134,3956,3957,3749
11135,3749,3748,3956
11136,4161,3852,3853
11137,3853,4162,4161
11138,3748,3747,3955
11139,3955,3956,3748
11140,3957,3956,4059
11141,4059,4060,3957
11142,4261,4260,4160
11143,4160,4161,4261
11144,4387,4059,4058
11145,4058,4389,4387
11146,3955,4058,4059
11147,4059,3956,3955
11148,4158,3849,3850
11149,3850,4159,4158
11150,3953,4056,4057
11151,4057,3954,3953
11152,4159,4160,4260
11153,4260,4259,4159
11154,4389,4058,4057
11155,4057,4391,4389
11156,3955,3954,4057
11157,4057,4058,3955
11158,5201,5588,5589
11159,5589,5099,5201
11160,4994,5381,5380
11161,5380,4894,4994
11162,5200,5097,5585
11163,5585,5586,5200
11164,5376,5377,5791
11165,5791,5790,5376
11166,5791,6193,6192
11167,6192,5790,5791
11168,5992,5993,5582
11169,5582,5581,5992
11170,5380,5794,5793
11171,5793,5379,5380
11172,5584,5995,5996
11173,5996,5585,5584
11174,5793,5794,6196
11175,6196,6195,5793
11176,4992,5377,5376
11177,5376,4892,4992
11178,5198,5095,5581
11179,5581,5582,5198
11180,4993,4894,5380
11181,5380,5379,4993
11182,5199,5584,5585
11183,5585,5097,5199
11184,5384,5798,5797
11185,5797,5383,5384
11186,5588,5999,6000
11187,6000,5589,5588
11188,5380,5381,5795
11189,5795,5794,5380
11190,5996,5997,5586
11191,5586,5585,5996
11192,4478,4263,4264
11193,4264,4582,4478
11194,4264,4479,4582
11195,4790,4687,4381
11196,4686,4790,4381
11197,4381,4383,4686
11198,4582,4997,4897
11199,4897,4478,4582
11200,4583,4479,4264
11201,4480,4583,4264
11202,4264,4265,4480
11203,4791,4688,4379
11204,4687,4791,4379
11205,4379,4381,4687
11206,4583,4480,4899
11207,4899,4998,4583
11208,4583,4998,4898
11209,4898,4479,4583
11210,4475,4260,4261
11211,4261,4579,4475
11212,4261,4476,4579
11213,4474,4259,4260
11214,4260,4578,4474
11215,4260,4475,4578
11216,4578,4475,4894
11217,4894,4993,4578
11218,5202,5099,5589
11219,5589,5590,5202
11220,5203,5592,5593
11221,5593,5101,5203
11222,5805,5806,6208
11223,6208,6207,5805
11224,5596,6007,6008
11225,6008,5597,5596
11226,6004,6005,5594
11227,5594,5593,6004
11228,5205,5596,5597
11229,5597,5103,5205
11230,5204,5101,5593
11231,5593,5594,5204
11232,5799,6201,6200
11233,6200,5798,5799
11234,6000,6001,5590
11235,5590,5589,6000
11236,5592,6003,6004
11237,6004,5593,5592
11238,3762,3763,3554
11239,3554,3553,3762
11240,3969,3970,3762
11241,3762,3761,3969
11242,3865,3866,4175
11243,4175,4174,3865
11244,3971,3763,3762
11245,3762,3970,3971
11246,3554,3763,3764
11247,3764,3555,3554
11248,4177,4176,3867
11249,3867,3868,4177
11250,3973,3765,3764
11251,3764,3972,3973
11252,3868,3869,4178
11253,4178,4177,3868
11254,3971,3972,3764
11255,3764,3763,3971
11256,3973,3972,4075
11257,4075,4076,3973
11258,4277,4276,4176
11259,4176,4177,4277
11260,4354,4075,4074
11261,4074,4356,4354
11262,3971,4074,4075
11263,4075,3972,3971
11264,4073,3970,3969
11265,3969,4072,4073
11266,4175,4176,4276
11267,4276,4275,4175
11268,4356,4074,4073
11269,4073,4358,4356
11270,3970,4073,4074
11271,4074,3971,3970
11272,5011,4912,5416
11273,5416,5415,5011
11274,5217,5620,5621
11275,5621,5115,5217
11276,5010,5413,5412
11277,5412,4910,5010
11278,5216,5113,5617
11279,5617,5618,5216
11280,5408,5409,5823
11281,5823,5822,5408
11282,6024,6025,5614
11283,5614,5613,6024
11284,5412,5826,5825
11285,5825,5411,5412
11286,5616,6027,6028
11287,6028,5617,5616
11288,5825,5826,6228
11289,6228,6227,5825
11290,5008,5409,5408
11291,5408,4908,5008
11292,5214,5111,5613
11293,5613,5614,5214
11294,5215,5616,5617
11295,5617,5113,5215
11296,5416,5830,5829
11297,5829,5415,5416
11298,5829,5830,6232
11299,6232,6231,5829
11300,5620,6031,6032
11301,6032,5621,5620
11302,5412,5413,5827
11303,5827,5826,5412
11304,6028,6029,5618
11305,5618,5617,6028
11306,5827,6229,6228
11307,6228,5826,5827
11308,4494,4279,4280
11309,4280,4598,4494
11310,4280,4495,4598
11311,4598,4495,4914
11312,4914,5013,4598
11313,4599,4495,4280
11314,4496,4599,4280
11315,4280,4281,4496
11316,4807,4704,4345
11317,4703,4807,4345
11318,4345,4348,4703
11319,4491,4276,4277
11320,4277,4595,4491
11321,4277,4492,4595
11322,4595,4492,4911
11323,4911,5010,4595
11324,4490,4275,4276
11325,4276,4594,4490
11326,4276,4491,4594
11327,4594,5009,4909
11328,4909,4490,4594
11329,4594,4491,4910
11330,4910,5009,4594
11331,5218,5115,5621
11332,5621,5622,5218
11333,5219,5624,5625
11334,5625,5117,5219
11335,5628,6039,6040
11336,6040,5629,5628
11337,6036,6037,5626
11338,5626,5625,6036
11339,5835,6237,6236
11340,6236,5834,5835
11341,5221,5628,5629
11342,5629,5119,5221
11343,5220,5117,5625
11344,5625,5626,5220
11345,6032,6033,5622
11346,5622,5621,6032
11347,5624,6035,6036
11348,6036,5625,5624
11349,1143,1141,933
11350,933,935,1143
11351,1256,1353,1141
11352,1141,1143,1256
11353,1254,1256,1143
11354,1143,1244,1254
11355,1143,935,939
11356,939,1244,1143
11357,1672,1882,1781
11358,1781,1480,1672
11359,1882,2082,1987
11360,1987,1781,1882
11361,2308,2306,2419
11362,2419,2415,2308
11363,2098,1989,2084
11364,2084,2203,2098
11365,1884,1680,2084
11366,2084,1989,1884
11367,2518,2312,2310
11368,2310,2726,2518
11369,6466,6062,6063
11370,6063,6467,6466
11371,6267,6467,6468
11372,6468,6268,6267
11373,6057,6058,6462
11374,6462,6461,6057
11375,6261,6260,6460
11376,6460,6461,6261
11377,6049,6050,6454
11378,6454,6453,6049
11379,6253,6252,6452
11380,6452,6453,6253
11381,6458,6054,6055
11382,6055,6459,6458
11383,6259,6459,6460
11384,6460,6260,6259
11385,6498,6094,6095
11386,6095,6499,6498
11387,6299,6499,6500
11388,6500,6300,6299
11389,6089,6090,6494
11390,6494,6493,6089
11391,6293,6292,6492
11392,6492,6493,6293
11393,6081,6082,6486
11394,6486,6485,6081
11395,6285,6284,6484
11396,6484,6485,6285
11397,6086,6087,6491
11398,6491,6490,6086
11399,6291,6491,6492
11400,6492,6292,6291
11401,6127,6531,6530
11402,6530,6126,6127
11403,6331,6531,6532
11404,6532,6332,6331
11405,6525,6121,6122
11406,6122,6526,6525
11407,6325,6324,6524
11408,6524,6525,6325
11409,6114,6518,6517
11410,6517,6113,6114
11411,6317,6316,6516
11412,6516,6517,6317
11413,6522,6118,6119
11414,6119,6523,6522
11415,6523,6524,6324
11416,6324,6323,6523
11417,6562,6158,6159
11418,6159,6563,6562
11419,6563,6564,6364
11420,6364,6363,6563
11421,6153,6154,6558
11422,6558,6557,6153
11423,6357,6356,6556
11424,6556,6557,6357
11425,6145,6146,6550
11426,6550,6549,6145
11427,6348,6548,6549
11428,6549,6349,6348
11429,6554,6150,6151
11430,6151,6555,6554
11431,6355,6555,6556
11432,6556,6356,6355
11433,6594,6190,6191
11434,6191,6595,6594
11435,6395,6595,6596
11436,6596,6396,6395
11437,6185,6186,6590
11438,6590,6589,6185
11439,6389,6388,6588
11440,6588,6589,6389
11441,6177,6178,6582
11442,6582,6581,6177
11443,6381,6380,6580
11444,6580,6581,6381
11445,6586,6182,6183
11446,6183,6587,6586
11447,6387,6587,6588
11448,6588,6388,6387
11449,6626,6222,6223
11450,6223,6627,6626
11451,6427,6627,6628
11452,6628,6428,6427
11453,6218,6622,6621
11454,6621,6217,6218
11455,6421,6420,6620
11456,6620,6621,6421
11457,6209,6210,6614
11458,6614,6613,6209
11459,6413,6412,6612
11460,6612,6613,6413
11461,6618,6214,6215
11462,6215,6619,6618
11463,6419,6619,6620
11464,6620,6420,6419
11465,6065,6066,6470
11466,6470,6469,6065
11467,6269,6268,6468
11468,6468,6469,6269
11469,6474,6070,6071
11470,6071,6475,6474
11471,6275,6475,6476
11472,6476,6276,6275
11473,6078,6079,6483
11474,6483,6482,6078
11475,6283,6483,6484
11476,6484,6284,6283
11477,6478,6477,6073
11478,6073,6074,6478
11479,6277,6276,6476
11480,6476,6477,6277
11481,6097,6098,6502
11482,6502,6501,6097
11483,6301,6300,6500
11484,6500,6501,6301
11485,6506,6102,6103
11486,6103,6507,6506
11487,6307,6507,6508
11488,6508,6308,6307
11489,6514,6110,6111
11490,6111,6515,6514
11491,6315,6515,6516
11492,6516,6316,6315
11493,6105,6106,6510
11494,6510,6509,6105
11495,6309,6308,6508
11496,6508,6509,6309
11497,6129,6130,6534
11498,6534,6533,6129
11499,6333,6332,6532
11500,6532,6533,6333
11501,6538,6134,6135
11502,6135,6539,6538
11503,6339,6539,6540
11504,6540,6340,6339
11505,6546,6142,6143
11506,6143,6547,6546
11507,6548,6348,6347
11508,6347,6547,6548
11509,6541,6137,6138
11510,6138,6542,6541
11511,6341,6340,6540
11512,6540,6541,6341
11513,6161,6162,6566
11514,6566,6565,6161
11515,6365,6364,6564
11516,6564,6565,6365
11517,6570,6166,6167
11518,6167,6571,6570
11519,6371,6571,6572
11520,6572,6372,6371
11521,6578,6174,6175
11522,6175,6579,6578
11523,6379,6579,6580
11524,6580,6380,6379
11525,6169,6170,6574
11526,6574,6573,6169
11527,6373,6372,6572
11528,6572,6573,6373
11529,6193,6194,6598
11530,6598,6597,6193
11531,6397,6396,6596
11532,6596,6597,6397
11533,6602,6198,6199
11534,6199,6603,6602
11535,6403,6603,6604
11536,6604,6404,6403
11537,6610,6206,6207
11538,6207,6611,6610
11539,6411,6611,6612
11540,6612,6412,6411
11541,6201,6202,6606
11542,6606,6605,6201
11543,6405,6404,6604
11544,6604,6605,6405
11545,6226,6630,6629
11546,6629,6225,6226
11547,6429,6428,6628
11548,6628,6629,6429
11549,6634,6230,6231
11550,6231,6635,6634
11551,6435,6635,6636
11552,6636,6436,6435
11553,6238,6239,6643
11554,6643,6642,6238
11555,6443,6643,6644
11556,6644,6444,6443
11557,6234,6638,6637
11558,6637,6233,6234
11559,6437,6436,6636
11560,6636,6637,6437
11561,3977,3978,3770
11562,3770,3769,3977
11563,3670,3462,3561
11564,3561,3770,3670
11565,4084,4182,3873
11566,3873,3775,4084
11567,3770,3978,3878
11568,3878,3670,3770
11569,4081,3978,3977
11570,3977,4080,4081
11571,4283,4084,4082
11572,4082,4285,4283
11573,4081,4341,4338
11574,4338,3982,4081
11575,3982,3878,3978
11576,3978,4081,3982
11577,3462,3670,3665
11578,3665,3375,3462
11579,3877,3665,3670
11580,3670,3878,3877
11581,4285,4082,3979
11582,3979,4287,4285
11583,3982,4338,4346
11584,4346,3980,3982
11585,3878,3982,3980
11586,3980,3877,3878
11587,3881,3673,3672
11588,3672,3880,3881
11589,3671,3672,3463
11590,3463,3461,3671
11591,4085,3776,3777
11592,3777,4086,4085
11593,3776,4085,4083
11594,4083,3773,3776
11595,3672,3671,3879
11596,3879,3880,3672
11597,3881,3880,3983
11598,3983,3984,3881
11599,4185,4284,4083
11600,4083,4085,4185
11601,3983,3981,4337
11602,4337,4340,3983
11603,3981,3983,3880
11604,3880,3879,3981
11605,3461,3374,3666
11606,3666,3671,3461
11607,4083,4184,3874
11608,3773,4083,3874
11609,3874,3771,3773
11610,3876,3879,3671
11611,3671,3666,3876
11612,4184,4083,4284
11613,4284,4286,4184
11614,4339,4337,3981
11615,3981,4183,4339
11616,3879,3876,4183
11617,4183,3981,3879
11618,4497,4283,4285
11619,4285,4601,4497
11620,4285,4499,4601
11621,4603,4499,4394
11622,4394,4501,4603
11623,4394,4499,4285
11624,4285,4287,4394
11625,4501,4394,4397
11626,4397,4607,4501
11627,4394,4287,4373
11628,4373,4397,4394
11629,4607,4813,4816
11630,4816,4603,4607
11631,4603,4501,4607
11632,5839,6241,6240
11633,6240,5838,5839
11634,5630,5629,6040
11635,6040,6041,5630
11636,5844,5634,5632
11637,5632,6043,5844
11638,5222,5119,5629
11639,5629,5630,5222
11640,5634,5121,5223
11641,5223,5632,5634
11642,5430,5123,5121
11643,5121,5634,5430
11644,5634,5844,6044
11645,6044,5430,5634
11646,6044,6248,6245
11647,6245,5642,6044
11648,5642,5639,6044
11649,4503,4498,4284
11650,4400,4503,4284
11651,4284,4185,4400
11652,4503,4400,4819
11653,4819,4918,4503
11654,4503,4918,4818
11655,4818,4498,4503
11656,4393,4286,4284
11657,4284,4498,4393
11658,4602,4500,4393
11659,4393,4498,4602
11660,4811,4707,4337
11661,4604,4710,4811
11662,4811,4337,4604
11663,4337,4395,4604
11664,4337,4339,4395
11665,4500,4606,4398
11666,4398,4393,4500
11667,4393,4398,4392
11668,4392,4286,4393
11669,5848,5437,5436
11670,5436,5847,5848
11671,5843,5845,5434
11672,5434,5633,5843
11673,5643,6045,6244
11674,6244,5641,5643
11675,5125,5436,5437
11676,5437,5023,5125
11677,5633,5434,5124
11678,5124,5021,5633
11679,5429,5633,5021
11680,5021,5122,5429
11681,5842,5843,5633
11682,5633,5429,5842
11683,5842,5638,5641
11684,5842,5641,6244
11685,6244,6448,5842
11686,6061,6062,6466
11687,6466,6465,6061
11688,6464,6465,6265
11689,6265,6264,6464
11690,6063,6062,5660
11691,5660,5661,6063
11692,5864,5863,6267
11693,6267,6268,5864
11694,5452,5451,5862
11695,5862,5863,5452
11696,5246,5247,5661
11697,5661,5660,5246
11698,5860,6264,6265
11699,6265,5861,5860
11700,5450,5861,5862
11701,5862,5451,5450
11702,5659,5660,6062
11703,6062,6061,5659
11704,5246,5660,5659
11705,5659,5245,5246
11706,6058,6057,5655
11707,5655,5656,6058
11708,5856,6260,6261
11709,6261,5857,5856
11710,5858,5447,5446
11711,5446,5857,5858
11712,5242,5656,5655
11713,5655,5241,5242
11714,6462,6058,6059
11715,6059,6463,6462
11716,6263,6463,6464
11717,6464,6264,6263
11718,6059,6058,5656
11719,5656,5657,6059
11720,5448,5447,5858
11721,5858,5859,5448
11722,5242,5243,5657
11723,5657,5656,5242
11724,5860,5859,6263
11725,6263,6264,5860
11726,6050,6049,5647
11727,5647,5648,6050
11728,6253,5849,5848
11729,5848,6252,6253
11730,5438,5849,5850
11731,5850,5439,5438
11732,6454,6050,6051
11733,6051,6455,6454
11734,6456,6256,6255
11735,6255,6455,6456
11736,6051,6050,5648
11737,5648,5649,6051
11738,5440,5439,5850
11739,5850,5851,5440
11740,6255,6256,5852
11741,5852,5851,6255
11742,6054,5652,5653
11743,5653,6055,6054
11744,6259,6260,5856
11745,5856,5855,6259
11746,5854,5855,5444
11747,5444,5443,5854
11748,6053,6054,6458
11749,6458,6457,6053
11750,6257,6256,6456
11751,6456,6457,6257
11752,5652,6054,6053
11753,6053,5651,5652
11754,5854,5443,5442
11755,5442,5853,5854
11756,5852,6256,6257
11757,6257,5853,5852
11758,6093,6094,6498
11759,6498,6497,6093
11760,6496,6497,6297
11761,6297,6296,6496
11762,5896,5895,6299
11763,6299,6300,5896
11764,5484,5483,5894
11765,5894,5895,5484
11766,5693,6095,6094
11767,6094,5692,5693
11768,5278,5279,5693
11769,5693,5692,5278
11770,6094,6093,5691
11771,5691,5692,6094
11772,5892,6296,6297
11773,6297,5893,5892
11774,5482,5893,5894
11775,5894,5483,5482
11776,5278,5692,5691
11777,5691,5277,5278
11778,6090,6089,5687
11779,5687,5688,6090
11780,5888,6292,6293
11781,6293,5889,5888
11782,5890,5479,5478
11783,5478,5889,5890
11784,5274,5688,5687
11785,5687,5273,5274
11786,6494,6090,6091
11787,6091,6495,6494
11788,6295,6495,6496
11789,6496,6296,6295
11790,5480,5479,5890
11791,5890,5891,5480
11792,5688,5689,6091
11793,6091,6090,5688
11794,5688,5274,5275
11795,5275,5689,5688
11796,5892,5891,6295
11797,6295,6296,5892
11798,6082,6081,5679
11799,5679,5680,6082
11800,5880,6284,6285
11801,6285,5881,5880
11802,5470,5881,5882
11803,5882,5471,5470
11804,6486,6082,6083
11805,6083,6487,6486
11806,6488,6288,6287
11807,6287,6487,6488
11808,6083,6082,5680
11809,5680,5681,6083
11810,5472,5471,5882
11811,5882,5883,5472
11812,6287,6288,5884
11813,5884,5883,6287
11814,6291,6292,5888
11815,5888,5887,6291
11816,6086,5684,5685
11817,5685,6087,6086
11818,5886,5887,5476
11819,5476,5475,5886
11820,6490,6489,6085
11821,6085,6086,6490
11822,6289,6288,6488
11823,6488,6489,6289
11824,5684,6086,6085
11825,6085,5683,5684
11826,5886,5475,5474
11827,5474,5885,5886
11828,5884,6288,6289
11829,6289,5885,5884
11830,6125,6126,6530
11831,6530,6529,6125
11832,6529,6329,6328
11833,6328,6528,6529
11834,6127,6126,5724
11835,5724,5725,6127
11836,5928,5927,6331
11837,6331,6332,5928
11838,5516,5515,5926
11839,5926,5927,5516
11840,5310,5311,5725
11841,5725,5724,5310
11842,5925,5924,6328
11843,6328,6329,5925
11844,5514,5925,5926
11845,5926,5515,5514
11846,5723,5724,6126
11847,6126,6125,5723
11848,5310,5724,5723
11849,5723,5309,5310
11850,6122,6121,5719
11851,5719,5720,6122
11852,5920,6324,6325
11853,6325,5921,5920
11854,5922,5511,5510
11855,5510,5921,5922
11856,5306,5720,5719
11857,5719,5305,5306
11858,6526,6122,6123
11859,6123,6527,6526
11860,6327,6527,6528
11861,6528,6328,6327
11862,5721,6123,6122
11863,6122,5720,5721
11864,5923,5512,5511
11865,5511,5922,5923
11866,5306,5307,5721
11867,5721,5720,5306
11868,6327,6328,5924
11869,5924,5923,6327
11870,6114,6113,5711
11871,5711,5712,6114
11872,5912,6316,6317
11873,6317,5913,5912
11874,5914,5503,5502
11875,5502,5913,5914
11876,6518,6114,6115
11877,6115,6519,6518
11878,6520,6320,6319
11879,6319,6519,6520
11880,6115,6114,5712
11881,5712,5713,6115
11882,5503,5914,5915
11883,5915,5504,5503
11884,6319,6320,5916
11885,5916,5915,6319
11886,6119,6118,5716
11887,5716,5717,6119
11888,6323,6324,5920
11889,5920,5919,6323
11890,5918,5919,5508
11891,5508,5507,5918
11892,6118,6522,6521
11893,6521,6117,6118
11894,6321,6320,6520
11895,6520,6521,6321
11896,6118,6117,5715
11897,5715,5716,6118
11898,5918,5507,5506
11899,5506,5917,5918
11900,5916,6320,6321
11901,6321,5917,5916
11902,6157,6158,6562
11903,6562,6561,6157
11904,6561,6361,6360
11905,6360,6560,6561
11906,5960,5959,6363
11907,6363,6364,5960
11908,5959,5548,5547
11909,5547,5958,5959
11910,5757,6159,6158
11911,6158,5756,5757
11912,5342,5343,5757
11913,5757,5756,5342
11914,6158,6157,5755
11915,5755,5756,6158
11916,5956,6360,6361
11917,6361,5957,5956
11918,5957,5958,5547
11919,5547,5546,5957
11920,5342,5756,5755
11921,5755,5341,5342
11922,6154,6153,5751
11923,5751,5752,6154
11924,6357,5953,5952
11925,5952,6356,6357
11926,5953,5954,5543
11927,5543,5542,5953
11928,5338,5752,5751
11929,5751,5337,5338
11930,6558,6154,6155
11931,6155,6559,6558
11932,6359,6559,6560
11933,6560,6360,6359
11934,5955,5544,5543
11935,5543,5954,5955
11936,6155,6154,5752
11937,5752,5753,6155
11938,5339,5753,5752
11939,5752,5338,5339
11940,5956,5955,6359
11941,6359,6360,5956
11942,6146,6145,5743
11943,5743,5744,6146
11944,6348,6349,5945
11945,5945,5944,6348
11946,5534,5945,5946
11947,5946,5535,5534
11948,6550,6146,6147
11949,6147,6551,6550
11950,6551,6552,6352
11951,6352,6351,6551
11952,6147,6146,5744
11953,5744,5745,6147
11954,5947,5536,5535
11955,5535,5946,5947
11956,6351,6352,5948
11957,5948,5947,6351
11958,6355,6356,5952
11959,5952,5951,6355
11960,5748,5749,6151
11961,6151,6150,5748
11962,5950,5951,5540
11963,5540,5539,5950
11964,6149,6150,6554
11965,6554,6553,6149
11966,6353,6352,6552
11967,6552,6553,6353
11968,6150,6149,5747
11969,5747,5748,6150
11970,5538,5949,5950
11971,5950,5539,5538
11972,5948,6352,6353
11973,6353,5949,5948
11974,6190,6594,6593
11975,6593,6189,6190
11976,6592,6593,6393
11977,6393,6392,6592
11978,5788,5789,6191
11979,6191,6190,5788
11980,5992,5991,6395
11981,6395,6396,5992
11982,5580,5579,5990
11983,5990,5991,5580
11984,5788,5374,5375
11985,5375,5789,5788
11986,5988,6392,6393
11987,6393,5989,5988
11988,5578,5989,5990
11989,5990,5579,5578
11990,6190,6189,5787
11991,5787,5788,6190
11992,5374,5788,5787
11993,5787,5373,5374
11994,6186,6185,5783
11995,5783,5784,6186
11996,5984,6388,6389
11997,6389,5985,5984
11998,5986,5575,5574
11999,5574,5985,5986
12000,5370,5784,5783
12001,5783,5369,5370
12002,6590,6186,6187
12003,6187,6591,6590
12004,6391,6591,6592
12005,6592,6392,6391
12006,5784,5785,6187
12007,6187,6186,5784
12008,5576,5575,5986
12009,5986,5987,5576
12010,5784,5370,5371
12011,5371,5785,5784
12012,5988,5987,6391
12013,6391,6392,5988
12014,6178,6177,5775
12015,5775,5776,6178
12016,5976,6380,6381
12017,6381,5977,5976
12018,5567,5566,5977
12019,5977,5978,5567
12020,6582,6178,6179
12021,6179,6583,6582
12022,6584,6384,6383
12023,6383,6583,6584
12024,6179,6178,5776
12025,5776,5777,6179
12026,5978,5979,5568
12027,5568,5567,5978
12028,6383,6384,5980
12029,5980,5979,6383
12030,5780,5781,6183
12031,6183,6182,5780
12032,6387,6388,5984
12033,5984,5983,6387
12034,5982,5983,5572
12035,5572,5571,5982
12036,6182,6586,6585
12037,6585,6181,6182
12038,6385,6384,6584
12039,6584,6585,6385
12040,6182,6181,5779
12041,5779,5780,6182
12042,5982,5571,5570
12043,5570,5981,5982
12044,5980,6384,6385
12045,6385,5981,5980
12046,6222,6626,6625
12047,6625,6221,6222
12048,6624,6625,6425
12049,6425,6424,6624
12050,6024,6023,6427
12051,6427,6428,6024
12052,5612,5611,6022
12053,6022,6023,5612
12054,5821,6223,6222
12055,6222,5820,5821
12056,5406,5407,5821
12057,5821,5820,5406
12058,6222,6221,5819
12059,5819,5820,6222
12060,6020,6424,6425
12061,6425,6021,6020
12062,5610,6021,6022
12063,6022,5611,5610
12064,5406,5820,5819
12065,5819,5405,5406
12066,6218,6217,5815
12067,5815,5816,6218
12068,6016,6420,6421
12069,6421,6017,6016
12070,6018,5607,5606
12071,5606,6017,6018
12072,5816,5815,5401
12073,5401,5402,5816
12074,6622,6218,6219
12075,6219,6623,6622
12076,6423,6623,6624
12077,6624,6424,6423
12078,5608,5607,6018
12079,6018,6019,5608
12080,5816,5817,6219
12081,6219,6218,5816
12082,5402,5403,5817
12083,5817,5816,5402
12084,6020,6019,6423
12085,6423,6424,6020
12086,6210,6209,5807
12087,5807,5808,6210
12088,6008,6412,6413
12089,6413,6009,6008
12090,6010,5599,5598
12091,5598,6009,6010
12092,6614,6210,6211
12093,6211,6615,6614
12094,6616,6416,6415
12095,6415,6615,6616
12096,6211,6210,5808
12097,5808,5809,6211
12098,5599,6010,6011
12099,6011,5600,5599
12100,6415,6416,6012
12101,6012,6011,6415
12102,6419,6420,6016
12103,6016,6015,6419
12104,5812,5813,6215
12105,6215,6214,5812
12106,5603,6014,6015
12107,6015,5604,5603
12108,6213,6214,6618
12109,6618,6617,6213
12110,6417,6416,6616
12111,6616,6617,6417
12112,6214,6213,5811
12113,5811,5812,6214
12114,6014,5603,5602
12115,5602,6013,6014
12116,6012,6416,6417
12117,6417,6013,6012
12118,6066,6065,5663
12119,5663,5664,6066
12120,6269,5865,5864
12121,5864,6268,6269
12122,5454,5865,5866
12123,5866,5455,5454
12124,5250,5664,5663
12125,5663,5249,5250
12126,6470,6066,6067
12127,6067,6471,6470
12128,6472,6272,6271
12129,6271,6471,6472
12130,5456,5455,5866
12131,5866,5867,5456
12132,5664,5665,6067
12133,6067,6066,5664
12134,5250,5251,5665
12135,5665,5664,5250
12136,5868,5867,6271
12137,6271,6272,5868
12138,6071,6070,5668
12139,5668,5669,6071
12140,5872,5871,6275
12141,6275,6276,5872
12142,5870,5871,5460
12143,5460,5459,5870
12144,5254,5255,5669
12145,5669,5668,5254
12146,6069,6070,6474
12147,6474,6473,6069
12148,6273,6272,6472
12149,6472,6473,6273
12150,6070,6069,5667
12151,5667,5668,6070
12152,5458,5869,5870
12153,5870,5459,5458
12154,5254,5668,5667
12155,5667,5253,5254
12156,5868,6272,6273
12157,6273,5869,5868
12158,6079,6078,5676
12159,5676,5677,6079
12160,6283,6284,5880
12161,5880,5879,6283
12162,5467,5878,5879
12163,5879,5468,5467
12164,6482,6481,6077
12165,6077,6078,6482
12166,6480,6481,6281
12167,6281,6280,6480
12168,6078,6077,5675
12169,5675,5676,6078
12170,5878,5467,5466
12171,5466,5877,5878
12172,5876,6280,6281
12173,6281,5877,5876
12174,5672,6074,6073
12175,6073,5671,5672
12176,6277,5873,5872
12177,5872,6276,6277
12178,5874,5463,5462
12179,5462,5873,5874
12180,6074,6075,6479
12181,6479,6478,6074
12182,6279,6479,6480
12183,6480,6280,6279
12184,6074,5672,5673
12185,5673,6075,6074
12186,5463,5874,5875
12187,5875,5464,5463
12188,6279,6280,5876
12189,5876,5875,6279
12190,6098,6097,5695
12191,5695,5696,6098
12192,6301,5897,5896
12193,5896,6300,6301
12194,5486,5897,5898
12195,5898,5487,5486
12196,5282,5696,5695
12197,5695,5281,5282
12198,6502,6098,6099
12199,6099,6503,6502
12200,6504,6304,6303
12201,6303,6503,6504
12202,6099,6098,5696
12203,5696,5697,6099
12204,5488,5487,5898
12205,5898,5899,5488
12206,5282,5283,5697
12207,5697,5696,5282
12208,5900,5899,6303
12209,6303,6304,5900
12210,6103,6102,5700
12211,5700,5701,6103
12212,5904,5903,6307
12213,6307,6308,5904
12214,5902,5903,5492
12215,5492,5491,5902
12216,5700,5286,5287
12217,5287,5701,5700
12218,6101,6102,6506
12219,6506,6505,6101
12220,6305,6304,6504
12221,6504,6505,6305
12222,5490,5901,5902
12223,5902,5491,5490
12224,5699,5700,6102
12225,6102,6101,5699
12226,5286,5700,5699
12227,5699,5285,5286
12228,5900,6304,6305
12229,6305,5901,5900
12230,6110,5708,5709
12231,5709,6111,6110
12232,6315,6316,5912
12233,5912,5911,6315
12234,5500,5499,5910
12235,5910,5911,5500
12236,6109,6110,6514
12237,6514,6513,6109
12238,6512,6513,6313
12239,6313,6312,6512
12240,5708,6110,6109
12241,6109,5707,5708
12242,5910,5499,5498
12243,5498,5909,5910
12244,5908,6312,6313
12245,6313,5909,5908
12246,6309,5905,5904
12247,5904,6308,6309
12248,5704,6106,6105
12249,6105,5703,5704
12250,5906,5495,5494
12251,5494,5905,5906
12252,6510,6106,6107
12253,6107,6511,6510
12254,6311,6511,6512
12255,6512,6312,6311
12256,6106,5704,5705
12257,5705,6107,6106
12258,5495,5906,5907
12259,5907,5496,5495
12260,6311,6312,5908
12261,5908,5907,6311
12262,6130,6129,5727
12263,5727,5728,6130
12264,6333,5929,5928
12265,5928,6332,6333
12266,5518,5929,5930
12267,5930,5519,5518
12268,5727,5313,5314
12269,5314,5728,5727
12270,6131,6535,6534
12271,6534,6130,6131
12272,6536,6336,6335
12273,6335,6535,6536
12274,5520,5519,5930
12275,5930,5931,5520
12276,5728,5729,6131
12277,6131,6130,5728
12278,5314,5315,5729
12279,5729,5728,5314
12280,5932,5931,6335
12281,6335,6336,5932
12282,5733,6135,6134
12283,6134,5732,5733
12284,5936,5935,6339
12285,6339,6340,5936
12286,5934,5935,5524
12287,5524,5523,5934
12288,5318,5319,5733
12289,5733,5732,5318
12290,6133,6134,6538
12291,6538,6537,6133
12292,6537,6337,6336
12293,6336,6536,6537
12294,6133,5731,5732
12295,5732,6134,6133
12296,5522,5933,5934
12297,5934,5523,5522
12298,5318,5732,5731
12299,5731,5317,5318
12300,5932,6336,6337
12301,6337,5933,5932
12302,6143,6142,5740
12303,5740,5741,6143
12304,5944,5943,6347
12305,6347,6348,5944
12306,5532,5531,5942
12307,5942,5943,5532
12308,6545,6141,6142
12309,6142,6546,6545
12310,6345,6344,6544
12311,6544,6545,6345
12312,6142,6141,5739
12313,5739,5740,6142
12314,5942,5531,5530
12315,5530,5941,5942
12316,6345,5941,5940
12317,5940,6344,6345
12318,6138,6137,5735
12319,5735,5736,6138
12320,5937,5936,6340
12321,6340,6341,5937
12322,5526,5937,5938
12323,5938,5527,5526
12324,6139,6543,6542
12325,6542,6138,6139
12326,6543,6544,6344
12327,6344,6343,6543
12328,6139,6138,5736
12329,5736,5737,6139
12330,5939,5528,5527
12331,5527,5938,5939
12332,6343,6344,5940
12333,5940,5939,6343
12334,6162,6161,5759
12335,5759,5760,6162
12336,6365,5961,5960
12337,5960,6364,6365
12338,5550,5961,5962
12339,5962,5551,5550
12340,5759,5345,5346
12341,5346,5760,5759
12342,6566,6162,6163
12343,6163,6567,6566
12344,6567,6568,6368
12345,6368,6367,6567
12346,6163,6162,5760
12347,5760,5761,6163
12348,5963,5552,5551
12349,5551,5962,5963
12350,5347,5761,5760
12351,5760,5346,5347
12352,5964,5963,6367
12353,6367,6368,5964
12354,6167,6166,5764
12355,5764,5765,6167
12356,5967,6371,6372
12357,6372,5968,5967
12358,5966,5967,5556
12359,5556,5555,5966
12360,5350,5351,5765
12361,5765,5764,5350
12362,6569,6165,6166
12363,6166,6570,6569
12364,6369,6368,6568
12365,6568,6569,6369
12366,5554,5965,5966
12367,5966,5555,5554
12368,5763,5764,6166
12369,6166,6165,5763
12370,5763,5349,5350
12371,5350,5764,5763
12372,5964,6368,6369
12373,6369,5965,5964
12374,6175,6174,5772
12375,5772,5773,6175
12376,6379,6380,5976
12377,5976,5975,6379
12378,5564,5563,5974
12379,5974,5975,5564
12380,6173,6174,6578
12381,6578,6577,6173
12382,6576,6577,6377
12383,6377,6376,6576
12384,6174,6173,5771
12385,5771,5772,6174
12386,5974,5563,5562
12387,5562,5973,5974
12388,5972,6376,6377
12389,6377,5973,5972
12390,6373,5969,5968
12391,5968,6372,6373
12392,5768,6170,6169
12393,6169,5767,5768
12394,5559,5558,5969
12395,5969,5970,5559
12396,6574,6170,6171
12397,6171,6575,6574
12398,6375,6575,6576
12399,6576,6376,6375
12400,6170,5768,5769
12401,5769,6171,6170
12402,5970,5971,5560
12403,5560,5559,5970
12404,6375,6376,5972
12405,5972,5971,6375
12406,5792,6194,6193
12407,6193,5791,5792
12408,6397,5993,5992
12409,5992,6396,6397
12410,5994,5583,5582
12411,5582,5993,5994
12412,5378,5792,5791
12413,5791,5377,5378
12414,6598,6194,6195
12415,6195,6599,6598
12416,6600,6400,6399
12417,6399,6599,6600
12418,5583,5994,5995
12419,5995,5584,5583
12420,6194,5792,5793
12421,5793,6195,6194
12422,5378,5379,5793
12423,5793,5792,5378
12424,5996,5995,6399
12425,6399,6400,5996
12426,6199,6198,5796
12427,5796,5797,6199
12428,6000,5999,6403
12429,6403,6404,6000
12430,5587,5998,5999
12431,5999,5588,5587
12432,5796,5382,5383
12433,5383,5797,5796
12434,6197,6198,6602
12435,6602,6601,6197
12436,6401,6400,6600
12437,6600,6601,6401
12438,6198,6197,5795
12439,5795,5796,6198
12440,5998,5587,5586
12441,5586,5997,5998
12442,5382,5796,5795
12443,5795,5381,5382
12444,5996,6400,6401
12445,6401,5997,5996
12446,6206,5804,5805
12447,5805,6207,6206
12448,6411,6412,6008
12449,6008,6007,6411
12450,5596,5595,6006
12451,6006,6007,5596
12452,6205,6206,6610
12453,6610,6609,6205
12454,6608,6609,6409
12455,6409,6408,6608
12456,5804,6206,6205
12457,6205,5803,5804
12458,6006,5595,5594
12459,5594,6005,6006
12460,6004,6408,6409
12461,6409,6005,6004
12462,6202,6201,5799
12463,5799,5800,6202
12464,6405,6001,6000
12465,6000,6404,6405
12466,6002,5591,5590
12467,5590,6001,6002
12468,6606,6202,6203
12469,6203,6607,6606
12470,6407,6607,6608
12471,6608,6408,6407
12472,6203,6202,5800
12473,5800,5801,6203
12474,5592,5591,6002
12475,6002,6003,5592
12476,6407,6408,6004
12477,6004,6003,6407
12478,6226,6225,5823
12479,5823,5824,6226
12480,6429,6025,6024
12481,6024,6428,6429
12482,5615,5614,6025
12483,6025,6026,5615
12484,5410,5824,5823
12485,5823,5409,5410
12486,6630,6226,6227
12487,6227,6631,6630
12488,6632,6432,6431
12489,6431,6631,6632
12490,6227,6226,5824
12491,5824,5825,6227
12492,6026,6027,5616
12493,5616,5615,6026
12494,5410,5411,5825
12495,5825,5824,5410
12496,6028,6027,6431
12497,6431,6432,6028
12498,6231,6230,5828
12499,5828,5829,6231
12500,6032,6031,6435
12501,6435,6436,6032
12502,6030,6031,5620
12503,5620,5619,6030
12504,5414,5415,5829
12505,5829,5828,5414
12506,6230,6634,6633
12507,6633,6229,6230
12508,6433,6432,6632
12509,6632,6633,6433
12510,5618,6029,6030
12511,6030,5619,5618
12512,5827,5828,6230
12513,6230,6229,5827
12514,5414,5828,5827
12515,5827,5413,5414
12516,6028,6432,6433
12517,6433,6029,6028
12518,6239,6238,5836
12519,5836,5837,6239
12520,6443,6444,6040
12521,6040,6039,6443
12522,5628,5627,6038
12523,6038,6039,5628
12524,6642,6641,6237
12525,6237,6238,6642
12526,6640,6641,6441
12527,6441,6440,6640
12528,6238,6237,5835
12529,5835,5836,6238
12530,6038,5627,5626
12531,5626,6037,6038
12532,6036,6440,6441
12533,6441,6037,6036
12534,6437,6033,6032
12535,6032,6436,6437
12536,6234,6233,5831
12537,5831,5832,6234
12538,6034,5623,5622
12539,5622,6033,6034
12540,6638,6234,6235
12541,6235,6639,6638
12542,6439,6639,6640
12543,6640,6440,6439
12544,5832,5833,6235
12545,6235,6234,5832
12546,5624,5623,6034
12547,6034,6035,5624
12548,6439,6440,6036
12549,6036,6035,6439
12550,6445,6444,6644
12551,6644,6645,6445
12552,6242,6646,6645
12553,6645,6241,6242
12554,6251,6451,6452
12555,6452,6252,6251
12556,6046,6047,6451
12557,6451,6450,6046
12558,6040,6444,6445
12559,6445,6041,6040
12560,6242,6241,5839
12561,5839,5840,6242
12562,5630,6041,6042
12563,6042,5631,5630
12564,6646,6242,6243
12565,6243,6647,6646
12566,6447,6647,6649
12567,6649,6247,6447
12568,5840,5841,6243
12569,6243,6242,5840
12570,5632,5631,6042
12571,6042,6043,5632
12572,6247,5844,6043
12573,6043,6447,6247
12574,6649,6651,6248
12575,6248,6247,6649
12576,6248,6044,5844
12577,5844,6247,6248
12578,5639,5636,5640
12579,5640,6044,5639
12580,5640,5225,5430
12581,5430,6044,5640
12582,5848,5847,6251
12583,6251,6252,5848
12584,6046,5644,5645
12585,5645,6047,6046
12586,5436,5435,5846
12587,5846,5847,5436
12588,6450,6449,6045
12589,6045,6046,6450
12590,6249,6246,6648
12591,6648,6449,6249
12592,5644,6046,6045
12593,6045,5643,5644
12594,5846,5435,5434
12595,5434,5845,5846
12596,6246,6249,5845
12597,5845,5843,6246
12598,6648,6246,6448
12599,6448,6650,6648
12600,5843,5842,6448
12601,6448,6246,5843
12602,5638,5842,5637
12603,5637,5635,5638
12604,5637,5842,5429
12605,5429,5433,5637
12606,4717,4613,5027
12607,5027,5130,4717
12608,5130,5446,5447
12609,5447,5028,5130
12610,4924,4825,5242
12611,5242,5241,4924
12612,5131,5028,5447
12613,5447,5448,5131
12614,4925,5243,5242
12615,5242,4825,4925
12616,4718,5131,5029
12617,5029,4615,4718
12618,4720,5133,5031
12619,5031,4617,4720
12620,5133,5030,5451
12621,5451,5452,5133
12622,4927,5247,5246
12623,5246,4827,4927
12624,4719,4615,5029
12625,5029,5132,4719
12626,5132,5450,5451
12627,5451,5030,5132
12628,4926,4827,5246
12629,5246,5245,4926
12630,4507,4922,4822
12631,4822,4403,4507
12632,4505,4920,4820
12633,4820,4401,4505
12634,4716,5129,5027
12635,5027,4613,4716
12636,5129,5026,5443
12637,5443,5444,5129
12638,4715,4611,5025
12639,5025,5128,4715
12640,5128,5442,5443
12641,5443,5026,5128
12642,4713,4609,5023
12643,5023,5126,4713
12644,5126,5438,5439
12645,5439,5024,5126
12646,4714,5127,5025
12647,5025,4611,4714
12648,5127,5024,5439
12649,5439,5440,5127
12650,4509,4924,4824
12651,4824,4405,4509
12652,4512,4409,4828
12653,4828,4927,4512
12654,4511,4926,4826
12655,4826,4407,4511
12656,4733,4629,5043
12657,5043,5146,4733
12658,5146,5478,5479
12659,5479,5044,5146
12660,5147,5044,5479
12661,5479,5480,5147
12662,4941,5275,5274
12663,5274,4841,4941
12664,4734,5147,5045
12665,5045,4631,4734
12666,4736,5149,5047
12667,5047,4633,4736
12668,5149,5046,5483
12669,5483,5484,5149
12670,4943,5279,5278
12671,5278,4843,4943
12672,4735,4631,5045
12673,5045,5148,4735
12674,5148,5482,5483
12675,5483,5046,5148
12676,4942,4843,5278
12677,5278,5277,4942
12678,4524,4421,4840
12679,4840,4939,4524
12680,4523,4938,4838
12681,4838,4419,4523
12682,4521,4936,4836
12683,4836,4417,4521
12684,4522,4419,4838
12685,4838,4937,4522
12686,4732,5145,5043
12687,5043,4629,4732
12688,5145,5042,5475
12689,5475,5476,5145
12690,4731,4627,5041
12691,5041,5144,4731
12692,5144,5474,5475
12693,5475,5042,5144
12694,4729,4625,5039
12695,5039,5142,4729
12696,5142,5470,5471
12697,5471,5040,5142
12698,4730,5143,5041
12699,5041,4627,4730
12700,5143,5040,5471
12701,5471,5472,5143
12702,4749,4645,5059
12703,5059,5162,4749
12704,5162,5510,5511
12705,5511,5060,5162
12706,4956,4857,5306
12707,5306,5305,4956
12708,5163,5060,5511
12709,5511,5512,5163
12710,4957,5307,5306
12711,5306,4857,4957
12712,4750,5163,5061
12713,5061,4647,4750
12714,4752,5165,5063
12715,5063,4649,4752
12716,5165,5062,5515
12717,5515,5516,5165
12718,4959,5311,5310
12719,5310,4859,4959
12720,4751,4647,5061
12721,5061,5164,4751
12722,5164,5514,5515
12723,5515,5062,5164
12724,4958,4859,5310
12725,5310,5309,4958
12726,4537,4952,4852
12727,4852,4433,4537
12728,4748,5161,5059
12729,5059,4645,4748
12730,5161,5058,5507
12731,5507,5508,5161
12732,4747,4643,5057
12733,5057,5160,4747
12734,5160,5506,5507
12735,5507,5058,5160
12736,4745,4641,5055
12737,5055,5158,4745
12738,5158,5502,5503
12739,5503,5056,5158
12740,4746,5159,5057
12741,5057,4643,4746
12742,5159,5056,5503
12743,5503,5504,5159
12744,4541,4956,4856
12745,4856,4437,4541
12746,4542,4439,4858
12747,4858,4957,4542
12748,4544,4441,4860
12749,4860,4959,4544
12750,4543,4958,4858
12751,4858,4439,4543
12752,4765,4661,5075
12753,5075,5178,4765
12754,5178,5542,5543
12755,5543,5076,5178
12756,5179,5076,5543
12757,5543,5544,5179
12758,4973,5339,5338
12759,5338,4873,4973
12760,4766,5179,5077
12761,5077,4663,4766
12762,4768,5181,5079
12763,5079,4665,4768
12764,5181,5078,5547
12765,5547,5548,5181
12766,4975,5343,5342
12767,5342,4875,4975
12768,4767,4663,5077
12769,5077,5180,4767
12770,5180,5546,5547
12771,5547,5078,5180
12772,4974,4875,5342
12773,5342,5341,4974
12774,4556,4453,4872
12775,4872,4971,4556
12776,4555,4970,4870
12777,4870,4451,4555
12778,4553,4968,4868
12779,4868,4449,4553
12780,4554,4451,4870
12781,4870,4969,4554
12782,4764,5177,5075
12783,5075,4661,4764
12784,5177,5074,5539
12785,5539,5540,5177
12786,4763,4659,5073
12787,5073,5176,4763
12788,5176,5538,5539
12789,5539,5074,5176
12790,4761,4657,5071
12791,5071,5174,4761
12792,5174,5534,5535
12793,5535,5072,5174
12794,4762,5175,5073
12795,5073,4659,4762
12796,5175,5072,5535
12797,5535,5536,5175
12798,4558,4455,4874
12799,4874,4973,4558
12800,4781,4677,5091
12801,5091,5194,4781
12802,5194,5574,5575
12803,5575,5092,5194
12804,4988,4889,5370
12805,5370,5369,4988
12806,5195,5092,5575
12807,5575,5576,5195
12808,4989,5371,5370
12809,5370,4889,4989
12810,4782,5195,5093
12811,5093,4679,4782
12812,4784,5197,5095
12813,5095,4681,4784
12814,5197,5094,5579
12815,5579,5580,5197
12816,4991,5375,5374
12817,5374,4891,4991
12818,4783,4679,5093
12819,5093,5196,4783
12820,5196,5578,5579
12821,5579,5094,5196
12822,4990,4891,5374
12823,5374,5373,4990
12824,4571,4986,4886
12825,4886,4467,4571
12826,4569,4984,4884
12827,4884,4465,4569
12828,4780,5193,5091
12829,5091,4677,4780
12830,5193,5090,5571
12831,5571,5572,5193
12832,4779,4675,5089
12833,5089,5192,4779
12834,5192,5570,5571
12835,5571,5090,5192
12836,4777,4673,5087
12837,5087,5190,4777
12838,5190,5566,5567
12839,5567,5088,5190
12840,4778,5191,5089
12841,5089,4675,4778
12842,5191,5088,5567
12843,5567,5568,5191
12844,4573,4988,4888
12845,4888,4469,4573
12846,4576,4473,4892
12847,4892,4991,4576
12848,4575,4990,4890
12849,4890,4471,4575
12850,4797,4693,5107
12851,5107,5210,4797
12852,5210,5606,5607
12853,5607,5108,5210
12854,5211,5108,5607
12855,5607,5608,5211
12856,5005,5403,5402
12857,5402,4905,5005
12858,4798,5211,5109
12859,5109,4695,4798
12860,4800,5213,5111
12861,5111,4697,4800
12862,5213,5110,5611
12863,5611,5612,5213
12864,5007,5407,5406
12865,5406,4907,5007
12866,4799,4695,5109
12867,5109,5212,4799
12868,5212,5610,5611
12869,5611,5110,5212
12870,5006,4907,5406
12871,5406,5405,5006
12872,4588,4485,4904
12873,4904,5003,4588
12874,4587,5002,4902
12875,4902,4483,4587
12876,4585,5000,4900
12877,4900,4481,4585
12878,4586,4483,4902
12879,4902,5001,4586
12880,4796,5209,5107
12881,5107,4693,4796
12882,5209,5106,5603
12883,5603,5604,5209
12884,4795,4691,5105
12885,5105,5208,4795
12886,5208,5602,5603
12887,5603,5106,5208
12888,4793,4689,5103
12889,5103,5206,4793
12890,5206,5598,5599
12891,5599,5104,5206
12892,4794,5207,5105
12893,5105,4691,4794
12894,5207,5104,5599
12895,5599,5600,5207
12896,4724,5137,5035
12897,5035,4621,4724
12898,5137,5034,5459
12899,5459,5460,5137
12900,4723,4619,5033
12901,5033,5136,4723
12902,5136,5458,5459
12903,5459,5034,5136
12904,4721,4617,5031
12905,5031,5134,4721
12906,5134,5454,5455
12907,5455,5032,5134
12908,4928,4829,5250
12909,5250,5249,4928
12910,4722,5135,5033
12911,5033,4619,4722
12912,5135,5032,5455
12913,5455,5456,5135
12914,4929,5251,5250
12915,5250,4829,4929
12916,4517,4932,4832
12917,4832,4413,4517
12918,4518,4415,4834
12919,4834,4933,4518
12920,4516,4413,4832
12921,4832,4931,4516
12922,4515,4930,4830
12923,4830,4411,4515
12924,4513,4928,4828
12925,4828,4409,4513
12926,4725,4621,5035
12927,5035,5138,4725
12928,5138,5462,5463
12929,5463,5036,5138
12930,4726,5139,5037
12931,5037,4623,4726
12932,5139,5036,5463
12933,5463,5464,5139
12934,4728,5141,5039
12935,5039,4625,4728
12936,5141,5038,5467
12937,5467,5468,5141
12938,4727,4623,5037
12939,5037,5140,4727
12940,5140,5466,5467
12941,5467,5038,5140
12942,4740,5153,5051
12943,5051,4637,4740
12944,5153,5050,5491
12945,5491,5492,5153
12946,4739,4635,5049
12947,5049,5152,4739
12948,5152,5490,5491
12949,5491,5050,5152
12950,4946,4847,5286
12951,5286,5285,4946
12952,4737,4633,5047
12953,5047,5150,4737
12954,5150,5486,5487
12955,5487,5048,5150
12956,4738,5151,5049
12957,5049,4635,4738
12958,5151,5048,5487
12959,5487,5488,5151
12960,4533,4948,4848
12961,4848,4429,4533
12962,4536,4433,4852
12963,4852,4951,4536
12964,4535,4950,4850
12965,4850,4431,4535
12966,4531,4946,4846
12967,4846,4427,4531
12968,4741,4637,5051
12969,5051,5154,4741
12970,5154,5494,5495
12971,5495,5052,5154
12972,4742,5155,5053
12973,5053,4639,4742
12974,5155,5052,5495
12975,5495,5496,5155
12976,4744,5157,5055
12977,5055,4641,4744
12978,5157,5054,5499
12979,5499,5500,5157
12980,4743,4639,5053
12981,5053,5156,4743
12982,5156,5498,5499
12983,5499,5054,5156
12984,4756,5169,5067
12985,5067,4653,4756
12986,5169,5066,5523
12987,5523,5524,5169
12988,4755,4651,5065
12989,5065,5168,4755
12990,5168,5522,5523
12991,5523,5066,5168
12992,4753,4649,5063
12993,5063,5166,4753
12994,5166,5518,5519
12995,5519,5064,5166
12996,4960,4861,5314
12997,5314,5313,4960
12998,4754,5167,5065
12999,5065,4651,4754
13000,5167,5064,5519
13001,5519,5520,5167
13002,4961,5315,5314
13003,5314,4861,4961
13004,4549,4964,4864
13005,4864,4445,4549
13006,4548,4445,4864
13007,4864,4963,4548
13008,4547,4962,4862
13009,4862,4443,4547
13010,4545,4960,4860
13011,4860,4441,4545
13012,4546,4443,4862
13013,4862,4961,4546
13014,4757,4653,5067
13015,5067,5170,4757
13016,5170,5526,5527
13017,5527,5068,5170
13018,4758,5171,5069
13019,5069,4655,4758
13020,5171,5068,5527
13021,5527,5528,5171
13022,4760,5173,5071
13023,5071,4657,4760
13024,5173,5070,5531
13025,5531,5532,5173
13026,4759,4655,5069
13027,5069,5172,4759
13028,5172,5530,5531
13029,5531,5070,5172
13030,4772,5185,5083
13031,5083,4669,4772
13032,5185,5082,5555
13033,5555,5556,5185
13034,4771,4667,5081
13035,5081,5184,4771
13036,5184,5554,5555
13037,5555,5082,5184
13038,4978,4879,5350
13039,5350,5349,4978
13040,4769,4665,5079
13041,5079,5182,4769
13042,5182,5550,5551
13043,5551,5080,5182
13044,4770,5183,5081
13045,5081,4667,4770
13046,5183,5080,5551
13047,5551,5552,5183
13048,4565,4980,4880
13049,4880,4461,4565
13050,4566,4463,4882
13051,4882,4981,4566
13052,4568,4465,4884
13053,4884,4983,4568
13054,4773,4669,5083
13055,5083,5186,4773
13056,5186,5558,5559
13057,5559,5084,5186
13058,4774,5187,5085
13059,5085,4671,4774
13060,5187,5084,5559
13061,5559,5560,5187
13062,4776,5189,5087
13063,5087,4673,4776
13064,5189,5086,5563
13065,5563,5564,5189
13066,4775,4671,5085
13067,5085,5188,4775
13068,5188,5562,5563
13069,5563,5086,5188
13070,4788,5201,5099
13071,5099,4685,4788
13072,5201,5098,5587
13073,5587,5588,5201
13074,4787,4683,5097
13075,5097,5200,4787
13076,5200,5586,5587
13077,5587,5098,5200
13078,4785,4681,5095
13079,5095,5198,4785
13080,5198,5582,5583
13081,5583,5096,5198
13082,4992,4893,5378
13083,5378,5377,4992
13084,4786,5199,5097
13085,5097,4683,4786
13086,5199,5096,5583
13087,5583,5584,5199
13088,4993,5379,5378
13089,5378,4893,4993
13090,4581,4996,4896
13091,4896,4477,4581
13092,4582,4479,4898
13093,4898,4997,4582
13094,4580,4477,4896
13095,4896,4995,4580
13096,4579,4994,4894
13097,4894,4475,4579
13098,4577,4992,4892
13099,4892,4473,4577
13100,4789,4685,5099
13101,5099,5202,4789
13102,5202,5590,5591
13103,5591,5100,5202
13104,4790,5203,5101
13105,5101,4687,4790
13106,5203,5100,5591
13107,5591,5592,5203
13108,4792,5205,5103
13109,5103,4689,4792
13110,5205,5102,5595
13111,5595,5596,5205
13112,4791,4687,5101
13113,5101,5204,4791
13114,5204,5594,5595
13115,5595,5102,5204
13116,4804,5217,5115
13117,5115,4701,4804
13118,5217,5114,5619
13119,5619,5620,5217
13120,4803,4699,5113
13121,5113,5216,4803
13122,5216,5618,5619
13123,5619,5114,5216
13124,5010,4911,5414
13125,5414,5413,5010
13126,4801,4697,5111
13127,5111,5214,4801
13128,5214,5614,5615
13129,5615,5112,5214
13130,4802,5215,5113
13131,5113,4699,4802
13132,5215,5112,5615
13133,5615,5616,5215
13134,4597,5012,4912
13135,4912,4493,4597
13136,4600,4399,4916
13137,4916,5015,4600
13138,4599,5014,4914
13139,4914,4495,4599
13140,4595,5010,4910
13141,4910,4491,4595
13142,4805,4701,5115
13143,5115,5218,4805
13144,5218,5622,5623
13145,5623,5116,5218
13146,4806,5219,5117
13147,5117,4703,4806
13148,5219,5116,5623
13149,5623,5624,5219
13150,4808,5221,5119
13151,5119,4705,4808
13152,5221,5118,5627
13153,5627,5628,5221
13154,4807,4703,5117
13155,5117,5220,4807
13156,5220,5626,5627
13157,5627,5118,5220
13158,4502,5016,4916
13159,4916,4399,4502
13160,4601,4499,4817
13161,4817,5017,4601
13162,4603,4816,4817
13163,4817,4499,4603
13164,4809,4705,5119
13165,5119,5222,4809
13166,5222,5630,5631
13167,5631,5120,5222
13168,5223,5120,5631
13169,5631,5632,5223
13170,4810,5223,5121
13171,5121,4708,4810
13172,4812,4708,5121
13173,5121,5123,4812
13174,5225,5019,5123
13175,5123,5430,5225
13176,4602,4498,4818
13177,4818,4815,4602
13178,4712,5125,5023
13179,5023,4609,4712
13180,5125,5022,5435
13181,5435,5436,5125
13182,5124,5434,5435
13183,5435,5022,5124
13184,4711,4707,5021
13185,5021,5124,4711
13186,4811,5122,5021
13187,5021,4707,4811
13188,5122,5020,5433
13189,5433,5429,5122
13190,311,207,619
13191,619,621,311
13192,621,619,728
13193,728,625,621
13194,1243,1249,833
13195,833,938,1243
13196,833,835,938
13197,3028,2937,2830
13198,2830,2933,3028
13199,3145,3248,3028
13200,3028,3143,3145
13201,3248,3250,2937
13202,2937,3028,3248
13203,3143,3028,2933
13204,2933,2935,3143
13205,310,622,620
13206,620,208,310
13207,622,626,729
13208,729,620,622
13209,939,836,834
13210,1244,939,834
13211,834,1250,1244
13212,3035,2934,2831
13213,2831,2938,3035
13214,3146,3144,3035
13215,3035,3249,3146
13216,3249,3035,2938
13217,2938,3251,3249
13218,3144,2936,2934
13219,2934,3035,3144
13220,1358,1461,1356
13221,1247,1249,1358
13222,1358,1356,1247
13223,1988,2093,2204
13224,2204,2097,1988
13225,1989,2098,2205
13226,2205,2094,1989
13227,3772,3668,3667
13228,3667,3875,3772
13229,3771,3874,3664
13230,3664,3669,3771
13231,4373,4346,4396
13232,4396,4397,4373
13233,4607,4397,4396
13234,4396,4605,4607
13235,4398,4395,4339
13236,4339,4392,4398
13237,4606,4604,4395
13238,4395,4398,4606
13239,5636,5432,5225
13240,5225,5640,5636
13241,5635,5637,5433
13242,5433,5431,5635
13243,5019,5225,5432
13244,5432,5018,5019
13245,4709,5019,5018
13246,5018,4605,4709
13247,5431,5433,5020
13248,5020,5224,5431
13249,4710,4604,5224
13250,5224,5020,4710
13251,1253,1358,1249
13252,1249,1243,1253
13253,2202,2097,2204
13254,2311,2309,2202
13255,2202,2204,2311
13256,2517,2725,2309
13257,2309,2311,2517
13258,2307,2202,2309
13259,2309,2414,2307
13260,2414,2309,2725
13261,2622,2414,2725
13262,2725,2723,2622
13263,1254,1244,1250
13264,1250,1359,1254
13265,2203,2310,2312
13266,2203,2312,2205
13267,2205,2098,2203
13268,2308,2415,2310
13269,2310,2203,2308
13270,2623,2724,2726
13271,2726,2415,2623
13272,2726,2310,2415
13273,1460,1468,1464
13274,1464,1355,1460
13275,1674,1470,1464
13276,1464,1676,1674
13277,1355,1464,1470
13278,1466,1357,1252
13279,1355,1470,1466
13280,1466,1252,1355
13281,1680,1884,1886
13282,1676,1468,1680
13283,1680,1886,1676
13284,1676,1464,1468
13285,1459,1354,1463
13286,1463,1467,1459
13287,1467,1463,1675
13288,1679,1467,1675
13289,1885,1883,1679
13290,1679,1675,1885
13291,1674,1678,1466
13292,1466,1470,1674
13293,1678,1674,1676
13294,1676,1886,1678
13295,1673,1675,1463
13296,1463,1469,1673
13297,1677,1885,1675
13298,1675,1673,1677
*MATERIAL, NAME=CFRP
*ELASTIC
7e+10,0.3
*DENSITY
1600
*SHELL SECTION, ELSET=ALL_SHELL, MATERIAL=CFRP
0.0025
*NSET, NSET=ALLNODES, GENERATE
1,6651,1
*NSET, NSET=MOUNT
1,2,3,4,5,6,7,8,9,10,11,12,13,14,15,16
17,18,19,20,21,22,23,24,25,26,27,28,29,30,31,32
33,34,35,36,37,38,39,40,41,42,43,44,45,46,47,48
49,50,51,52,53,54,55,56,57,58,59,60,61,62,63,64
65,66,67,68,69,70,71,72,73,74,75,76,77,78,79,80
81,82,83,84,85,86,87,88,89,90,91,92,93,94,95,96
97,98,99,100,101,102,103,104,105,106,107,108,109,110,111,112
113,114,115,116,117,118,119,120,121,122,123,124,125,126,127,128
129,130,131,132,133,134,135,136,137,138,139,140,141,142,143,144
145,146,147,148,149,150,151,152,153,154,155,156,157,158,159,160
161,162,163,164,165,166,167,168,169,170,171,172,173,174,175,176
177,178,179,180,181,182,183,184,185,186,187,188,189,190,191,192
193,194,195,196,197,198,199,200,201,202,203,204,205,206
*STEP
*STATIC
*NODE PRINT, NSET=ALLNODES
U
*EL PRINT, ELSET=ALL_SHELL
S
*NODE FILE, NSET=ALLNODES
U
*EL FILE, ELSET=ALL_SHELL
S
*DLOAD
1,P,2081.33325
2,P,2081.33325
3,P,2049.82153
4,P,2049.82153
5,P,2003.84961
6,P,2003.84961
7,P,765.32074
8,P,765.32074
9,P,686.107971
10,P,686.107971
11,P,2049.47852
12,P,2049.47852
13,P,918.106934
14,P,918.106934
15,P,691.614563
16,P,691.614563
17,P,1845.77441
18,P,1845.77441
19,P,469.646942
20,P,469.646942
21,P,394.381226
22,P,394.381226
23,P,1675.73596
24,P,1675.73596
25,P,583.212524
26,P,583.212524
27,P,483.55481
28,P,483.55481
29,P,486.151733
30,P,486.151733
31,P,377.367371
32,P,377.367371
33,P,582.370117
34,P,582.370117
35,P,491.430725
36,P,491.430725
37,P,706.489075
38,P,706.489075
39,P,417.409729
40,P,417.409729
41,P,417.409729
42,P,763.134338
43,P,763.134338
44,P,379.593384
45,P,379.593384
46,P,379.593384
47,P,750.376404
48,P,750.376404
49,P,1794.88855
50,P,1794.88855
51,P,1540.50562
52,P,1540.50562
53,P,2092.47461
54,P,2092.47461
55,P,971.453918
56,P,971.453918
57,P,600.084839
58,P,600.084839
59,P,563.672241
60,P,563.672241
61,P,750.743774
62,P,750.743774
63,P,1768.79407
64,P,1768.79407
65,P,1505.27197
66,P,1505.27197
67,P,2053.50806
68,P,2053.50806
69,P,980.580139
70,P,980.580139
71,P,958.000244
72,P,958.000244
73,P,561.753601
74,P,561.753601
75,P,1396.75378
76,P,1396.75378
77,P,356.39856
78,P,356.39856
79,P,1257.08044
80,P,1257.08044
81,P,1132.57422
82,P,1132.57422
83,P,955.076904
84,P,955.076904
85,P,607.191223
86,P,607.191223
87,P,387.565643
88,P,387.565643
89,P,964.201782
90,P,964.201782
91,P,1140.6637
92,P,1140.6637
93,P,620.573364
94,P,620.573364
95,P,469.522095
96,P,469.522095
97,P,1040.69153
98,P,1040.69153
99,P,656.682678
100,P,656.682678
101,P,877.709778
102,P,877.709778
103,P,854.373962
104,P,854.373962
105,P,402.006226
106,P,402.006226
107,P,999.641113
108,P,999.641113
109,P,728.646179
110,P,728.646179
111,P,-1780.75745
112,P,-1780.75745
113,P,-2135.05737
114,P,-2135.05737
115,P,-2104.01855
116,P,-2104.01855
117,P,-2212.16406
118,P,-2212.16406
119,P,-2153.82983
120,P,-2153.82983
121,P,-2195.48853
122,P,-2195.48853
123,P,-2144.37866
124,P,-2144.37866
125,P,-2119.17139
126,P,-2119.17139
127,P,-2101.58301
128,P,-2101.58301
129,P,-2186.56201
130,P,-2186.56201
131,P,-2181.75391
132,P,-2181.75391
133,P,-1856.78687
134,P,-1856.78687
135,P,-1609.19006
136,P,-1609.19006
137,P,-1566.13367
138,P,-1566.13367
139,P,-2156.51221
140,P,-2156.51221
141,P,-2134.34546
142,P,-2134.34546
143,P,-2117.83252
144,P,-2117.83252
145,P,-2146.56763
146,P,-2146.56763
147,P,-2179.25342
148,P,-2179.25342
149,P,-2177.96313
150,P,-2177.96313
151,P,-2228.56226
152,P,-2228.56226
153,P,-2204.46216
154,P,-2204.46216
155,P,-2159.39087
156,P,-2159.39087
157,P,-2155.38037
158,P,-2155.38037
159,P,-2141.59985
160,P,-2141.59985
161,P,-2103.9978
162,P,-2103.9978
163,P,-2000.83252
164,P,-2000.83252
165,P,649.182312
166,P,649.182312
167,P,579.286377
168,P,579.286377
169,P,-2153.30444
170,P,-2153.30444
171,P,547.166748
172,P,547.166748
173,P,547.208557
174,P,547.208557
175,P,179.820068
176,P,179.820068
177,P,214.389328
178,P,214.389328
179,P,67.1321869
180,P,67.1321869
181,P,56.6704369
182,P,56.6704369
183,P,-2122.90405
184,P,-2122.90405
185,P,563.273071
186,P,563.273071
187,P,537.792725
188,P,537.792725
189,P,-2179.0127
190,P,-2179.0127
191,P,508.357056
192,P,508.357056
193,P,510.337006
194,P,510.337006
195,P,56.7441139
196,P,56.7441139
197,P,57.0323372
198,P,57.0323372
199,P,42.8226776
200,P,42.8226776
201,P,34.3779831
202,P,34.3779831
203,P,-2159.45215
204,P,-2159.45215
205,P,497.355865
206,P,497.355865
207,P,480.410797
208,P,480.410797
209,P,-2180.46362
210,P,-2180.46362
211,P,459.201935
212,P,459.201935
213,P,436.507477
214,P,436.507477
215,P,34.4778671
216,P,34.4778671
217,P,36.255127
218,P,36.255127
219,P,22.1828308
220,P,22.1828308
221,P,23.2073708
222,P,23.2073708
223,P,-2169.64917
224,P,-2169.64917
225,P,450.89801
226,P,450.89801
227,P,456.894501
228,P,456.894501
229,P,-2161.19922
230,P,-2161.19922
231,P,504.238647
232,P,504.238647
233,P,487.430725
234,P,487.430725
235,P,24.2853546
236,P,24.2853546
237,P,26.8707886
238,P,26.8707886
239,P,32.0622635
240,P,32.0622635
241,P,34.7925148
242,P,34.7925148
243,P,-2182.87451
244,P,-2182.87451
245,P,509.303589
246,P,509.303589
247,P,504.671539
248,P,504.671539
249,P,-2184.30884
250,P,-2184.30884
251,P,548.248413
252,P,548.248413
253,P,545.04541
254,P,545.04541
255,P,41.2792244
256,P,41.2792244
257,P,38.3334465
258,P,38.3334465
259,P,56.6201515
260,P,56.6201515
261,P,61.9577866
262,P,61.9577866
263,P,-2164.74341
264,P,-2164.74341
265,P,533.866455
266,P,533.866455
267,P,547.531921
268,P,547.531921
269,P,-2082.66064
270,P,-2082.66064
271,P,644.633118
272,P,644.633118
273,P,575.209351
274,P,575.209351
275,P,68.0039368
276,P,68.0039368
277,P,63.1396942
278,P,63.1396942
279,P,177.83873
280,P,177.83873
281,P,214.32663
282,P,214.32663
283,P,-2079.84937
284,P,-2079.84937
285,P,701.129456
286,P,701.129456
287,P,650.446899
288,P,650.446899
289,P,561.506165
290,P,561.506165
291,P,575.874023
292,P,575.874023
293,P,631.595459
294,P,631.595459
295,P,651.208923
296,P,651.208923
297,P,-2140.58276
298,P,-2140.58276
299,P,556.023071
300,P,556.023071
301,P,550.032043
302,P,550.032043
303,P,643.324463
304,P,643.324463
305,P,641.834045
306,P,641.834045
307,P,639.863647
308,P,639.863647
309,P,624.953674
310,P,624.953674
311,P,209.094543
312,P,209.094543
313,P,295.91449
314,P,295.91449
315,P,186.687164
316,P,186.687164
317,P,98.6984634
318,P,98.6984634
319,P,198.704193
320,P,198.704193
321,P,108.375404
322,P,108.375404
323,P,71.2481232
324,P,71.2481232
325,P,98.8517151
326,P,98.8517151
327,P,48.0937767
328,P,48.0937767
329,P,34.4189682
330,P,34.4189682
331,P,50.0231361
332,P,50.0231361
333,P,96.0674896
334,P,96.0674896
335,P,-2152.55176
336,P,-2152.55176
337,P,637.47937
338,P,637.47937
339,P,626.948486
340,P,626.948486
341,P,543.209045
342,P,543.209045
343,P,523.03302
344,P,523.03302
345,P,637.405579
346,P,637.405579
347,P,638.778809
348,P,638.778809
349,P,-2186.51562
350,P,-2186.51562
351,P,539.829407
352,P,539.829407
353,P,520.849792
354,P,520.849792
355,P,599.786255
356,P,599.786255
357,P,619.91095
358,P,619.91095
359,P,624.890564
360,P,624.890564
361,P,602.734741
362,P,602.734741
363,P,30.7162266
364,P,30.7162266
365,P,34.2930717
366,P,34.2930717
367,P,50.4908676
368,P,50.4908676
369,P,54.5606461
370,P,54.5606461
371,P,24.3934307
372,P,24.3934307
373,P,25.0875378
374,P,25.0875378
375,P,43.311409
376,P,43.311409
377,P,47.321209
378,P,47.321209
379,P,12.6252337
380,P,12.6252337
381,P,6.10782385
382,P,6.10782385
383,P,12.9686518
384,P,12.9686518
385,P,18.0093613
386,P,18.0093613
387,P,-2161.39722
388,P,-2161.39722
389,P,604.4021
390,P,604.4021
391,P,585.119263
392,P,585.119263
393,P,454.800873
394,P,454.800873
395,P,489.405884
396,P,489.405884
397,P,575.94165
398,P,575.94165
399,P,594.570862
400,P,594.570862
401,P,-2193.25415
402,P,-2193.25415
403,P,450.951355
404,P,450.951355
405,P,446.294922
406,P,446.294922
407,P,586.816223
408,P,586.816223
409,P,570.911804
410,P,570.911804
411,P,574.447205
412,P,574.447205
413,P,575.072327
414,P,575.072327
415,P,3.91325021
416,P,3.91325021
417,P,7.13217354
418,P,7.13217354
419,P,30.0259228
420,P,30.0259228
421,P,25.695776
422,P,25.695776
423,P,-0.859957635
424,P,-0.859957635
425,P,-2.85085988
426,P,-2.85085988
427,P,23.5587521
428,P,23.5587521
429,P,30.0803833
430,P,30.0803833
431,P,-10.0534172
432,P,-10.0534172
433,P,-6.48397207
434,P,-6.48397207
435,P,-5.50979328
436,P,-5.50979328
437,P,-0.10283836
438,P,-0.10283836
439,P,-2161.13013
440,P,-2161.13013
441,P,554.63678
442,P,554.63678
443,P,580.51178
444,P,580.51178
445,P,477.766876
446,P,477.766876
447,P,460.354218
448,P,460.354218
449,P,589.564758
450,P,589.564758
451,P,565.580811
452,P,565.580811
453,P,-2216.62012
454,P,-2216.62012
455,P,475.10672
456,P,475.10672
457,P,486.500702
458,P,486.500702
459,P,606.0578
460,P,606.0578
461,P,592.451599
462,P,592.451599
463,P,576.061646
464,P,576.061646
465,P,603.616028
466,P,603.616028
467,P,-4.85557604
468,P,-4.85557604
469,P,-1.70785797
470,P,-1.70785797
471,P,24.8337765
472,P,24.8337765
473,P,23.121006
474,P,23.121006
475,P,-5.27855635
476,P,-5.27855635
477,P,-5.16497278
478,P,-5.16497278
479,P,27.8903408
480,P,27.8903408
481,P,28.484663
482,P,28.484663
483,P,-0.937048614
484,P,-0.937048614
485,P,3.35763884
486,P,3.35763884
487,P,-2.98408747
488,P,-2.98408747
489,P,-1.8732388
490,P,-1.8732388
491,P,-2114.10156
492,P,-2114.10156
493,P,613.734497
494,P,613.734497
495,P,614.587524
496,P,614.587524
497,P,525.789124
498,P,525.789124
499,P,523.084351
500,P,523.084351
501,P,637.375977
502,P,637.375977
503,P,623.447754
504,P,623.447754
505,P,-2166.46362
506,P,-2166.46362
507,P,548.992554
508,P,548.992554
509,P,536.33844
510,P,536.33844
511,P,629.018616
512,P,629.018616
513,P,637.024841
514,P,637.024841
515,P,645.846191
516,P,645.846191
517,P,649.73114
518,P,649.73114
519,P,9.01822472
520,P,9.01822472
521,P,5.92363787
522,P,5.92363787
523,P,46.8466873
524,P,46.8466873
525,P,47.1694336
526,P,47.1694336
527,P,15.1351671
528,P,15.1351671
529,P,17.8790359
530,P,17.8790359
531,P,52.519001
532,P,52.519001
533,P,50.6284866
534,P,50.6284866
535,P,27.8501301
536,P,27.8501301
537,P,33.6825218
538,P,33.6825218
539,P,24.4716091
540,P,24.4716091
541,P,23.6886044
542,P,23.6886044
543,P,-2188.8396
544,P,-2188.8396
545,P,650.808044
546,P,650.808044
547,P,647.519592
548,P,647.519592
549,P,557.682556
550,P,557.682556
551,P,552.665588
552,P,552.665588
553,P,641.062256
554,P,641.062256
555,P,631.288147
556,P,631.288147
557,P,-2078.82324
558,P,-2078.82324
559,P,557.964417
560,P,557.964417
561,P,574.891479
562,P,574.891479
563,P,703.522339
564,P,703.522339
565,P,639.318542
566,P,639.318542
567,P,637.630432
568,P,637.630432
569,P,651.513733
570,P,651.513733
571,P,46.3641815
572,P,46.3641815
573,P,36.0799828
574,P,36.0799828
575,P,72.7801666
576,P,72.7801666
577,P,96.0058899
578,P,96.0058899
579,P,55.2293701
580,P,55.2293701
581,P,93.0892715
582,P,93.0892715
583,P,185.112366
584,P,185.112366
585,P,96.9984207
586,P,96.9984207
587,P,206.090836
588,P,206.090836
589,P,309.451355
590,P,309.451355
591,P,192.588623
592,P,192.588623
593,P,105.378571
594,P,105.378571
595,P,-912.90802
596,P,-912.90802
597,P,-1096.68018
598,P,-1096.68018
599,P,-1485.97888
600,P,-1485.97888
601,P,-1549.20618
602,P,-1549.20618
603,P,-1617.75293
604,P,-1617.75293
605,P,-1639.71973
606,P,-1639.71973
607,P,-1593.20374
608,P,-1593.20374
609,P,-1597.20837
610,P,-1597.20837
611,P,-1441.28882
612,P,-1441.28882
613,P,-1484.06091
614,P,-1484.06091
615,P,-1527.85608
616,P,-1527.85608
617,P,-1437.05078
618,P,-1437.05078
619,P,-1994.23975
620,P,-1994.23975
621,P,-2170.69067
622,P,-2170.69067
623,P,659.067383
624,P,659.067383
625,P,483.87561
626,P,483.87561
627,P,355.858307
628,P,355.858307
629,P,252.417282
630,P,252.417282
631,P,-2163.69751
632,P,-2163.69751
633,P,-2216.58862
634,P,-2216.58862
635,P,341.563995
636,P,341.563995
637,P,237.408035
638,P,237.408035
639,P,254.997513
640,P,254.997513
641,P,179.06189
642,P,179.06189
643,P,181.089005
644,P,181.089005
645,P,-2171.302
646,P,-2171.302
647,P,-2142.70142
648,P,-2142.70142
649,P,253.50621
650,P,253.50621
651,P,173.84874
652,P,173.84874
653,P,164.109177
654,P,164.109177
655,P,235.725494
656,P,235.725494
657,P,142.473846
658,P,142.473846
659,P,-2167.69531
660,P,-2167.69531
661,P,-2145.1748
662,P,-2145.1748
663,P,229.035294
664,P,229.035294
665,P,118.770134
666,P,118.770134
667,P,259.93927
668,P,259.93927
669,P,170.339859
670,P,170.339859
671,P,-2093.927
672,P,-2093.927
673,P,-2118.26196
674,P,-2118.26196
675,P,268.0979
676,P,268.0979
677,P,178.304062
678,P,178.304062
679,P,342.506195
680,P,342.506195
681,P,245.126663
682,P,245.126663
683,P,-2123.98462
684,P,-2123.98462
685,P,-1934.15186
686,P,-1934.15186
687,P,351.670074
688,P,351.670074
689,P,252.779404
690,P,252.779404
691,P,626.465149
692,P,626.465149
693,P,466.668304
694,P,466.668304
695,P,467.875702
696,P,467.875702
697,P,754.246826
698,P,754.246826
699,P,167.05394
700,P,167.05394
701,P,-1373.72559
702,P,-1373.72559
703,P,-1282.01294
704,P,-1282.01294
705,P,-1574.20044
706,P,-1574.20044
707,P,-1569.06226
708,P,-1569.06226
709,P,-1496.88965
710,P,-1496.88965
711,P,-1582.22766
712,P,-1582.22766
713,P,-1431.83875
714,P,-1431.83875
715,P,-1407.50879
716,P,-1407.50879
717,P,-1579.31799
718,P,-1579.31799
719,P,-1517.07068
720,P,-1517.07068
721,P,-1398.25281
722,P,-1398.25281
723,P,-1349.06042
724,P,-1349.06042
725,P,759.144714
726,P,759.144714
727,P,165.136322
728,P,165.136322
729,P,1675.44543
730,P,1675.44543
731,P,-2118.96216
732,P,-2118.96216
733,P,1643.82935
734,P,1643.82935
735,P,924.08374
736,P,924.08374
737,P,920.561523
738,P,920.561523
739,P,-2163.32739
740,P,-2163.32739
741,P,2017.07849
742,P,2017.07849
743,P,1950.01685
744,P,1950.01685
745,P,1685.83447
746,P,1685.83447
747,P,1722.0929
748,P,1722.0929
749,P,1028.19873
750,P,1028.19873
751,P,970.226196
752,P,970.226196
753,P,429.637756
754,P,429.637756
755,P,529.469788
756,P,529.469788
757,P,579.187378
758,P,579.187378
759,P,418.262634
760,P,418.262634
761,P,549.769592
762,P,549.769592
763,P,1961.90649
764,P,1961.90649
765,P,-2173.85034
766,P,-2173.85034
767,P,1928.68958
768,P,1928.68958
769,P,1046.17126
770,P,1046.17126
771,P,1090.70569
772,P,1090.70569
773,P,-2149.19092
774,P,-2149.19092
775,P,1996.7688
776,P,1996.7688
777,P,2076.35913
778,P,2076.35913
779,P,2023.22852
780,P,2023.22852
781,P,1044.16785
782,P,1044.16785
783,P,1066.57532
784,P,1066.57532
785,P,316.028259
786,P,316.028259
787,P,229.631851
788,P,229.631851
789,P,313.606018
790,P,313.606018
791,P,220.462448
792,P,220.462448
793,P,220.935532
794,P,220.935532
795,P,1978.71912
796,P,1978.71912
797,P,-2185.37305
798,P,-2185.37305
799,P,1934.23303
800,P,1934.23303
801,P,1895.04712
802,P,1895.04712
803,P,1010.29443
804,P,1010.29443
805,P,1018.29681
806,P,1018.29681
807,P,-2158.53955
808,P,-2158.53955
809,P,1939.12976
810,P,1939.12976
811,P,1856.55713
812,P,1856.55713
813,P,1011.16541
814,P,1011.16541
815,P,1036.89832
816,P,1036.89832
817,P,229.141968
818,P,229.141968
819,P,142.248398
820,P,142.248398
821,P,227.609528
822,P,227.609528
823,P,134.509689
824,P,134.509689
825,P,1992.974
826,P,1992.974
827,P,1880.36536
828,P,1880.36536
829,P,-2217.09204
830,P,-2217.09204
831,P,1924.56958
832,P,1924.56958
833,P,985.351135
834,P,985.351135
835,P,1024.53455
836,P,1024.53455
837,P,-2169.83594
838,P,-2169.83594
839,P,1989.03674
840,P,1989.03674
841,P,2036.94482
842,P,2036.94482
843,P,1041.69104
844,P,1041.69104
845,P,1020.22906
846,P,1020.22906
847,P,237.985703
848,P,237.985703
849,P,145.427902
850,P,145.427902
851,P,233.47937
852,P,233.47937
853,P,144.202774
854,P,144.202774
855,P,2026.97644
856,P,2026.97644
857,P,-2188.51343
858,P,-2188.51343
859,P,2078.08447
860,P,2078.08447
861,P,1044.49011
862,P,1044.49011
863,P,1057.29749
864,P,1057.29749
865,P,-2214.64697
866,P,-2214.64697
867,P,2034.6062
868,P,2034.6062
869,P,2049.30981
870,P,2049.30981
871,P,2078.0166
872,P,2078.0166
873,P,2040.01135
874,P,2040.01135
875,P,1055.50684
876,P,1055.50684
877,P,1070.42761
878,P,1070.42761
879,P,320.503937
880,P,320.503937
881,P,233.201736
882,P,233.201736
883,P,213.321899
884,P,213.321899
885,P,328.933777
886,P,328.933777
887,P,226.881454
888,P,226.881454
889,P,1967.44958
890,P,1967.44958
891,P,-2117.24951
892,P,-2117.24951
893,P,1723.41589
894,P,1723.41589
895,P,1035.19409
896,P,1035.19409
897,P,976.818176
898,P,976.818176
899,P,-2110.3894
900,P,-2110.3894
901,P,1698.37024
902,P,1698.37024
903,P,1567.27673
904,P,1567.27673
905,P,1597.62646
906,P,1597.62646
907,P,934.103516
908,P,934.103516
909,P,925.063354
910,P,925.063354
911,P,396.75705
912,P,396.75705
913,P,520.023926
914,P,520.023926
915,P,414.355133
916,P,414.355133
917,P,476.551056
918,P,476.551056
919,P,549.859558
920,P,549.859558
921,P,-727.638794
922,P,-727.638794
923,P,-1166.24451
924,P,-1166.24451
925,P,-1116.29187
926,P,-1116.29187
927,P,-720.000793
928,P,-720.000793
929,P,-182.611038
930,P,-182.611038
931,P,-182.611038
932,P,-362.95105
933,P,-362.95105
934,P,-362.95105
935,P,-1042.26624
936,P,-1042.26624
937,P,-1187.83691
938,P,-1187.83691
939,P,-1527.48328
940,P,-1527.48328
941,P,-1506.89404
942,P,-1506.89404
943,P,-1112.75525
944,P,-1112.75525
945,P,-1080.9176
946,P,-1080.9176
947,P,-1080.9176
948,P,-431.745453
949,P,-431.745453
950,P,-431.745453
951,P,-1035.56531
952,P,-1035.56531
953,P,-1035.56531
954,P,-1271.89075
955,P,-1271.89075
956,P,-1596.07214
957,P,-1596.07214
958,P,-1641.74072
959,P,-1641.74072
960,P,-1203.50403
961,P,-1203.50403
962,P,171.103439
963,P,171.103439
964,P,171.103439
965,P,165.016464
966,P,165.016464
967,P,165.016464
968,P,-1187.56726
969,P,-1187.56726
970,P,-1232.33594
971,P,-1232.33594
972,P,-1605.22852
973,P,-1605.22852
974,P,-1541.25476
975,P,-1541.25476
976,P,-1239.57861
977,P,-1239.57861
978,P,158.12236
979,P,158.12236
980,P,158.12236
981,P,161.710403
982,P,161.710403
983,P,161.710403
984,P,155.176193
985,P,155.176193
986,P,155.176193
987,P,-1041.30505
988,P,-1041.30505
989,P,-1609.6814
990,P,-1609.6814
991,P,-1598.73962
992,P,-1598.73962
993,P,-1175.36841
994,P,-1175.36841
995,P,161.565659
996,P,161.565659
997,P,161.565659
998,P,-50.5823593
999,P,-50.5823593
1000,P,-50.5823593
1001,P,-1165.77441
1002,P,-1165.77441
1003,P,-983.571838
1004,P,-983.571838
1005,P,-1411.28015
1006,P,-1411.28015
1007,P,-1420.29529
1008,P,-1420.29529
1009,P,-974.890564
1010,P,-974.890564
1011,P,-704.928711
1012,P,-704.928711
1013,P,-704.928711
1014,P,-467.478302
1015,P,-467.478302
1016,P,-467.478302
1017,P,-952.323486
1018,P,-952.323486
1019,P,-952.323486
1020,P,2875.42773
1021,P,2875.42773
1022,P,2578.01465
1023,P,2578.01465
1024,P,2402.75146
1025,P,2402.75146
1026,P,3051.22754
1027,P,3051.22754
1028,P,-2072.39819
1029,P,-2072.39819
1030,P,622.278503
1031,P,622.278503
1032,P,608.299622
1033,P,608.299622
1034,P,4004.10815
1035,P,4004.10815
1036,P,3610.60474
1037,P,3610.60474
1038,P,3947.3125
1039,P,3947.3125
1040,P,3618.96045
1041,P,3618.96045
1042,P,-2173.21338
1043,P,-2173.21338
1044,P,542.184998
1045,P,542.184998
1046,P,546.362671
1047,P,546.362671
1048,P,197.638992
1049,P,197.638992
1050,P,458.518188
1051,P,458.518188
1052,P,540.943542
1053,P,540.943542
1054,P,492.599213
1055,P,492.599213
1056,P,519.184692
1057,P,519.184692
1058,P,213.780197
1059,P,213.780197
1060,P,327.775085
1061,P,327.775085
1062,P,84.6781082
1063,P,84.6781082
1064,P,61.0897675
1065,P,61.0897675
1066,P,346.463501
1067,P,346.463501
1068,P,368.154205
1069,P,368.154205
1070,P,111.233452
1071,P,111.233452
1072,P,500.070526
1073,P,500.070526
1074,P,60.2988052
1075,P,60.2988052
1076,P,73.6479034
1077,P,73.6479034
1078,P,4182.28467
1079,P,4182.28467
1080,P,3709.16406
1081,P,3709.16406
1082,P,3839.83789
1083,P,3839.83789
1084,P,4134.12061
1085,P,4134.12061
1086,P,-2136.82788
1087,P,-2136.82788
1088,P,547.833496
1089,P,547.833496
1090,P,539.009949
1091,P,539.009949
1092,P,4282.0249
1093,P,4282.0249
1094,P,3884.70044
1095,P,3884.70044
1096,P,4260.14062
1097,P,4260.14062
1098,P,3890.76001
1099,P,3890.76001
1100,P,-2189.88818
1101,P,-2189.88818
1102,P,520.104736
1103,P,520.104736
1104,P,515.159058
1105,P,515.159058
1106,P,73.707962
1107,P,73.707962
1108,P,54.2052765
1109,P,54.2052765
1110,P,251.864822
1111,P,251.864822
1112,P,337.113312
1113,P,337.113312
1114,P,57.1315727
1115,P,57.1315727
1116,P,74.4943771
1117,P,74.4943771
1118,P,63.4265556
1119,P,63.4265556
1120,P,39.7255096
1121,P,39.7255096
1122,P,190.048889
1123,P,190.048889
1124,P,277.30188
1125,P,277.30188
1126,P,178.974838
1127,P,178.974838
1128,P,121.610687
1129,P,121.610687
1130,P,429.346527
1131,P,429.346527
1132,P,36.2346916
1133,P,36.2346916
1134,P,46.8692207
1135,P,46.8692207
1136,P,4243.97461
1137,P,4243.97461
1138,P,3897.97754
1139,P,3897.97754
1140,P,3893.17163
1141,P,3893.17163
1142,P,4271.15576
1143,P,4271.15576
1144,P,-2175.23828
1145,P,-2175.23828
1146,P,481.913849
1147,P,481.913849
1148,P,489.289062
1149,P,489.289062
1150,P,4348.38672
1151,P,4348.38672
1152,P,3847.76172
1153,P,3847.76172
1154,P,4306.14551
1155,P,4306.14551
1156,P,3827.96753
1157,P,3827.96753
1158,P,-2116.48633
1159,P,-2116.48633
1160,P,459.882568
1161,P,459.882568
1162,P,455.53363
1163,P,455.53363
1164,P,53.4555206
1165,P,53.4555206
1166,P,31.6854725
1167,P,31.6854725
1168,P,145.550888
1169,P,145.550888
1170,P,246.072754
1171,P,246.072754
1172,P,32.7175865
1173,P,32.7175865
1174,P,52.9937286
1175,P,52.9937286
1176,P,40.3768501
1177,P,40.3768501
1178,P,24.3081951
1179,P,24.3081951
1180,P,147.392075
1181,P,147.392075
1182,P,226.113113
1183,P,226.113113
1184,P,103.674034
1185,P,103.674034
1186,P,372.966888
1187,P,372.966888
1188,P,21.8644142
1189,P,21.8644142
1190,P,40.2875671
1191,P,40.2875671
1192,P,4332.83789
1193,P,4332.83789
1194,P,4013.88818
1195,P,4013.88818
1196,P,3918.40161
1197,P,3918.40161
1198,P,4292.4751
1199,P,4292.4751
1200,P,-2201.35693
1201,P,-2201.35693
1202,P,456.358002
1203,P,456.358002
1204,P,452.938446
1205,P,452.938446
1206,P,4355.5249
1207,P,4355.5249
1208,P,4014.36182
1209,P,4014.36182
1210,P,4271.00293
1211,P,4271.00293
1212,P,4018.36133
1213,P,4018.36133
1214,P,-2087.17163
1215,P,-2087.17163
1216,P,494.082611
1217,P,494.082611
1218,P,492.150146
1219,P,492.150146
1220,P,43.4688568
1221,P,43.4688568
1222,P,21.1231842
1223,P,21.1231842
1224,P,148.165161
1225,P,148.165161
1226,P,228.793259
1227,P,228.793259
1228,P,143.824753
1229,P,143.824753
1230,P,22.2295341
1231,P,22.2295341
1232,P,42.3479614
1233,P,42.3479614
1234,P,49.9896049
1235,P,49.9896049
1236,P,32.6011963
1237,P,32.6011963
1238,P,153.755356
1239,P,153.755356
1240,P,249.084641
1241,P,249.084641
1242,P,136.278671
1243,P,136.278671
1244,P,359.388824
1245,P,359.388824
1246,P,35.497345
1247,P,35.497345
1248,P,53.2731247
1249,P,53.2731247
1250,P,4364.93555
1251,P,4364.93555
1252,P,3971.29175
1253,P,3971.29175
1254,P,3975.34399
1255,P,3975.34399
1256,P,4382.24805
1257,P,4382.24805
1258,P,-2171.66821
1259,P,-2171.66821
1260,P,509.388519
1261,P,509.388519
1262,P,509.898926
1263,P,509.898926
1264,P,4233.2583
1265,P,4233.2583
1266,P,3875.2002
1267,P,3875.2002
1268,P,4238.3584
1269,P,4238.3584
1270,P,3866.35864
1271,P,3866.35864
1272,P,-2139.00781
1273,P,-2139.00781
1274,P,546.896667
1275,P,546.896667
1276,P,536.617615
1277,P,536.617615
1278,P,54.9665909
1279,P,54.9665909
1280,P,40.882431
1281,P,40.882431
1282,P,187.140305
1283,P,187.140305
1284,P,280.211487
1285,P,280.211487
1286,P,184.401108
1287,P,184.401108
1288,P,37.5871811
1289,P,37.5871811
1290,P,55.1133995
1291,P,55.1133995
1292,P,69.9429474
1293,P,69.9429474
1294,P,56.9782333
1295,P,56.9782333
1296,P,253.639175
1297,P,253.639175
1298,P,344.665894
1299,P,344.665894
1300,P,161.899857
1301,P,161.899857
1302,P,443.615265
1303,P,443.615265
1304,P,62.8751335
1305,P,62.8751335
1306,P,75.8280487
1307,P,75.8280487
1308,P,4024.42261
1309,P,4024.42261
1310,P,3622.07422
1311,P,3622.07422
1312,P,3630.92041
1313,P,3630.92041
1314,P,3961.42725
1315,P,3961.42725
1316,P,-2154.16626
1317,P,-2154.16626
1318,P,549.195251
1319,P,549.195251
1320,P,552.501099
1321,P,552.501099
1322,P,2830.59497
1323,P,2830.59497
1324,P,2571.41968
1325,P,2571.41968
1326,P,3020.86938
1327,P,3020.86938
1328,P,2368.95239
1329,P,2368.95239
1330,P,-2027.78552
1331,P,-2027.78552
1332,P,626.174377
1333,P,626.174377
1334,P,599.662476
1335,P,599.662476
1336,P,84.7522507
1337,P,84.7522507
1338,P,66.9645157
1339,P,66.9645157
1340,P,308.827271
1341,P,308.827271
1342,P,370.823151
1343,P,370.823151
1344,P,63.5233994
1345,P,63.5233994
1346,P,71.3968658
1347,P,71.3968658
1348,P,456.052948
1349,P,456.052948
1350,P,198.393219
1351,P,198.393219
1352,P,535.560181
1353,P,535.560181
1354,P,476.103088
1355,P,476.103088
1356,P,498.256134
1357,P,498.256134
1358,P,-524.244873
1359,P,-524.244873
1360,P,213.774826
1361,P,213.774826
1362,P,334.258148
1363,P,334.258148
1364,P,576.116089
1365,P,576.116089
1366,P,786.941284
1367,P,786.941284
1368,P,262.444611
1369,P,262.444611
1370,P,-1257.93896
1371,P,-1257.93896
1372,P,-1323.74316
1373,P,-1323.74316
1374,P,-1002.94629
1375,P,-1002.94629
1376,P,-819.484985
1377,P,-819.484985
1378,P,-822.912781
1379,P,-822.912781
1380,P,-711.147278
1381,P,-711.147278
1382,P,-711.147278
1383,P,-469.565338
1384,P,-469.565338
1385,P,-469.565338
1386,P,-952.436584
1387,P,-952.436584
1388,P,-952.436584
1389,P,-1592.72046
1390,P,-1592.72046
1391,P,-1598.22412
1392,P,-1598.22412
1393,P,-1204.66003
1394,P,-1204.66003
1395,P,-1234.08386
1396,P,-1234.08386
1397,P,163.922226
1398,P,163.922226
1399,P,163.922226
1400,P,-48.6661606
1401,P,-48.6661606
1402,P,-48.6661606
1403,P,177.919662
1404,P,177.919662
1405,P,177.919662
1406,P,-112.810249
1407,P,-112.810249
1408,P,-1587.84119
1409,P,-1587.84119
1410,P,-1613.83154
1411,P,-1613.83154
1412,P,-1050.01843
1413,P,-1050.01843
1414,P,-1191.68103
1415,P,-1191.68103
1416,P,-1156.38379
1417,P,-1156.38379
1418,P,157.807571
1419,P,157.807571
1420,P,157.807571
1421,P,164.554382
1422,P,164.554382
1423,P,164.554382
1424,P,155.511932
1425,P,155.511932
1426,P,155.511932
1427,P,-1615.3075
1428,P,-1615.3075
1429,P,-1533.83215
1430,P,-1533.83215
1431,P,-1012.33313
1432,P,-1012.33313
1433,P,-1251.4873
1434,P,-1251.4873
1435,P,172.98819
1436,P,172.98819
1437,P,172.98819
1438,P,163.91684
1439,P,163.91684
1440,P,163.91684
1441,P,178.754684
1442,P,178.754684
1443,P,178.754684
1444,P,-1583.77039
1445,P,-1583.77039
1446,P,-1514.04187
1447,P,-1514.04187
1448,P,-1226.5918
1449,P,-1226.5918
1450,P,-1056.25122
1451,P,-1056.25122
1452,P,-1213.29968
1453,P,-1213.29968
1454,P,-1078.42249
1455,P,-1078.42249
1456,P,-1078.42249
1457,P,-431.400269
1458,P,-431.400269
1459,P,-431.400269
1460,P,-1027.16541
1461,P,-1027.16541
1462,P,-1027.16541
1463,P,-1451.30017
1464,P,-1451.30017
1465,P,-1446.0437
1466,P,-1446.0437
1467,P,-1068.29089
1468,P,-1068.29089
1469,P,-1053.96594
1470,P,-1053.96594
1471,P,-184.216141
1472,P,-184.216141
1473,P,-184.216141
1474,P,-360.514343
1475,P,-360.514343
1476,P,-360.514343
1477,P,-136.228012
1478,P,-136.228012
1479,P,-136.228012
1480,P,789.137634
1481,P,789.137634
1482,P,265.310455
1483,P,265.310455
1484,P,1577.79395
1485,P,1577.79395
1486,P,1796.52246
1487,P,1796.52246
1488,P,1723.88208
1489,P,1723.88208
1490,P,1606.38684
1491,P,1606.38684
1492,P,1499.58765
1493,P,1499.58765
1494,P,3316.26514
1495,P,3316.26514
1496,P,2746.26367
1497,P,2746.26367
1498,P,3208.44043
1499,P,3208.44043
1500,P,2889.57373
1501,P,2889.57373
1502,P,-2121.802
1503,P,-2121.802
1504,P,1705.98962
1505,P,1705.98962
1506,P,1930.75928
1507,P,1930.75928
1508,P,1667.96021
1509,P,1667.96021
1510,P,2028.88098
1511,P,2028.88098
1512,P,1539.74829
1513,P,1539.74829
1514,P,1649.81323
1515,P,1649.81323
1516,P,818.550049
1517,P,818.550049
1518,P,664.528625
1519,P,664.528625
1520,P,808.967834
1521,P,808.967834
1522,P,931.321777
1523,P,931.321777
1524,P,657.964478
1525,P,657.964478
1526,P,745.778259
1527,P,745.778259
1528,P,776.721497
1529,P,776.721497
1530,P,559.465271
1531,P,559.465271
1532,P,565.541992
1533,P,565.541992
1534,P,910.443237
1535,P,910.443237
1536,P,642.697815
1537,P,642.697815
1538,P,789.328491
1539,P,789.328491
1540,P,640.205139
1541,P,640.205139
1542,P,3807.02905
1543,P,3807.02905
1544,P,3588.16846
1545,P,3588.16846
1546,P,3883.59888
1547,P,3883.59888
1548,P,3459.32935
1549,P,3459.32935
1550,P,-2163.04004
1551,P,-2163.04004
1552,P,2174.03467
1553,P,2174.03467
1554,P,2736.00586
1555,P,2736.00586
1556,P,2726.56738
1557,P,2726.56738
1558,P,2137.08179
1559,P,2137.08179
1560,P,1881.29651
1561,P,1881.29651
1562,P,1904.7384
1563,P,1904.7384
1564,P,2037.79675
1565,P,2037.79675
1566,P,2657.90186
1567,P,2657.90186
1568,P,2592.27222
1569,P,2592.27222
1570,P,2079.32275
1571,P,2079.32275
1572,P,1820.80249
1573,P,1820.80249
1574,P,554.418884
1575,P,554.418884
1576,P,550.454346
1577,P,550.454346
1578,P,633.533813
1579,P,633.533813
1580,P,1027.41614
1581,P,1027.41614
1582,P,626.260376
1583,P,626.260376
1584,P,784.020142
1585,P,784.020142
1586,P,805.207703
1587,P,805.207703
1588,P,627.885803
1589,P,627.885803
1590,P,784.033447
1591,P,784.033447
1592,P,983.104187
1593,P,983.104187
1594,P,640.875244
1595,P,640.875244
1596,P,259.807648
1597,P,259.807648
1598,P,175.259476
1599,P,175.259476
1600,P,298.864319
1601,P,298.864319
1602,P,287.246002
1603,P,287.246002
1604,P,481.188416
1605,P,481.188416
1606,P,131.018005
1607,P,131.018005
1608,P,568.528259
1609,P,568.528259
1610,P,469.993317
1611,P,469.993317
1612,P,548.059875
1613,P,548.059875
1614,P,-715.954834
1615,P,-715.954834
1616,P,150.569519
1617,P,150.569519
1618,P,466.274017
1619,P,466.274017
1620,P,146.89267
1621,P,146.89267
1622,P,146.615463
1623,P,146.615463
1624,P,56.452095
1625,P,56.452095
1626,P,136.766495
1627,P,136.766495
1628,P,55.1566353
1629,P,55.1566353
1630,P,-82.9947662
1631,P,-82.9947662
1632,P,-48.5986099
1633,P,-48.5986099
1634,P,-34.0235558
1635,P,-34.0235558
1636,P,84.4449997
1637,P,84.4449997
1638,P,79.7150574
1639,P,79.7150574
1640,P,371.138092
1641,P,371.138092
1642,P,381.694183
1643,P,381.694183
1644,P,471.173035
1645,P,471.173035
1646,P,-414.145233
1647,P,-414.145233
1648,P,99.8271027
1649,P,99.8271027
1650,P,491.259857
1651,P,491.259857
1652,P,77.0886459
1653,P,77.0886459
1654,P,371.75473
1655,P,371.75473
1656,P,20.9131851
1657,P,20.9131851
1658,P,41.5436592
1659,P,41.5436592
1660,P,39.8395958
1661,P,39.8395958
1662,P,8.80328751
1663,P,8.80328751
1664,P,60.1513748
1665,P,60.1513748
1666,P,23.7536106
1667,P,23.7536106
1668,P,69.2943268
1669,P,69.2943268
1670,P,91.3214493
1671,P,91.3214493
1672,P,67.7422028
1673,P,67.7422028
1674,P,48.1443405
1675,P,48.1443405
1676,P,2223.92578
1677,P,2223.92578
1678,P,2839.43433
1679,P,2839.43433
1680,P,2882.78711
1681,P,2882.78711
1682,P,2230.22485
1683,P,2230.22485
1684,P,2003.71912
1685,P,2003.71912
1686,P,1929.20227
1687,P,1929.20227
1688,P,4177.20557
1689,P,4177.20557
1690,P,3743.3689
1691,P,3743.3689
1692,P,4092.80908
1693,P,4092.80908
1694,P,3790.9729
1695,P,3790.9729
1696,P,-2181.72241
1697,P,-2181.72241
1698,P,2214.10107
1699,P,2214.10107
1700,P,2869.56274
1701,P,2869.56274
1702,P,2231.91748
1703,P,2231.91748
1704,P,2821.61157
1705,P,2821.61157
1706,P,1911.80176
1707,P,1911.80176
1708,P,770.87738
1709,P,770.87738
1710,P,631.579895
1711,P,631.579895
1712,P,783.503174
1713,P,783.503174
1714,P,1037.73218
1715,P,1037.73218
1716,P,636.55481
1717,P,636.55481
1718,P,539.163269
1719,P,539.163269
1720,P,531.575439
1721,P,531.575439
1722,P,1063.01428
1723,P,1063.01428
1724,P,620.506104
1725,P,620.506104
1726,P,841.916687
1727,P,841.916687
1728,P,635.849976
1729,P,635.849976
1730,P,4342.29541
1731,P,4342.29541
1732,P,3935.83643
1733,P,3935.83643
1734,P,4282.74658
1735,P,4282.74658
1736,P,3973.09424
1737,P,3973.09424
1738,P,-2112.06982
1739,P,-2112.06982
1740,P,2356.99243
1741,P,2356.99243
1742,P,2940.50195
1743,P,2940.50195
1744,P,2942.91919
1745,P,2942.91919
1746,P,2323.55151
1747,P,2323.55151
1748,P,1935.26746
1749,P,1935.26746
1750,P,2016.95081
1751,P,2016.95081
1752,P,2374.56616
1753,P,2374.56616
1754,P,2991.03809
1755,P,2991.03809
1756,P,3007.3147
1757,P,3007.3147
1758,P,2404.375
1759,P,2404.375
1760,P,2013.48938
1761,P,2013.48938
1762,P,537.299988
1763,P,537.299988
1764,P,531.304932
1765,P,531.304932
1766,P,747.926514
1767,P,747.926514
1768,P,623.773193
1769,P,623.773193
1770,P,777.102173
1771,P,777.102173
1772,P,1053.35046
1773,P,1053.35046
1774,P,612.472656
1775,P,612.472656
1776,P,817.670776
1777,P,817.670776
1778,P,778.591736
1779,P,778.591736
1780,P,627.12384
1781,P,627.12384
1782,P,1055.35364
1783,P,1055.35364
1784,P,630.721313
1785,P,630.721313
1786,P,1.24013603
1787,P,1.24013603
1788,P,30.3180313
1789,P,30.3180313
1790,P,34.5610924
1791,P,34.5610924
1792,P,7.77160883
1793,P,7.77160883
1794,P,69.66465
1795,P,69.66465
1796,P,52.5400047
1797,P,52.5400047
1798,P,249.205734
1799,P,249.205734
1800,P,335.863037
1801,P,335.863037
1802,P,172.552307
1803,P,172.552307
1804,P,119.104355
1805,P,119.104355
1806,P,465.970398
1807,P,465.970398
1808,P,50.6514511
1809,P,50.6514511
1810,P,68.3810654
1811,P,68.3810654
1812,P,-2.02727222
1813,P,-2.02727222
1814,P,24.2353096
1815,P,24.2353096
1816,P,24.9297771
1817,P,24.9297771
1818,P,70.0255966
1819,P,70.0255966
1820,P,22.9778709
1821,P,22.9778709
1822,P,-6.13994694
1823,P,-6.13994694
1824,P,-112.772636
1825,P,-112.772636
1826,P,61.0879135
1827,P,61.0879135
1828,P,43.8148613
1829,P,43.8148613
1830,P,194.34227
1831,P,194.34227
1832,P,289.043976
1833,P,289.043976
1834,P,149.836365
1835,P,149.836365
1836,P,425.527893
1837,P,425.527893
1838,P,47.8627472
1839,P,47.8627472
1840,P,65.5742722
1841,P,65.5742722
1842,P,-18.9811573
1843,P,-18.9811573
1844,P,9.00251102
1845,P,9.00251102
1846,P,7.69912958
1847,P,7.69912958
1848,P,-21.6961384
1849,P,-21.6961384
1850,P,15.5757589
1851,P,15.5757589
1852,P,-16.4090576
1853,P,-16.4090576
1854,P,17.7980461
1855,P,17.7980461
1856,P,-11.3405313
1857,P,-11.3405313
1858,P,2253.1748
1859,P,2253.1748
1860,P,2876.02319
1861,P,2876.02319
1862,P,2902.85815
1863,P,2902.85815
1864,P,2257.39258
1865,P,2257.39258
1866,P,1983.04382
1867,P,1983.04382
1868,P,4318.43945
1869,P,4318.43945
1870,P,3964.01978
1871,P,3964.01978
1872,P,4346.80664
1873,P,4346.80664
1874,P,3935.95288
1875,P,3935.95288
1876,P,-2155.30762
1877,P,-2155.30762
1878,P,2224.6438
1879,P,2224.6438
1880,P,2962.09106
1881,P,2962.09106
1882,P,2278.93091
1883,P,2278.93091
1884,P,2879.16919
1885,P,2879.16919
1886,P,1871.78674
1887,P,1871.78674
1888,P,595.560181
1889,P,595.560181
1890,P,1027.21252
1891,P,1027.21252
1892,P,601.383667
1893,P,601.383667
1894,P,478.358612
1895,P,478.358612
1896,P,488.722626
1897,P,488.722626
1898,P,1040.18811
1899,P,1040.18811
1900,P,577.895325
1901,P,577.895325
1902,P,737.971924
1903,P,737.971924
1904,P,752.144409
1905,P,752.144409
1906,P,585.517029
1907,P,585.517029
1908,P,725.42511
1909,P,725.42511
1910,P,4319.20752
1911,P,4319.20752
1912,P,3857.21045
1913,P,3857.21045
1914,P,4290.62842
1915,P,4290.62842
1916,P,3898.17261
1917,P,3898.17261
1918,P,-2135.25146
1919,P,-2135.25146
1920,P,2261.33228
1921,P,2261.33228
1922,P,2882.85376
1923,P,2882.85376
1924,P,2849.59082
1925,P,2849.59082
1926,P,2277.55322
1927,P,2277.55322
1928,P,1999.48572
1929,P,1999.48572
1930,P,1948.93848
1931,P,1948.93848
1932,P,2239.05054
1933,P,2239.05054
1934,P,2865.62891
1935,P,2865.62891
1936,P,2861.49536
1937,P,2861.49536
1938,P,2283.20264
1939,P,2283.20264
1940,P,1925.21814
1941,P,1925.21814
1942,P,460.493958
1943,P,460.493958
1944,P,456.297821
1945,P,456.297821
1946,P,748.098816
1947,P,748.098816
1948,P,568.966187
1949,P,568.966187
1950,P,725.837036
1951,P,725.837036
1952,P,1007.33685
1953,P,1007.33685
1954,P,569.458435
1955,P,569.458435
1956,P,749.322388
1957,P,749.322388
1958,P,576.202332
1959,P,576.202332
1960,P,1003.36212
1961,P,1003.36212
1962,P,586.516296
1963,P,586.516296
1964,P,-31.3672943
1965,P,-31.3672943
1966,P,0.174268544
1967,P,0.174268544
1968,P,-11.3121099
1969,P,-11.3121099
1970,P,35.0952187
1971,P,35.0952187
1972,P,1.55539989
1973,P,1.55539989
1974,P,-23.028553
1975,P,-23.028553
1976,P,47.4170647
1977,P,47.4170647
1978,P,29.8762684
1979,P,29.8762684
1980,P,133.343903
1981,P,133.343903
1982,P,244.704849
1983,P,244.704849
1984,P,88.7789612
1985,P,88.7789612
1986,P,27.298542
1987,P,27.298542
1988,P,45.824482
1989,P,45.824482
1990,P,-32.76577
1991,P,-32.76577
1992,P,-0.630365312
1993,P,-0.630365312
1994,P,-1.0237509
1995,P,-1.0237509
1996,P,-30.7276764
1997,P,-30.7276764
1998,P,-175.189178
1999,P,-175.189178
2000,P,-114.231125
2001,P,-114.231125
2002,P,-166.308762
2003,P,-166.308762
2004,P,43.3516235
2005,P,43.3516235
2006,P,26.6127148
2007,P,26.6127148
2008,P,129.567947
2009,P,129.567947
2010,P,228.353012
2011,P,228.353012
2012,P,151.523804
2013,P,151.523804
2014,P,83.8501205
2015,P,83.8501205
2016,P,367.184631
2017,P,367.184631
2018,P,24.2161217
2019,P,24.2161217
2020,P,47.9680328
2021,P,47.9680328
2022,P,-40.1546402
2023,P,-40.1546402
2024,P,-4.73830557
2025,P,-4.73830557
2026,P,-3.3315618
2027,P,-3.3315618
2028,P,-0.783460677
2029,P,-0.783460677
2030,P,-8.62708855
2031,P,-8.62708855
2032,P,-38.0921974
2033,P,-38.0921974
2034,P,-6.04569864
2035,P,-6.04569864
2036,P,-36.1298027
2037,P,-36.1298027
2038,P,31.0584507
2039,P,31.0584507
2040,P,-4.64676571
2041,P,-4.64676571
2042,P,-32.3774376
2043,P,-32.3774376
2044,P,2281.56396
2045,P,2281.56396
2046,P,2988.49072
2047,P,2988.49072
2048,P,2941.82178
2049,P,2941.82178
2050,P,2314.80151
2051,P,2314.80151
2052,P,1984.05542
2053,P,1984.05542
2054,P,1968.33972
2055,P,1968.33972
2056,P,4324.67383
2057,P,4324.67383
2058,P,3967.00391
2059,P,3967.00391
2060,P,4275.11621
2061,P,4275.11621
2062,P,3967.33984
2063,P,3967.33984
2064,P,-2191.28613
2065,P,-2191.28613
2066,P,2312.59961
2067,P,2312.59961
2068,P,2960.8374
2069,P,2960.8374
2070,P,2317.71509
2071,P,2317.71509
2072,P,2996.38257
2073,P,2996.38257
2074,P,1959.15881
2075,P,1959.15881
2076,P,717.296448
2077,P,717.296448
2078,P,573.272766
2079,P,573.272766
2080,P,1001.22162
2081,P,1001.22162
2082,P,557.295715
2083,P,557.295715
2084,P,759.662659
2085,P,759.662659
2086,P,725.631592
2087,P,725.631592
2088,P,463.505157
2089,P,463.505157
2090,P,462.317108
2091,P,462.317108
2092,P,991.409546
2093,P,991.409546
2094,P,750.318665
2095,P,750.318665
2096,P,567.283447
2097,P,567.283447
2098,P,738.808228
2099,P,738.808228
2100,P,585.188904
2101,P,585.188904
2102,P,4299.39258
2103,P,4299.39258
2104,P,3979.5918
2105,P,3979.5918
2106,P,4264.10938
2107,P,4264.10938
2108,P,3861.79834
2109,P,3861.79834
2110,P,-2135.12793
2111,P,-2135.12793
2112,P,2263.11597
2113,P,2263.11597
2114,P,2938.78345
2115,P,2938.78345
2116,P,2966.01758
2117,P,2966.01758
2118,P,2300.16479
2119,P,2300.16479
2120,P,2021.60742
2121,P,2021.60742
2122,P,2292.30542
2123,P,2292.30542
2124,P,2927.42163
2125,P,2927.42163
2126,P,2874.36694
2127,P,2874.36694
2128,P,2257.55542
2129,P,2257.55542
2130,P,1964.44507
2131,P,1964.44507
2132,P,2028.21423
2133,P,2028.21423
2134,P,477.275665
2135,P,477.275665
2136,P,475.173431
2137,P,475.173431
2138,P,602.77417
2139,P,602.77417
2140,P,770.211914
2141,P,770.211914
2142,P,1043.63171
2143,P,1043.63171
2144,P,599.106934
2145,P,599.106934
2146,P,737.464905
2147,P,737.464905
2148,P,590.700684
2149,P,590.700684
2150,P,1031.43091
2151,P,1031.43091
2152,P,587.001343
2153,P,587.001343
2154,P,772.549316
2155,P,772.549316
2156,P,764.603943
2157,P,764.603943
2158,P,-36.5854454
2159,P,-36.5854454
2160,P,-11.0056238
2161,P,-11.0056238
2162,P,-10.3901548
2163,P,-10.3901548
2164,P,-37.2261696
2165,P,-37.2261696
2166,P,43.4194756
2167,P,43.4194756
2168,P,23.1910362
2169,P,23.1910362
2170,P,151.280609
2171,P,151.280609
2172,P,227.797165
2173,P,227.797165
2174,P,94.0666885
2175,P,94.0666885
2176,P,123.932419
2177,P,123.932419
2178,P,352.51474
2179,P,352.51474
2180,P,22.1669235
2181,P,22.1669235
2182,P,47.6032486
2183,P,47.6032486
2184,P,-35.7332115
2185,P,-35.7332115
2186,P,-4.49338293
2187,P,-4.49338293
2188,P,-22.0162487
2189,P,-22.0162487
2190,P,-5.33609009
2191,P,-5.33609009
2192,P,-35.9041977
2193,P,-35.9041977
2194,P,49.2293892
2195,P,49.2293892
2196,P,30.5919552
2197,P,30.5919552
2198,P,157.014191
2199,P,157.014191
2200,P,246.016968
2201,P,246.016968
2202,P,155.607758
2203,P,155.607758
2204,P,88.1657715
2205,P,88.1657715
2206,P,361.669983
2207,P,361.669983
2208,P,25.8153038
2209,P,25.8153038
2210,P,45.5765305
2211,P,45.5765305
2212,P,-31.6133518
2213,P,-31.6133518
2214,P,1.98577344
2215,P,1.98577344
2216,P,4.60034752
2217,P,4.60034752
2218,P,-27.8895435
2219,P,-27.8895435
2220,P,-1.10887122
2221,P,-1.10887122
2222,P,-32.817009
2223,P,-32.817009
2224,P,-14.2869797
2225,P,-14.2869797
2226,P,-3.75068188
2227,P,-3.75068188
2228,P,-35.0817146
2229,P,-35.0817146
2230,P,2303.42676
2231,P,2303.42676
2232,P,2942.4812
2233,P,2942.4812
2234,P,2930.09692
2235,P,2930.09692
2236,P,2303.59448
2237,P,2303.59448
2238,P,2011.07507
2239,P,2011.07507
2240,P,4332.87793
2241,P,4332.87793
2242,P,3899.9397
2243,P,3899.9397
2244,P,4335.53906
2245,P,4335.53906
2246,P,3963.34692
2247,P,3963.34692
2248,P,-2124.64233
2249,P,-2124.64233
2250,P,2329.37329
2251,P,2329.37329
2252,P,2874.97607
2253,P,2874.97607
2254,P,2269.68164
2255,P,2269.68164
2256,P,2993.18579
2257,P,2993.18579
2258,P,1986.26526
2259,P,1986.26526
2260,P,1987.03101
2261,P,1987.03101
2262,P,761.1698
2263,P,761.1698
2264,P,619.014954
2265,P,619.014954
2266,P,795.516968
2267,P,795.516968
2268,P,1063.11731
2269,P,1063.11731
2270,P,607.808594
2271,P,607.808594
2272,P,820.128296
2273,P,820.128296
2274,P,788.17688
2275,P,788.17688
2276,P,527.231995
2277,P,527.231995
2278,P,534.449768
2279,P,534.449768
2280,P,1075.42798
2281,P,1075.42798
2282,P,638.324158
2283,P,638.324158
2284,P,828.74176
2285,P,828.74176
2286,P,632.037964
2287,P,632.037964
2288,P,4222.58545
2289,P,4222.58545
2290,P,3905.94409
2291,P,3905.94409
2292,P,4209.26221
2293,P,4209.26221
2294,P,3923.72485
2295,P,3923.72485
2296,P,-2152.29175
2297,P,-2152.29175
2298,P,2325.10181
2299,P,2325.10181
2300,P,2931.14551
2301,P,2931.14551
2302,P,2949.96387
2303,P,2949.96387
2304,P,2327.4729
2305,P,2327.4729
2306,P,2116.00073
2307,P,2116.00073
2308,P,2046.31006
2309,P,2046.31006
2310,P,2335.89038
2311,P,2335.89038
2312,P,2970.52539
2313,P,2970.52539
2314,P,2966.88647
2315,P,2966.88647
2316,P,2303.49292
2317,P,2303.49292
2318,P,2011.36328
2319,P,2011.36328
2320,P,559.423096
2321,P,559.423096
2322,P,549.15979
2323,P,549.15979
2324,P,655.978638
2325,P,655.978638
2326,P,1047.37927
2327,P,1047.37927
2328,P,653.234131
2329,P,653.234131
2330,P,847.964966
2331,P,847.964966
2332,P,794.16571
2333,P,794.16571
2334,P,652.556519
2335,P,652.556519
2336,P,791.238098
2337,P,791.238098
2338,P,1067.57898
2339,P,1067.57898
2340,P,641.920898
2341,P,641.920898
2342,P,-19.9549904
2343,P,-19.9549904
2344,P,10.0796442
2345,P,10.0796442
2346,P,5.55010319
2347,P,5.55010319
2348,P,-24.1053238
2349,P,-24.1053238
2350,P,58.5877342
2351,P,58.5877342
2352,P,44.9102135
2353,P,44.9102135
2354,P,206.433197
2355,P,206.433197
2356,P,291.902527
2357,P,291.902527
2358,P,203.462448
2359,P,203.462448
2360,P,118.695671
2361,P,118.695671
2362,P,48.0151482
2363,P,48.0151482
2364,P,65.3613434
2365,P,65.3613434
2366,P,-15.5095015
2367,P,-15.5095015
2368,P,13.4817162
2369,P,13.4817162
2370,P,46.6448898
2371,P,46.6448898
2372,P,16.6744823
2373,P,16.6744823
2374,P,-11.7306538
2375,P,-11.7306538
2376,P,-14.0201178
2377,P,-14.0201178
2378,P,-119.715851
2379,P,-119.715851
2380,P,-88.6520462
2381,P,-88.6520462
2382,P,69.5037842
2383,P,69.5037842
2384,P,55.1412506
2385,P,55.1412506
2386,P,258.869629
2387,P,258.869629
2388,P,335.178436
2389,P,335.178436
2390,P,238.198868
2391,P,238.198868
2392,P,164.422058
2393,P,164.422058
2394,P,126.584503
2395,P,126.584503
2396,P,467.412567
2397,P,467.412567
2398,P,49.6640739
2399,P,49.6640739
2400,P,70.6474152
2401,P,70.6474152
2402,P,-1.69505858
2403,P,-1.69505858
2404,P,28.0316811
2405,P,28.0316811
2406,P,33.6968956
2407,P,33.6968956
2408,P,3.37045217
2409,P,3.37045217
2410,P,26.9397659
2411,P,26.9397659
2412,P,-2.72109985
2413,P,-2.72109985
2414,P,20.4224701
2415,P,20.4224701
2416,P,56.2845993
2417,P,56.2845993
2418,P,21.589571
2419,P,21.589571
2420,P,-7.96269321
2421,P,-7.96269321
2422,P,2159.03857
2423,P,2159.03857
2424,P,2759.04395
2425,P,2759.04395
2426,P,2770.2854
2427,P,2770.2854
2428,P,2132.2959
2429,P,2132.2959
2430,P,1861.32507
2431,P,1861.32507
2432,P,1918.7688
2433,P,1918.7688
2434,P,3793.65308
2435,P,3793.65308
2436,P,3590.98608
2437,P,3590.98608
2438,P,3885.09888
2439,P,3885.09888
2440,P,3420.30298
2441,P,3420.30298
2442,P,-2145.90625
2443,P,-2145.90625
2444,P,2040.90991
2445,P,2040.90991
2446,P,2672.81982
2447,P,2672.81982
2448,P,2085.54102
2449,P,2085.54102
2450,P,2587.35547
2451,P,2587.35547
2452,P,1819.23938
2453,P,1819.23938
2454,P,861.550171
2455,P,861.550171
2456,P,647.635498
2457,P,647.635498
2458,P,824.960815
2459,P,824.960815
2460,P,1034.92529
2461,P,1034.92529
2462,P,641.880127
2463,P,641.880127
2464,P,557.244568
2465,P,557.244568
2466,P,548.923523
2467,P,548.923523
2468,P,975.872192
2469,P,975.872192
2470,P,632.294312
2471,P,632.294312
2472,P,795.721313
2473,P,795.721313
2474,P,641.179688
2475,P,641.179688
2476,P,3332.39258
2477,P,3332.39258
2478,P,2703.77539
2479,P,2703.77539
2480,P,3170.26538
2481,P,3170.26538
2482,P,2906.50244
2483,P,2906.50244
2484,P,-2028.33264
2485,P,-2028.33264
2486,P,1585.19116
2487,P,1585.19116
2488,P,1821.58386
2489,P,1821.58386
2490,P,1732.70886
2491,P,1732.70886
2492,P,1621.33032
2493,P,1621.33032
2494,P,1490.93518
2495,P,1490.93518
2496,P,1439.87122
2497,P,1439.87122
2498,P,1726.38062
2499,P,1726.38062
2500,P,1960.73547
2501,P,1960.73547
2502,P,2057.5293
2503,P,2057.5293
2504,P,1693.07227
2505,P,1693.07227
2506,P,1480.62781
2507,P,1480.62781
2508,P,556.725464
2509,P,556.725464
2510,P,567.194397
2511,P,567.194397
2512,P,812.426636
2513,P,812.426636
2514,P,675.415039
2515,P,675.415039
2516,P,780.127075
2517,P,780.127075
2518,P,932.334778
2519,P,932.334778
2520,P,639.097961
2521,P,639.097961
2522,P,747.379822
2523,P,747.379822
2524,P,818.972961
2525,P,818.972961
2526,P,640.631653
2527,P,640.631653
2528,P,917.904663
2529,P,917.904663
2530,P,643.014893
2531,P,643.014893
2532,P,14.3416815
2533,P,14.3416815
2534,P,44.8384933
2535,P,44.8384933
2536,P,37.9693794
2537,P,37.9693794
2538,P,3.24323702
2539,P,3.24323702
2540,P,89.1035843
2541,P,89.1035843
2542,P,77.8095856
2543,P,77.8095856
2544,P,377.591949
2545,P,377.591949
2546,P,381.732147
2547,P,381.732147
2548,P,-414.421417
2549,P,-414.421417
2550,P,130.867813
2551,P,130.867813
2552,P,495.536652
2553,P,495.536652
2554,P,77.9349594
2555,P,77.9349594
2556,P,368.3396
2557,P,368.3396
2558,P,24.8925476
2559,P,24.8925476
2560,P,59.5315781
2561,P,59.5315781
2562,P,130.927658
2563,P,130.927658
2564,P,96.337738
2565,P,96.337738
2566,P,70.2160339
2567,P,70.2160339
2568,P,50.1867218
2569,P,50.1867218
2570,P,68.6575928
2571,P,68.6575928
2572,P,479.131439
2573,P,479.131439
2574,P,129.372131
2575,P,129.372131
2576,P,549.706421
2577,P,549.706421
2578,P,471.920654
2579,P,471.920654
2580,P,-760.222351
2581,P,-760.222351
2582,P,534.868103
2583,P,534.868103
2584,P,147.758514
2585,P,147.758514
2586,P,468.842865
2587,P,468.842865
2588,P,261.331329
2589,P,261.331329
2590,P,174.730438
2591,P,174.730438
2592,P,306.345825
2593,P,306.345825
2594,P,282.746155
2595,P,282.746155
2596,P,139.177124
2597,P,139.177124
2598,P,133.562729
2599,P,133.562729
2600,P,130.727081
2601,P,130.727081
2602,P,53.3520966
2603,P,53.3520966
2604,P,309.428467
2605,P,309.428467
2606,P,145.02124
2607,P,145.02124
2608,P,475.016632
2609,P,475.016632
2610,P,524.438599
2611,P,524.438599
2612,P,153.260406
2613,P,153.260406
2614,P,157.58815
2615,P,157.58815
2616,P,118.330322
2617,P,118.330322
2618,P,123.801575
2619,P,123.801575
2620,P,74.1119232
2621,P,74.1119232
2622,P,68.2719803
2623,P,68.2719803
2624,P,14.3095007
2625,P,14.3095007
2626,P,18.9109097
2627,P,18.9109097
2628,P,53.6799049
2629,P,53.6799049
2630,P,63.3656082
2631,P,63.3656082
2632,P,6.71021461
2633,P,6.71021461
2634,P,6.07085371
2635,P,6.07085371
2636,P,81.2848892
2637,P,81.2848892
2638,P,85.5420074
2639,P,85.5420074
2640,P,43.6920547
2641,P,43.6920547
2642,P,32.2129173
2643,P,32.2129173
2644,P,146.318649
2645,P,146.318649
2646,P,129.537552
2647,P,129.537552
2648,P,121.624321
2649,P,121.624321
2650,P,121.056374
2651,P,121.056374
2652,P,-891.453369
2653,P,-891.453369
2654,P,-675.942749
2655,P,-675.942749
2656,P,-1411.99744
2657,P,-1411.99744
2658,P,753.701233
2659,P,753.701233
2660,P,614.627075
2661,P,614.627075
2662,P,150.083069
2663,P,150.083069
2664,P,131.956375
2665,P,131.956375
2666,P,124.650887
2667,P,124.650887
2668,P,125.61351
2669,P,125.61351
2670,P,81.5825958
2671,P,81.5825958
2672,P,88.9369659
2673,P,88.9369659
2674,P,33.4808388
2675,P,33.4808388
2676,P,26.7934132
2677,P,26.7934132
2678,P,65.079689
2679,P,65.079689
2680,P,53.2329636
2681,P,53.2329636
2682,P,4.80352545
2683,P,4.80352545
2684,P,7.30575323
2685,P,7.30575323
2686,P,72.8152542
2687,P,72.8152542
2688,P,66.6559296
2689,P,66.6559296
2690,P,10.4084854
2691,P,10.4084854
2692,P,19.1401024
2693,P,19.1401024
2694,P,154.931412
2695,P,154.931412
2696,P,158.942917
2697,P,158.942917
2698,P,113.33828
2699,P,113.33828
2700,P,120.428169
2701,P,120.428169
2702,P,265.33963
2703,P,265.33963
2704,P,121.842361
2705,P,121.842361
2706,P,481.809387
2707,P,481.809387
2708,P,541.878601
2709,P,541.878601
2710,P,-1326.7135
2711,P,-1326.7135
2712,P,730.166626
2713,P,730.166626
2714,P,657.215088
2715,P,657.215088
2716,P,-286.85376
2717,P,-286.85376
2718,P,-264.966827
2719,P,-264.966827
2720,P,253.895905
2721,P,253.895905
2722,P,215.316574
2723,P,215.316574
2724,P,142.760193
2725,P,142.760193
2726,P,146.874252
2727,P,146.874252
2728,P,107.412895
2729,P,107.412895
2730,P,101.191078
2731,P,101.191078
2732,P,53.8978348
2733,P,53.8978348
2734,P,55.4184799
2735,P,55.4184799
2736,P,0.328615248
2737,P,0.328615248
2738,P,-0.595448613
2739,P,-0.595448613
2740,P,62.6478577
2741,P,62.6478577
2742,P,61.0006447
2743,P,61.0006447
2744,P,2.04695249
2745,P,2.04695249
2746,P,0.418924391
2747,P,0.418924391
2748,P,141.233047
2749,P,141.233047
2750,P,132.380981
2751,P,132.380981
2752,P,89.9349136
2753,P,89.9349136
2754,P,94.3878555
2755,P,94.3878555
2756,P,-311.234131
2757,P,-311.234131
2758,P,-299.753448
2759,P,-299.753448
2760,P,182.523285
2761,P,182.523285
2762,P,200.069595
2763,P,200.069595
2764,P,1793.47656
2765,P,1793.47656
2766,P,1793.47656
2767,P,961.384949
2768,P,961.384949
2769,P,-316.06665
2770,P,-316.06665
2771,P,-300.02597
2772,P,-300.02597
2773,P,184.246475
2774,P,184.246475
2775,P,194.657822
2776,P,194.657822
2777,P,134.419952
2778,P,134.419952
2779,P,127.528763
2780,P,127.528763
2781,P,87.0717621
2782,P,87.0717621
2783,P,93.4574738
2784,P,93.4574738
2785,P,53.5205956
2786,P,53.5205956
2787,P,57.3611984
2788,P,57.3611984
2789,P,-0.19014369
2790,P,-0.19014369
2791,P,0.677085698
2792,P,0.677085698
2793,P,62.3030014
2794,P,62.3030014
2795,P,56.9571724
2796,P,56.9571724
2797,P,-0.543398738
2798,P,-0.543398738
2799,P,1.14542472
2800,P,1.14542472
2801,P,145.362579
2802,P,145.362579
2803,P,151.8228
2804,P,151.8228
2805,P,109.374466
2806,P,109.374466
2807,P,103.995369
2808,P,103.995369
2809,P,-280.023407
2810,P,-280.023407
2811,P,-258.84726
2812,P,-258.84726
2813,P,243.710846
2814,P,243.710846
2815,P,218.205215
2816,P,218.205215
2817,P,1457.64209
2818,P,1457.64209
2819,P,1804.78674
2820,P,1804.78674
2821,P,1804.78674
2822,P,966.994629
2823,P,966.994629
2824,P,-98.7438583
2825,P,-98.7438583
2826,P,-6.51944542
2827,P,-6.51944542
2828,P,423.41452
2829,P,423.41452
2830,P,372.104095
2831,P,372.104095
2832,P,265.895996
2833,P,265.895996
2834,P,157.506927
2835,P,157.506927
2836,P,155.174744
2837,P,155.174744
2838,P,120.398361
2839,P,120.398361
2840,P,118.588417
2841,P,118.588417
2842,P,88.4911194
2843,P,88.4911194
2844,P,78.8723755
2845,P,78.8723755
2846,P,60.0293159
2847,P,60.0293159
2848,P,62.5398712
2849,P,62.5398712
2850,P,8.94319916
2851,P,8.94319916
2852,P,7.72476816
2853,P,7.72476816
2854,P,63.4803123
2855,P,63.4803123
2856,P,63.5558548
2857,P,63.5558548
2858,P,6.23264742
2859,P,6.23264742
2860,P,6.25965452
2861,P,6.25965452
2862,P,101.86335
2863,P,101.86335
2864,P,93.2828522
2865,P,93.2828522
2866,P,55.4923515
2867,P,55.4923515
2868,P,60.2998238
2869,P,60.2998238
2870,P,-23.6690311
2871,P,-23.6690311
2872,P,-91.5487747
2873,P,-91.5487747
2874,P,77.1238556
2875,P,77.1238556
2876,P,147.773071
2877,P,147.773071
2878,P,201.55896
2879,P,201.55896
2880,P,80.8124619
2881,P,80.8124619
2882,P,95.5305786
2883,P,95.5305786
2884,P,-494.193237
2885,P,-494.193237
2886,P,1305.96692
2887,P,1305.96692
2888,P,1245.47498
2889,P,1245.47498
2890,P,-406.622253
2891,P,-406.622253
2892,P,-406.622253
2893,P,722.520935
2894,P,722.520935
2895,P,810.109497
2896,P,810.109497
2897,P,239.937576
2898,P,239.937576
2899,P,153.00293
2900,P,153.00293
2901,P,55.9214401
2902,P,55.9214401
2903,P,-86.5312424
2904,P,-86.5312424
2905,P,74.205162
2906,P,74.205162
2907,P,149.422867
2908,P,149.422867
2909,P,182.116028
2910,P,182.116028
2911,P,102.503334
2912,P,102.503334
2913,P,95.3943787
2914,P,95.3943787
2915,P,45.0379219
2916,P,45.0379219
2917,P,55.3988571
2918,P,55.3988571
2919,P,61.9425507
2920,P,61.9425507
2921,P,60.2393532
2922,P,60.2393532
2923,P,3.05302238
2924,P,3.05302238
2925,P,0.75659585
2926,P,0.75659585
2927,P,-47.8390274
2928,P,-47.8390274
2929,P,63.40728
2930,P,63.40728
2931,P,63.6747894
2932,P,63.6747894
2933,P,6.97664022
2934,P,6.97664022
2935,P,0.806584895
2936,P,0.806584895
2937,P,-61.9628029
2938,P,-61.9628029
2939,P,158.575729
2940,P,158.575729
2941,P,155.045441
2942,P,155.045441
2943,P,119.578743
2944,P,119.578743
2945,P,117.60276
2946,P,117.60276
2947,P,-107.26844
2948,P,-107.26844
2949,P,-19.9992409
2950,P,-19.9992409
2951,P,418.187714
2952,P,418.187714
2953,P,374.417267
2954,P,374.417267
2955,P,1282.82031
2956,P,1282.82031
2957,P,1231.12634
2958,P,1231.12634
2959,P,-438.922577
2960,P,-438.922577
2961,P,-438.922577
2962,P,733.891602
2963,P,733.891602
2964,P,822.385254
2965,P,822.385254
2966,P,739.911377
2967,P,739.911377
2968,P,253.499649
2969,P,253.499649
2970,P,162.729538
2971,P,162.729538
2972,P,68.8541946
2973,P,68.8541946
2974,P,1412.16846
2975,P,1412.16846
2976,P,1412.16846
2977,P,29.5753899
2978,P,29.5753899
2979,P,29.5753899
2980,P,-166.287415
2981,P,-166.287415
2982,P,-220.043289
2983,P,-220.043289
2984,P,288.500366
2985,P,288.500366
2986,P,334.247406
2987,P,334.247406
2988,P,166.926956
2989,P,166.926956
2990,P,-242.454803
2991,P,-242.454803
2992,P,-242.454803
2993,P,-332.885925
2994,P,-332.885925
2995,P,-332.885925
2996,P,-91.0994949
2997,P,-91.0994949
2998,P,-1.31874812
2999,P,-1.31874812
3000,P,175.389084
3001,P,175.389084
3002,P,-0.530658066
3003,P,-0.530658066
3004,P,203.701828
3005,P,203.701828
3006,P,45.9401321
3007,P,45.9401321
3008,P,-152.227127
3009,P,-152.227127
3010,P,-52.2833405
3011,P,-52.2833405
3012,P,-82.606514
3013,P,-82.606514
3014,P,-82.606514
3015,P,-34.7494926
3016,P,-34.7494926
3017,P,-34.7494926
3018,P,-112.608734
3019,P,-112.608734
3020,P,152.495697
3021,P,152.495697
3022,P,151.999557
3023,P,151.999557
3024,P,110.172173
3025,P,110.172173
3026,P,113.124481
3027,P,113.124481
3028,P,-988.429321
3029,P,-988.429321
3030,P,-988.429321
3031,P,-806.018616
3032,P,-806.018616
3033,P,-806.018616
3034,P,-64.1603546
3035,P,-64.1603546
3036,P,-87.5286636
3037,P,-87.5286636
3038,P,-168.701981
3039,P,-168.701981
3040,P,-132.842392
3041,P,-132.842392
3042,P,-131.047714
3043,P,-131.047714
3044,P,-100.123581
3045,P,-100.123581
3046,P,-70.7792816
3047,P,-70.7792816
3048,P,-114.310356
3049,P,-114.310356
3050,P,-15.0449219
3051,P,-15.0449219
3052,P,58.8548355
3053,P,58.8548355
3054,P,55.8907394
3055,P,55.8907394
3056,P,3.29057074
3057,P,3.29057074
3058,P,7.50869179
3059,P,7.50869179
3060,P,-63.2793732
3061,P,-63.2793732
3062,P,-57.3300896
3063,P,-57.3300896
3064,P,168.267319
3065,P,168.267319
3066,P,168.267319
3067,P,167.695328
3068,P,167.695328
3069,P,167.695328
3070,P,-178.157974
3071,P,-178.157974
3072,P,-176.374222
3073,P,-176.374222
3074,P,-90.1450577
3075,P,-90.1450577
3076,P,-145.47757
3077,P,-145.47757
3078,P,-135.642258
3079,P,-135.642258
3080,P,-170.211121
3081,P,-170.211121
3082,P,-162.575302
3083,P,-162.575302
3084,P,-156.241547
3085,P,-156.241547
3086,P,179.027542
3087,P,179.027542
3088,P,179.027542
3089,P,61.0611115
3090,P,61.0611115
3091,P,63.8664169
3092,P,63.8664169
3093,P,2.74684286
3094,P,2.74684286
3095,P,2.81101465
3096,P,2.81101465
3097,P,-49.6883354
3098,P,-49.6883354
3099,P,159.188538
3100,P,159.188538
3101,P,159.188538
3102,P,162.347565
3103,P,162.347565
3104,P,162.347565
3105,P,-135.341522
3106,P,-135.341522
3107,P,-128.982162
3108,P,-128.982162
3109,P,-122.271523
3110,P,-122.271523
3111,P,-124.092255
3112,P,-124.092255
3113,P,-122.049973
3114,P,-122.049973
3115,P,-124.986137
3116,P,-124.986137
3117,P,-132.951141
3118,P,-132.951141
3119,P,-127.454437
3120,P,-127.454437
3121,P,-135.856369
3122,P,-135.856369
3123,P,-136.793503
3124,P,-136.793503
3125,P,-148.831116
3126,P,-148.831116
3127,P,-141.560394
3128,P,-141.560394
3129,P,113.004578
3130,P,113.004578
3131,P,123.939461
3132,P,123.939461
3133,P,81.5877914
3134,P,81.5877914
3135,P,69.288475
3136,P,69.288475
3137,P,20.574667
3138,P,20.574667
3139,P,130.28154
3140,P,130.28154
3141,P,130.28154
3142,P,68.7800674
3143,P,68.7800674
3144,P,68.7800674
3145,P,81.0065079
3146,P,81.0065079
3147,P,19.3665199
3148,P,19.3665199
3149,P,-34.7920609
3150,P,-34.7920609
3151,P,82.4356842
3152,P,82.4356842
3153,P,-93.7280655
3154,P,-93.7280655
3155,P,-23.8121738
3156,P,-23.8121738
3157,P,135.970062
3158,P,135.970062
3159,P,119.752678
3160,P,119.752678
3161,P,184.494324
3162,P,184.494324
3163,P,184.494324
3164,P,188.022766
3165,P,188.022766
3166,P,188.022766
3167,P,92.665657
3168,P,92.665657
3169,P,-229.145737
3170,P,-229.145737
3171,P,-286.404541
3172,P,-286.404541
3173,P,212.18811
3174,P,212.18811
3175,P,221.122192
3176,P,221.122192
3177,P,-635.155334
3178,P,-635.155334
3179,P,-635.155334
3180,P,-540.225586
3181,P,-540.225586
3182,P,-540.225586
3183,P,-159.257935
3184,P,-159.257935
3185,P,-152.341599
3186,P,-152.341599
3187,P,-184.574203
3188,P,-184.574203
3189,P,-215.228088
3190,P,-215.228088
3191,P,-138.870453
3192,P,-138.870453
3193,P,-155.049713
3194,P,-155.049713
3195,P,-241.163834
3196,P,-241.163834
3197,P,-222.115753
3198,P,-222.115753
3199,P,-169.356003
3200,P,-169.356003
3201,P,455.367371
3202,P,455.367371
3203,P,1552.18469
3204,P,1552.18469
3205,P,755.281555
3206,P,755.281555
3207,P,1029.94824
3208,P,1029.94824
3209,P,883.066284
3210,P,883.066284
3211,P,889.798401
3212,P,889.798401
3213,P,2011.85278
3214,P,2011.85278
3215,P,2011.85278
3216,P,165.133881
3217,P,165.133881
3218,P,165.133881
3219,P,453.741791
3220,P,453.741791
3221,P,265.382416
3222,P,265.382416
3223,P,315.469971
3224,P,315.469971
3225,P,-216.530258
3226,P,-216.530258
3227,P,-276.222107
3228,P,-276.222107
3229,P,206.036469
3230,P,206.036469
3231,P,215.957123
3232,P,215.957123
3233,P,113.391518
3234,P,113.391518
3235,P,-637.748047
3236,P,-637.748047
3237,P,-637.748047
3238,P,-545.398254
3239,P,-545.398254
3240,P,-545.398254
3241,P,-147.123749
3242,P,-147.123749
3243,P,-139.158936
3244,P,-139.158936
3245,P,-181.6689
3246,P,-181.6689
3247,P,-213.027588
3248,P,-213.027588
3249,P,-142.917999
3250,P,-142.917999
3251,P,-134.283066
3252,P,-134.283066
3253,P,-237.354767
3254,P,-237.354767
3255,P,-215.412521
3256,P,-215.412521
3257,P,-171.856705
3258,P,-171.856705
3259,P,110.749069
3260,P,110.749069
3261,P,118.58847
3262,P,118.58847
3263,P,78.1809311
3264,P,78.1809311
3265,P,68.8255081
3266,P,68.8255081
3267,P,22.6550732
3268,P,22.6550732
3269,P,134.269714
3270,P,134.269714
3271,P,134.269714
3272,P,70.1725616
3273,P,70.1725616
3274,P,70.1725616
3275,P,86.7628708
3276,P,86.7628708
3277,P,7.98430157
3278,P,7.98430157
3279,P,-57.6818886
3280,P,-57.6818886
3281,P,69.6274185
3282,P,69.6274185
3283,P,-112.849838
3284,P,-112.849838
3285,P,-29.2332344
3286,P,-29.2332344
3287,P,155.462997
3288,P,155.462997
3289,P,106.613914
3290,P,106.613914
3291,P,99.6188812
3292,P,99.6188812
3293,P,185.26947
3294,P,185.26947
3295,P,185.26947
3296,P,58.2715569
3297,P,58.2715569
3298,P,57.9906616
3299,P,57.9906616
3300,P,1.12304842
3301,P,1.12304842
3302,P,1.69102502
3303,P,1.69102502
3304,P,159.11792
3305,P,159.11792
3306,P,159.11792
3307,P,159.755325
3308,P,159.755325
3309,P,159.755325
3310,P,-129.115494
3311,P,-129.115494
3312,P,-128.896667
3313,P,-128.896667
3314,P,-125.377571
3315,P,-125.377571
3316,P,-122.548653
3317,P,-122.548653
3318,P,-120.616943
3319,P,-120.616943
3320,P,-127.596458
3321,P,-127.596458
3322,P,-128.878586
3323,P,-128.878586
3324,P,-123.648987
3325,P,-123.648987
3326,P,-129.011719
3327,P,-129.011719
3328,P,-140.24942
3329,P,-140.24942
3330,P,-151.973923
3331,P,-151.973923
3332,P,-142.647324
3333,P,-142.647324
3334,P,59.3669357
3335,P,59.3669357
3336,P,57.6647949
3337,P,57.6647949
3338,P,-3.19302964
3339,P,-3.19302964
3340,P,-3.52099252
3341,P,-3.52099252
3342,P,-55.3965149
3343,P,-55.3965149
3344,P,170.511276
3345,P,170.511276
3346,P,170.511276
3347,P,164.943054
3348,P,164.943054
3349,P,164.943054
3350,P,-169.665695
3351,P,-169.665695
3352,P,-165.984756
3353,P,-165.984756
3354,P,-68.1317062
3355,P,-68.1317062
3356,P,-134.681671
3357,P,-134.681671
3358,P,-118.842087
3359,P,-118.842087
3360,P,-158.20845
3361,P,-158.20845
3362,P,-163.37822
3363,P,-163.37822
3364,P,-146.755707
3365,P,-146.755707
3366,P,-161.558533
3367,P,-161.558533
3368,P,-156.919266
3369,P,-156.919266
3370,P,180.825272
3371,P,180.825272
3372,P,180.825272
3373,P,183.336594
3374,P,183.336594
3375,P,183.336594
3376,P,153.098602
3377,P,153.098602
3378,P,153.386078
3379,P,153.386078
3380,P,113.728683
3381,P,113.728683
3382,P,111.165619
3383,P,111.165619
3384,P,47.7441292
3385,P,47.7441292
3386,P,-982.825378
3387,P,-982.825378
3388,P,-982.825378
3389,P,-797.047546
3390,P,-797.047546
3391,P,-797.047546
3392,P,-68.0540771
3393,P,-68.0540771
3394,P,-98.8487015
3395,P,-98.8487015
3396,P,-181.946793
3397,P,-181.946793
3398,P,-133.046204
3399,P,-133.046204
3400,P,-126.274399
3401,P,-126.274399
3402,P,-106.465042
3403,P,-106.465042
3404,P,-74.5500336
3405,P,-74.5500336
3406,P,-120.791451
3407,P,-120.791451
3408,P,-58.9130859
3409,P,-58.9130859
3410,P,-173.134811
3411,P,-173.134811
3412,P,-245.046036
3413,P,-245.046036
3414,P,280.264771
3415,P,280.264771
3416,P,332.534058
3417,P,332.534058
3418,P,169.797409
3419,P,169.797409
3420,P,-244.470947
3421,P,-244.470947
3422,P,-244.470947
3423,P,-332.735535
3424,P,-332.735535
3425,P,-332.735535
3426,P,-99.9684219
3427,P,-99.9684219
3428,P,-0.460070431
3429,P,-0.460070431
3430,P,161.812683
3431,P,161.812683
3432,P,3.32107615
3433,P,3.32107615
3434,P,199.916412
3435,P,199.916412
3436,P,52.2584496
3437,P,52.2584496
3438,P,-159.72702
3439,P,-159.72702
3440,P,-48.7074051
3441,P,-48.7074051
3442,P,-160.815948
3443,P,-160.815948
3444,P,-92.7608948
3445,P,-92.7608948
3446,P,-92.7608948
3447,P,1560.33862
3448,P,1560.33862
3449,P,763.384949
3450,P,763.384949
3451,P,1038.07471
3452,P,1038.07471
3453,P,872.736877
3454,P,872.736877
3455,P,899.917969
3456,P,899.917969
3457,P,2035.85168
3458,P,2035.85168
3459,P,2035.85168
3460,P,-90.2730942
3461,P,-90.2730942
3462,P,193.651428
3463,P,193.651428
3464,P,193.651428
3465,P,274.375885
3466,P,274.375885
3467,P,322.048584
3468,P,322.048584
3469,P,388.884369
3470,P,388.884369
3471,P,627.737793
3472,P,627.737793
3473,P,480.145386
3474,P,480.145386
3475,P,767.858826
3476,P,767.858826
3477,P,449.59259
3478,P,449.59259
3479,P,596.697388
3480,P,596.697388
3481,P,521.103943
3482,P,521.103943
3483,P,613.257202
3484,P,613.257202
3485,P,866.491699
3486,P,866.491699
3487,P,-508.367126
3488,P,-508.367126
3489,P,785.534058
3490,P,785.534058
3491,P,-497.365631
3492,P,-497.365631
3493,P,833.938354
3494,P,833.938354
3495,P,-210.692017
3496,P,-210.692017
3497,P,737.681152
3498,P,737.681152
3499,P,-483.697174
3500,P,-483.697174
3501,P,997.959595
3502,P,997.959595
3503,P,87.6901245
3504,P,87.6901245
3505,P,1153.62732
3506,P,1153.62732
3507,P,-117.345894
3508,P,-117.345894
3509,P,1126.88342
3510,P,1126.88342
3511,P,-273.683594
3512,P,-273.683594
3513,P,1228.06763
3514,P,1228.06763
3515,P,-138.48877
3516,P,-138.48877
3517,P,1004.64618
3518,P,1004.64618
3519,P,-122.272789
3520,P,-122.272789
3521,P,1013.94611
3522,P,1013.94611
3523,P,-139.634857
3524,P,-139.634857
3525,P,1101.98694
3526,P,1101.98694
3527,P,-66.5995102
3528,P,-66.5995102
3529,P,1041.34045
3530,P,1041.34045
3531,P,-135.854065
3532,P,-135.854065
3533,P,1014.2829
3534,P,1014.2829
3535,P,-125.940498
3536,P,-125.940498
3537,P,1011.23462
3538,P,1011.23462
3539,P,-116.219551
3540,P,-116.219551
3541,P,983.36377
3542,P,983.36377
3543,P,-97.9284515
3544,P,-97.9284515
3545,P,1016.50452
3546,P,1016.50452
3547,P,-118.415573
3548,P,-118.415573
3549,P,1114.82056
3550,P,1114.82056
3551,P,82.6397018
3552,P,82.6397018
3553,P,1158.86572
3554,P,1158.86572
3555,P,275.993011
3556,P,275.993011
3557,P,1163.06226
3558,P,1163.06226
3559,P,-8.86733723
3560,P,-8.86733723
3561,P,1173.78076
3562,P,1173.78076
3563,P,282.292938
3564,P,282.292938
3565,P,932.532227
3566,P,932.532227
3567,P,-491.650513
3568,P,-491.650513
3569,P,1009.28503
3570,P,1009.28503
3571,P,-396.452515
3572,P,-396.452515
3573,P,1057.09265
3574,P,1057.09265
3575,P,-288.929138
3576,P,-288.929138
3577,P,1037.90918
3578,P,1037.90918
3579,P,-377.631622
3580,P,-377.631622
3581,P,938.706482
3582,P,938.706482
3583,P,-496.237732
3584,P,-496.237732
3585,P,1005.37201
3586,P,1005.37201
3587,P,-388.567291
3588,P,-388.567291
3589,P,1053.78979
3590,P,1053.78979
3591,P,-283.572357
3592,P,-283.572357
3593,P,1022.90997
3594,P,1022.90997
3595,P,-380.417999
3596,P,-380.417999
3597,P,1112.2146
3598,P,1112.2146
3599,P,113.737633
3600,P,113.737633
3601,P,1165.05957
3602,P,1165.05957
3603,P,300.632141
3604,P,300.632141
3605,P,1164.26709
3606,P,1164.26709
3607,P,-33.6883202
3608,P,-33.6883202
3609,P,1184.30566
3610,P,1184.30566
3611,P,297.588928
3612,P,297.588928
3613,P,1001.38409
3614,P,1001.38409
3615,P,-120.076157
3616,P,-120.076157
3617,P,1023.08539
3618,P,1023.08539
3619,P,-106.243233
3620,P,-106.243233
3621,P,977.573608
3622,P,977.573608
3623,P,-95.3569489
3624,P,-95.3569489
3625,P,1011.72552
3626,P,1011.72552
3627,P,-106.671944
3628,P,-106.671944
3629,P,994.74115
3630,P,994.74115
3631,P,-128.410706
3632,P,-128.410706
3633,P,1016.27203
3634,P,1016.27203
3635,P,-139.955414
3636,P,-139.955414
3637,P,1112.2666
3638,P,1112.2666
3639,P,-44.3067474
3640,P,-44.3067474
3641,P,1039.65271
3642,P,1039.65271
3643,P,-134.498138
3644,P,-134.498138
3645,P,996.394531
3646,P,996.394531
3647,P,60.0293236
3648,P,60.0293236
3649,P,1148.56262
3650,P,1148.56262
3651,P,-132.468185
3652,P,-132.468185
3653,P,1113.00122
3654,P,1113.00122
3655,P,-278.460083
3656,P,-278.460083
3657,P,1227.74292
3658,P,1227.74292
3659,P,-157.943771
3660,P,-157.943771
3661,P,858.457825
3662,P,858.457825
3663,P,-505.257446
3664,P,-505.257446
3665,P,772.632202
3666,P,772.632202
3667,P,-500.689697
3668,P,-500.689697
3669,P,838.063171
3670,P,838.063171
3671,P,-225.21637
3672,P,-225.21637
3673,P,731.141724
3674,P,731.141724
3675,P,-486.665466
3676,P,-486.665466
3677,P,126.016884
3678,P,126.016884
3679,P,892.002869
3680,P,892.002869
3681,P,865.455994
3682,P,865.455994
3683,P,1489.83533
3684,P,1489.83533
3685,P,1489.83533
3686,P,809.481628
3687,P,809.481628
3688,P,736.290161
3689,P,736.290161
3690,P,237.946136
3691,P,237.946136
3692,P,459.416962
3693,P,459.416962
3694,P,304.212097
3695,P,304.212097
3696,P,549.024292
3697,P,549.024292
3698,P,730.884399
3699,P,730.884399
3700,P,439.442108
3701,P,439.442108
3702,P,-2.03435516
3703,P,-2.03435516
3704,P,-2.03435516
3705,P,26.5444317
3706,P,26.5444317
3707,P,26.5444317
3708,P,26.5444317
3709,P,26.5444317
3710,P,265.593658
3711,P,265.593658
3712,P,493.633392
3713,P,493.633392
3714,P,331.954437
3715,P,331.954437
3716,P,596.84021
3717,P,596.84021
3718,P,806.05835
3719,P,806.05835
3720,P,497.301147
3721,P,497.301147
3722,P,78.0137863
3723,P,78.0137863
3724,P,78.0137863
3725,P,865.432373
3726,P,865.432373
3727,P,-522.667175
3728,P,-522.667175
3729,P,329.060913
3730,P,329.060913
3731,P,-399.516998
3732,P,-399.516998
3733,P,334.048767
3734,P,334.048767
3735,P,-404.08313
3736,P,-404.08313
3737,P,347.556427
3738,P,347.556427
3739,P,807.396179
3740,P,807.396179
3741,P,-524.820862
3742,P,-524.820862
3743,P,336.261902
3744,P,336.261902
3745,P,-407.187317
3746,P,-407.187317
3747,P,127.187363
3748,P,127.187363
3749,P,48.6257133
3750,P,48.6257133
3751,P,-122.335327
3752,P,-122.335327
3753,P,-89.58535
3754,P,-89.58535
3755,P,290.285156
3756,P,290.285156
3757,P,811.763855
3758,P,811.763855
3759,P,-353.999725
3760,P,-353.999725
3761,P,302.48587
3762,P,302.48587
3763,P,-226.911972
3764,P,-226.911972
3765,P,296.836212
3766,P,296.836212
3767,P,748.907227
3768,P,748.907227
3769,P,-397.787903
3770,P,-397.787903
3771,P,307.606842
3772,P,307.606842
3773,P,-269.206635
3774,P,-269.206635
3775,P,980.343445
3776,P,980.343445
3777,P,6.69588614
3778,P,6.69588614
3779,P,448.536407
3780,P,448.536407
3781,P,474.951202
3782,P,474.951202
3783,P,486.084198
3784,P,486.084198
3785,P,-67.6511459
3786,P,-67.6511459
3787,P,1126.08215
3788,P,1126.08215
3789,P,-23.6368294
3790,P,-23.6368294
3791,P,494.858643
3792,P,494.858643
3793,P,6.72140169
3794,P,6.72140169
3795,P,-159.479691
3796,P,-159.479691
3797,P,-146.146851
3798,P,-146.146851
3799,P,-80.3071442
3800,P,-80.3071442
3801,P,-97.3294907
3802,P,-97.3294907
3803,P,404.19754
3804,P,404.19754
3805,P,-234.340057
3806,P,-234.340057
3807,P,1056.93372
3808,P,1056.93372
3809,P,-224.923309
3810,P,-224.923309
3811,P,435.152496
3812,P,435.152496
3813,P,439.330658
3814,P,439.330658
3815,P,-92.3004913
3816,P,-92.3004913
3817,P,1187.68591
3818,P,1187.68591
3819,P,-208.808517
3820,P,-208.808517
3821,P,432.467499
3822,P,432.467499
3823,P,-166.414383
3824,P,-166.414383
3825,P,1006.38068
3826,P,1006.38068
3827,P,-131.103836
3828,P,-131.103836
3829,P,348.360565
3830,P,348.360565
3831,P,-129.08757
3832,P,-129.08757
3833,P,350.141144
3834,P,350.141144
3835,P,359.062744
3836,P,359.062744
3837,P,1015.70447
3838,P,1015.70447
3839,P,-135.20668
3840,P,-135.20668
3841,P,356.303253
3842,P,356.303253
3843,P,-112.908333
3844,P,-112.908333
3845,P,-132.777695
3846,P,-132.777695
3847,P,-164.768097
3848,P,-164.768097
3849,P,-160.844894
3850,P,-160.844894
3851,P,406.478699
3852,P,406.478699
3853,P,1085.97449
3854,P,1085.97449
3855,P,-117.833763
3856,P,-117.833763
3857,P,400.414764
3858,P,400.414764
3859,P,371.832092
3860,P,371.832092
3861,P,-144.285446
3862,P,-144.285446
3863,P,1054.36023
3864,P,1054.36023
3865,P,-124.215019
3866,P,-124.215019
3867,P,378.731537
3868,P,378.731537
3869,P,1007.87439
3870,P,1007.87439
3871,P,-118.488136
3872,P,-118.488136
3873,P,346.083435
3874,P,346.083435
3875,P,344.392822
3876,P,344.392822
3877,P,345.250549
3878,P,345.250549
3879,P,-113.747482
3880,P,-113.747482
3881,P,1009.6178
3882,P,1009.6178
3883,P,-117.264427
3884,P,-117.264427
3885,P,345.297241
3886,P,345.297241
3887,P,-122.574936
3888,P,-122.574936
3889,P,-123.098434
3890,P,-123.098434
3891,P,-131.406052
3892,P,-131.406052
3893,P,-129.755493
3894,P,-129.755493
3895,P,336.381256
3896,P,336.381256
3897,P,979.780762
3898,P,979.780762
3899,P,-98.3020706
3900,P,-98.3020706
3901,P,337.377289
3902,P,337.377289
3903,P,345.059631
3904,P,345.059631
3905,P,1018.99573
3906,P,1018.99573
3907,P,-103.058319
3908,P,-103.058319
3909,P,344.378113
3910,P,344.378113
3911,P,1120.23608
3912,P,1120.23608
3913,P,189.347748
3914,P,189.347748
3915,P,431.51355
3916,P,431.51355
3917,P,88.8717041
3918,P,88.8717041
3919,P,424.471344
3920,P,424.471344
3921,P,182.793152
3922,P,182.793152
3923,P,440.731567
3924,P,440.731567
3925,P,1148.76392
3926,P,1148.76392
3927,P,222.634766
3928,P,222.634766
3929,P,439.065704
3930,P,439.065704
3931,P,208.899445
3932,P,208.899445
3933,P,2.92231798
3934,P,2.92231798
3935,P,45.0451736
3936,P,45.0451736
3937,P,137.545593
3938,P,137.545593
3939,P,134.29248
3940,P,134.29248
3941,P,433.969757
3942,P,433.969757
3943,P,1175.43591
3944,P,1175.43591
3945,P,149.979019
3946,P,149.979019
3947,P,439.946075
3948,P,439.946075
3949,P,156.729965
3950,P,156.729965
3951,P,449.404053
3952,P,449.404053
3953,P,1175.20251
3954,P,1175.20251
3955,P,202.622635
3956,P,202.622635
3957,P,448.299683
3958,P,448.299683
3959,P,205.947433
3960,P,205.947433
3961,P,949.48999
3962,P,949.48999
3963,P,-459.128235
3964,P,-459.128235
3965,P,350.471527
3966,P,350.471527
3967,P,356.413452
3968,P,356.413452
3969,P,398.810486
3970,P,398.810486
3971,P,-326.048004
3972,P,-326.048004
3973,P,1011.99725
3974,P,1011.99725
3975,P,-441.044464
3976,P,-441.044464
3977,P,365.354492
3978,P,365.354492
3979,P,-342.819824
3980,P,-342.819824
3981,P,-195.893982
3982,P,-195.893982
3983,P,-205.240799
3984,P,-205.240799
3985,P,-234.386795
3986,P,-234.386795
3987,P,-227.034424
3988,P,-227.034424
3989,P,446.305878
3990,P,446.305878
3991,P,-263.809235
3992,P,-263.809235
3993,P,1077.23096
3994,P,1077.23096
3995,P,-332.224579
3996,P,-332.224579
3997,P,425.182526
3998,P,425.182526
3999,P,408.316681
4000,P,408.316681
4001,P,-319.229553
4002,P,-319.229553
4003,P,1050.29175
4004,P,1050.29175
4005,P,-346.667145
4006,P,-346.667145
4007,P,420.112915
4008,P,420.112915
4009,P,-299.450195
4010,P,-299.450195
4011,P,344.367523
4012,P,344.367523
4013,P,956.336243
4014,P,956.336243
4015,P,-456.967316
4016,P,-456.967316
4017,P,350.490845
4018,P,350.490845
4019,P,393.253052
4020,P,393.253052
4021,P,-331.09552
4022,P,-331.09552
4023,P,1002.9494
4024,P,1002.9494
4025,P,-433.162048
4026,P,-433.162048
4027,P,358.643066
4028,P,358.643066
4029,P,-338.677521
4030,P,-338.677521
4031,P,-189.655106
4032,P,-189.655106
4033,P,-200.060944
4034,P,-200.060944
4035,P,-232.832123
4036,P,-232.832123
4037,P,-230.267563
4038,P,-230.267563
4039,P,447.806702
4040,P,447.806702
4041,P,1054.21265
4042,P,1054.21265
4043,P,-335.136353
4044,P,-335.136353
4045,P,430.452698
4046,P,430.452698
4047,P,-285.606537
4048,P,-285.606537
4049,P,403.961823
4050,P,403.961823
4051,P,1030.92493
4052,P,1030.92493
4053,P,-348.312714
4054,P,-348.312714
4055,P,418.98291
4056,P,418.98291
4057,P,-290.635773
4058,P,-290.635773
4059,P,434.580353
4060,P,434.580353
4061,P,116.804436
4062,P,116.804436
4063,P,1122.84534
4064,P,1122.84534
4065,P,218.258041
4066,P,218.258041
4067,P,427.951385
4068,P,427.951385
4069,P,446.145905
4070,P,446.145905
4071,P,1149.82288
4072,P,1149.82288
4073,P,253.406662
4074,P,253.406662
4075,P,443.584534
4076,P,443.584534
4077,P,-17.9399357
4078,P,-17.9399357
4079,P,27.3879223
4080,P,27.3879223
4081,P,158.165359
4082,P,158.165359
4083,P,137.739639
4084,P,137.739639
4085,P,431.001526
4086,P,431.001526
4087,P,-36.4580612
4088,P,-36.4580612
4089,P,1176.31787
4090,P,1176.31787
4091,P,120.586487
4092,P,120.586487
4093,P,440.304657
4094,P,440.304657
4095,P,454.13324
4096,P,454.13324
4097,P,288.135193
4098,P,288.135193
4099,P,1189.47119
4100,P,1189.47119
4101,P,183.354416
4102,P,183.354416
4103,P,452.168121
4104,P,452.168121
4105,P,189.78569
4106,P,189.78569
4107,P,345.711334
4108,P,345.711334
4109,P,1016.16943
4110,P,1016.16943
4111,P,-110.267891
4112,P,-110.267891
4113,P,345.793915
4114,P,345.793915
4115,P,-120.826515
4116,P,-120.826515
4117,P,348.218079
4118,P,348.218079
4119,P,1020.85913
4120,P,1020.85913
4121,P,-108.084106
4122,P,-108.084106
4123,P,347.527771
4124,P,347.527771
4125,P,-118.809906
4126,P,-118.809906
4127,P,-124.038269
4128,P,-124.038269
4129,P,-123.383904
4130,P,-123.383904
4131,P,-127.950722
4132,P,-127.950722
4133,P,-126.553093
4134,P,-126.553093
4135,P,335.539642
4136,P,335.539642
4137,P,980.975708
4138,P,980.975708
4139,P,-102.190788
4140,P,-102.190788
4141,P,335.251068
4142,P,335.251068
4143,P,344.964325
4144,P,344.964325
4145,P,1017.40216
4146,P,1017.40216
4147,P,-103.04895
4148,P,-103.04895
4149,P,343.115906
4150,P,343.115906
4151,P,343.843384
4152,P,343.843384
4153,P,1005.92773
4154,P,1005.92773
4155,P,-136.222122
4156,P,-136.222122
4157,P,347.908295
4158,P,347.908295
4159,P,358.592621
4160,P,358.592621
4161,P,-149.575241
4162,P,-149.575241
4163,P,1010.92334
4164,P,1010.92334
4165,P,-139.296799
4166,P,-139.296799
4167,P,354.925934
4168,P,354.925934
4169,P,-96.2131577
4170,P,-96.2131577
4171,P,-118.549957
4172,P,-118.549957
4173,P,-160.866028
4174,P,-160.866028
4175,P,-153.619156
4176,P,-153.619156
4177,P,411.645966
4178,P,411.645966
4179,P,1102.37537
4180,P,1102.37537
4181,P,-109.787636
4182,P,-109.787636
4183,P,403.158966
4184,P,403.158966
4185,P,374.903442
4186,P,374.903442
4187,P,-145.349594
4188,P,-145.349594
4189,P,1057.88123
4190,P,1057.88123
4191,P,-118.907501
4192,P,-118.907501
4193,P,381.326294
4194,P,381.326294
4195,P,441.589996
4196,P,441.589996
4197,P,974.195007
4198,P,974.195007
4199,P,-16.1087132
4200,P,-16.1087132
4201,P,466.679474
4202,P,466.679474
4203,P,482.204681
4204,P,482.204681
4205,P,-84.6369934
4206,P,-84.6369934
4207,P,1119.37927
4208,P,1119.37927
4209,P,-43.4666138
4210,P,-43.4666138
4211,P,489.017853
4212,P,489.017853
4213,P,-10.022007
4214,P,-10.022007
4215,P,-172.175247
4216,P,-172.175247
4217,P,-151.531952
4218,P,-151.531952
4219,P,-89.6222229
4220,P,-89.6222229
4221,P,-103.380249
4222,P,-103.380249
4223,P,401.949707
4224,P,401.949707
4225,P,1052.88977
4226,P,1052.88977
4227,P,-227.057281
4228,P,-227.057281
4229,P,430.170288
4230,P,430.170288
4231,P,-191.420578
4232,P,-191.420578
4233,P,435.476837
4234,P,435.476837
4235,P,1189.87671
4236,P,1189.87671
4237,P,-215.47113
4238,P,-215.47113
4239,P,429.422424
4240,P,429.422424
4241,P,-169.562973
4242,P,-169.562973
4243,P,327.667023
4244,P,327.667023
4245,P,-402.483307
4246,P,-402.483307
4247,P,857.921021
4248,P,857.921021
4249,P,-520.014221
4250,P,-520.014221
4251,P,332.309326
4252,P,332.309326
4253,P,340.629608
4254,P,340.629608
4255,P,799.073975
4256,P,799.073975
4257,P,-523.867432
4258,P,-523.867432
4259,P,330.742218
4260,P,330.742218
4261,P,120.923721
4262,P,120.923721
4263,P,43.243084
4264,P,43.243084
4265,P,-126.618095
4266,P,-126.618095
4267,P,-90.3531723
4268,P,-90.3531723
4269,P,290.298492
4270,P,290.298492
4271,P,-83.5110626
4272,P,-83.5110626
4273,P,817.242432
4274,P,817.242432
4275,P,-363.060089
4276,P,-363.060089
4277,P,290.686279
4278,P,290.686279
4279,P,302.751862
4280,P,302.751862
4281,P,-362.900177
4282,P,-362.900177
4283,P,754.488037
4284,P,754.488037
4285,P,-403.687805
4286,P,-403.687805
4287,P,302.628418
4288,P,302.628418
4289,P,-275.419464
4290,P,-275.419464
4291,P,-170.790863
4292,P,-170.790863
4293,P,820.820496
4294,P,820.820496
4295,P,-154.718323
4296,P,-154.718323
4297,P,824.426514
4298,P,824.426514
4299,P,290.024078
4300,P,290.024078
4301,P,369.655548
4302,P,369.655548
4303,P,440.128845
4304,P,440.128845
4305,P,193.214264
4306,P,193.214264
4307,P,719.09314
4308,P,719.09314
4309,P,-85.3994904
4310,P,-85.3994904
4311,P,167.242584
4312,P,167.242584
4313,P,178.506348
4314,P,178.506348
4315,P,-165.724319
4316,P,-165.724319
4317,P,322.127411
4318,P,322.127411
4319,P,410.112427
4320,P,410.112427
4321,P,506.702698
4322,P,506.702698
4323,P,8.8990345
4324,P,8.8990345
4325,P,226.975952
4326,P,226.975952
4327,P,721.047852
4328,P,721.047852
4329,P,-56.1539001
4330,P,-56.1539001
4331,P,203.477036
4332,P,203.477036
4333,P,-112.764488
4334,P,-112.764488
4335,P,256.580994
4336,P,256.580994
4337,P,258.266815
4338,P,258.266815
4339,P,237.888275
4340,P,237.888275
4341,P,217.416855
4342,P,217.416855
4343,P,-61.9164886
4344,P,-61.9164886
4345,P,-39.0365143
4346,P,-39.0365143
4347,P,204.827164
4348,P,204.827164
4349,P,175.7612
4350,P,175.7612
4351,P,102.141647
4352,P,102.141647
4353,P,252.025146
4354,P,252.025146
4355,P,245.074997
4356,P,245.074997
4357,P,213.324402
4358,P,213.324402
4359,P,225.538177
4360,P,225.538177
4361,P,-52.1778908
4362,P,-52.1778908
4363,P,-51.4584808
4364,P,-51.4584808
4365,P,295.954926
4366,P,295.954926
4367,P,333.358337
4368,P,333.358337
4369,P,423.696747
4370,P,423.696747
4371,P,460.931793
4372,P,460.931793
4373,P,-25.5887508
4374,P,-25.5887508
4375,P,-68.2935486
4376,P,-68.2935486
4377,P,-38.716526
4378,P,-38.716526
4379,P,-81.9080505
4380,P,-81.9080505
4381,P,-121.938927
4382,P,-121.938927
4383,P,-69.7891006
4384,P,-69.7891006
4385,P,-114.598389
4386,P,-114.598389
4387,P,165.475494
4388,P,165.475494
4389,P,161.237625
4390,P,161.237625
4391,P,159.619217
4392,P,159.619217
4393,P,173.195816
4394,P,173.195816
4395,P,-18.7552967
4396,P,-18.7552967
4397,P,-38.8020821
4398,P,-38.8020821
4399,P,218.00708
4400,P,218.00708
4401,P,215.073181
4402,P,215.073181
4403,P,207.522629
4404,P,207.522629
4405,P,208.368851
4406,P,208.368851
4407,P,-176.54158
4408,P,-176.54158
4409,P,-174.122131
4410,P,-174.122131
4411,P,-174.237839
4412,P,-174.237839
4413,P,-147.671982
4414,P,-147.671982
4415,P,-162.523102
4416,P,-162.523102
4417,P,226.957962
4418,P,226.957962
4419,P,227.987488
4420,P,227.987488
4421,P,235.395309
4422,P,235.395309
4423,P,235.09021
4424,P,235.09021
4425,P,-149.55542
4426,P,-149.55542
4427,P,-149.235016
4428,P,-149.235016
4429,P,202.876022
4430,P,202.876022
4431,P,204.422958
4432,P,204.422958
4433,P,204.469208
4434,P,204.469208
4435,P,206.037613
4436,P,206.037613
4437,P,-133.026611
4438,P,-133.026611
4439,P,-133.847183
4440,P,-133.847183
4441,P,-132.26387
4442,P,-132.26387
4443,P,-122.870461
4444,P,-122.870461
4445,P,-120.954605
4446,P,-120.954605
4447,P,-124.916634
4448,P,-124.916634
4449,P,200.462189
4450,P,200.462189
4451,P,199.801208
4452,P,199.801208
4453,P,192.049393
4454,P,192.049393
4455,P,195.011475
4456,P,195.011475
4457,P,-132.987778
4458,P,-132.987778
4459,P,-135.005692
4460,P,-135.005692
4461,P,-132.060394
4462,P,-132.060394
4463,P,239.818237
4464,P,239.818237
4465,P,238.144836
4466,P,238.144836
4467,P,235.267639
4468,P,235.267639
4469,P,214.766159
4470,P,214.766159
4471,P,72.5498352
4472,P,72.5498352
4473,P,46.8927155
4474,P,46.8927155
4475,P,-106.249992
4476,P,-106.249992
4477,P,-72.8111038
4478,P,-72.8111038
4479,P,-43.3963852
4480,P,-43.3963852
4481,P,246.979416
4482,P,246.979416
4483,P,247.475067
4484,P,247.475067
4485,P,248.450729
4486,P,248.450729
4487,P,247.943802
4488,P,247.943802
4489,P,49.675106
4490,P,49.675106
4491,P,46.0621681
4492,P,46.0621681
4493,P,207.806076
4494,P,207.806076
4495,P,210.23526
4496,P,210.23526
4497,P,255.97261
4498,P,255.97261
4499,P,255.626785
4500,P,255.626785
4501,P,-77.4598083
4502,P,-77.4598083
4503,P,-166.52417
4504,P,-166.52417
4505,P,-76.3885498
4506,P,-76.3885498
4507,P,-159.598419
4508,P,-159.598419
4509,P,-136.402832
4510,P,-136.402832
4511,P,-60.2057419
4512,P,-60.2057419
4513,P,-133.91185
4514,P,-133.91185
4515,P,193.853394
4516,P,193.853394
4517,P,191.063477
4518,P,191.063477
4519,P,183.275604
4520,P,183.275604
4521,P,175.107162
4522,P,175.107162
4523,P,-72.4930344
4524,P,-72.4930344
4525,P,-170.886658
4526,P,-170.886658
4527,P,204.01857
4528,P,204.01857
4529,P,207.695786
4530,P,207.695786
4531,P,253.084656
4532,P,253.084656
4533,P,249.691132
4534,P,249.691132
4535,P,-148.589722
4536,P,-148.589722
4537,P,-170.022568
4538,P,-170.022568
4539,P,-131.271255
4540,P,-131.271255
4541,P,-127.806976
4542,P,-127.806976
4543,P,-64.596344
4544,P,-64.596344
4545,P,-160.441788
4546,P,-160.441788
4547,P,-102.21228
4548,P,-102.21228
4549,P,-194.863983
4550,P,-194.863983
4551,P,-90.5832138
4552,P,-90.5832138
4553,P,-73.4777908
4554,P,-73.4777908
4555,P,189.337784
4556,P,189.337784
4557,P,188.392212
4558,P,188.392212
4559,P,186.797913
4560,P,186.797913
4561,P,179.994522
4562,P,179.994522
4563,P,240.768295
4564,P,240.768295
4565,P,239.782852
4566,P,239.782852
4567,P,238.569641
4568,P,238.569641
4569,P,216.897766
4570,P,216.897766
4571,P,79.7433929
4572,P,79.7433929
4573,P,5.32217407
4574,P,5.32217407
4575,P,35.0796051
4576,P,35.0796051
4577,P,-89.330368
4578,P,-89.330368
4579,P,-95.3500443
4580,P,-95.3500443
4581,P,-53.2864952
4582,P,-53.2864952
4583,P,62.0328445
4584,P,62.0328445
4585,P,112.324562
4586,P,112.324562
4587,P,43.1031837
4588,P,43.1031837
4589,P,76.4203186
4590,P,76.4203186
4591,P,89.8249435
4592,P,89.8249435
4593,P,248.343521
4594,P,248.343521
4595,P,248.367096
4596,P,248.367096
4597,P,242.946213
4598,P,242.946213
4599,P,247.261093
4600,P,247.261093
4601,P,198.5793
4602,P,198.5793
4603,P,197.952393
4604,P,197.952393
4605,P,206.020172
4606,P,206.020172
4607,P,199.860138
4608,P,199.860138
4609,P,-129.831924
4610,P,-129.831924
4611,P,-130.389023
4612,P,-130.389023
4613,P,-123.829582
4614,P,-123.829582
4615,P,-126.352097
4616,P,-126.352097
4617,P,-136.077942
4618,P,-136.077942
4619,P,-135.5923
4620,P,-135.5923
4621,P,-137.086136
4622,P,-137.086136
4623,P,-136.784119
4624,P,-136.784119
4625,P,193.67392
4626,P,193.67392
4627,P,190.820831
4628,P,190.820831
4629,P,191.620255
4630,P,191.620255
4631,P,190.005386
4632,P,190.005386
4633,P,215.533356
4634,P,215.533356
4635,P,213.500809
4636,P,213.500809
4637,P,207.085098
4638,P,207.085098
4639,P,206.466354
4640,P,206.466354
4641,P,-168.822739
4642,P,-168.822739
4643,P,-166.223862
4644,P,-166.223862
4645,P,-135.905777
4646,P,-135.905777
4647,P,-180.975693
4648,P,-180.975693
4649,P,-150.668427
4650,P,-150.668427
4651,P,-164.769272
4652,P,-164.769272
4653,P,-171.252258
4654,P,-171.252258
4655,P,-151.790771
4656,P,-151.790771
4657,P,-154.020264
4658,P,-154.020264
4659,P,-163.691315
4660,P,-163.691315
4661,P,-158.646652
4662,P,-158.646652
4663,P,224.233398
4664,P,224.233398
4665,P,224.930359
4666,P,224.930359
4667,P,242.865891
4668,P,242.865891
4669,P,237.241898
4670,P,237.241898
4671,P,302.735687
4672,P,302.735687
4673,P,340.298492
4674,P,340.298492
4675,P,418.049774
4676,P,418.049774
4677,P,458.623352
4678,P,458.623352
4679,P,-77.294693
4680,P,-77.294693
4681,P,-83.8540573
4682,P,-83.8540573
4683,P,-111.934845
4684,P,-111.934845
4685,P,-104.439735
4686,P,-104.439735
4687,P,-23.113203
4688,P,-23.113203
4689,P,-49.489048
4690,P,-49.489048
4691,P,-9.35285187
4692,P,-9.35285187
4693,P,-34.3761482
4694,P,-34.3761482
4695,P,4.68056679
4696,P,4.68056679
4697,P,-6.50117493
4698,P,-6.50117493
4699,P,170.254105
4700,P,170.254105
4701,P,169.328156
4702,P,169.328156
4703,P,165.372925
4704,P,165.372925
4705,P,182.390335
4706,P,182.390335
4707,P,257.840485
4708,P,257.840485
4709,P,257.089935
4710,P,257.089935
4711,P,238.766983
4712,P,238.766983
4713,P,216.52272
4714,P,216.52272
4715,P,-67.8723755
4716,P,-67.8723755
4717,P,27.5185909
4718,P,27.5185909
4719,P,-43.043705
4720,P,-43.043705
4721,P,174.845139
4722,P,174.845139
4723,P,140.530212
4724,P,140.530212
4725,P,92.3134842
4726,P,92.3134842
4727,P,-59.7664261
4728,P,-59.7664261
4729,P,-141.169632
4730,P,-141.169632
4731,P,-60.3704529
4732,P,-60.3704529
4733,P,-164.878189
4734,P,-164.878189
4735,P,-187.652084
4736,P,-187.652084
4737,P,251.117706
4738,P,251.117706
4739,P,234.840988
4740,P,234.840988
4741,P,198.844788
4742,P,198.844788
4743,P,212.150696
4744,P,212.150696
4745,P,468.91098
4746,P,468.91098
4747,P,345.285217
4748,P,345.285217
4749,P,653.242859
4750,P,653.242859
4751,P,469.606354
4752,P,469.606354
4753,P,1154.17432
4754,P,1154.17432
4755,P,1154.17432
4756,P,218.974686
4757,P,218.974686
4758,P,202.706421
4759,P,202.706421
4760,P,241.185837
4761,P,241.185837
4762,P,382.52121
4763,P,382.52121
4764,P,514.38092
4765,P,514.38092
4766,P,1671.92004
4767,P,1671.92004
4768,P,1671.92004
4769,P,1282.84546
4770,P,1282.84546
4771,P,1282.84546
4772,P,223.359909
4773,P,223.359909
4774,P,212.520142
4775,P,212.520142
4776,P,235.062607
4777,P,235.062607
4778,P,680.719238
4779,P,680.719238
4780,P,1202.08765
4781,P,1202.08765
4782,P,1091.9552
4783,P,1091.9552
4784,P,996.923828
4785,P,996.923828
4786,P,1431.70203
4787,P,1431.70203
4788,P,1267.83191
4789,P,1267.83191
4790,P,1128.5636
4791,P,1128.5636
4792,P,1022.89514
4793,P,1022.89514
4794,P,1492.83313
4795,P,1492.83313
4796,P,1487.09412
4797,P,1487.09412
4798,P,1151.45605
4799,P,1151.45605
4800,P,1155.67725
4801,P,1155.67725
4802,P,1449.74988
4803,P,1449.74988
4804,P,1487.38501
4805,P,1487.38501
4806,P,1141.9165
4807,P,1141.9165
4808,P,1155.19006
4809,P,1155.19006
4810,P,1460.68628
4811,P,1460.68628
4812,P,1439.6427
4813,P,1439.6427
4814,P,1140.18372
4815,P,1140.18372
4816,P,1120.67004
4817,P,1120.67004
4818,P,1449.86084
4819,P,1449.86084
4820,P,1451.69019
4821,P,1451.69019
4822,P,1120.41138
4823,P,1120.41138
4824,P,1126.34741
4825,P,1126.34741
4826,P,1414.0625
4827,P,1414.0625
4828,P,1477.71802
4829,P,1477.71802
4830,P,1100.99109
4831,P,1100.99109
4832,P,1120.22998
4833,P,1120.22998
4834,P,1525.57068
4835,P,1525.57068
4836,P,1491.71704
4837,P,1491.71704
4838,P,1172.2063
4839,P,1172.2063
4840,P,1123.18677
4841,P,1123.18677
4842,P,1498.96252
4843,P,1498.96252
4844,P,1511.5824
4845,P,1511.5824
4846,P,1157.67627
4847,P,1157.67627
4848,P,1158.58508
4849,P,1158.58508
4850,P,1515.92896
4851,P,1515.92896
4852,P,1516.1051
4853,P,1516.1051
4854,P,1170.02246
4855,P,1170.02246
4856,P,1156.44873
4857,P,1156.44873
4858,P,1485.85913
4859,P,1485.85913
4860,P,1248.37671
4861,P,1248.37671
4862,P,1140.47021
4863,P,1140.47021
4864,P,1020.9292
4865,P,1020.9292
4866,P,684.081909
4867,P,684.081909
4868,P,1194.07043
4869,P,1194.07043
4870,P,1105.6637
4871,P,1105.6637
4872,P,999.72937
4873,P,999.72937
4874,P,-468.67572
4875,P,-468.67572
4876,P,-117.35054
4877,P,-117.35054
4878,P,-233.576797
4879,P,-233.576797
4880,P,-397.007904
4881,P,-397.007904
4882,P,-423.970795
4883,P,-423.970795
4884,P,-1243.10889
4885,P,-1243.10889
4886,P,-484.088287
4887,P,-484.088287
4888,P,-478.095306
4889,P,-478.095306
4890,P,-496.249603
4891,P,-496.249603
4892,P,-507.360443
4893,P,-507.360443
4894,P,-955.860596
4895,P,-955.860596
4896,P,-460.701965
4897,P,-460.701965
4898,P,-446.358643
4899,P,-446.358643
4900,P,-371.734863
4901,P,-371.734863
4902,P,-361.39151
4903,P,-361.39151
4904,P,611.537231
4905,P,611.537231
4906,P,277.03418
4907,P,277.03418
4908,P,-100.003807
4909,P,-100.003807
4910,P,292.007507
4911,P,292.007507
4912,P,-514.5271
4913,P,-514.5271
4914,P,570.228333
4915,P,570.228333
4916,P,-390.068756
4917,P,-390.068756
4918,P,-367.120514
4919,P,-367.120514
4920,P,-1110.0437
4921,P,-1110.0437
4922,P,484.947601
4923,P,484.947601
4924,P,87.9996567
4925,P,87.9996567
4926,P,160.280899
4927,P,160.280899
4928,P,87.9717178
4929,P,87.9717178
4930,P,451.509583
4931,P,451.509583
4932,P,89.2144699
4933,P,89.2144699
4934,P,131.337143
4935,P,131.337143
4936,P,94.4735489
4937,P,94.4735489
4938,P,174.001694
4939,P,174.001694
4940,P,456.003723
4941,P,456.003723
4942,P,-473.604706
4943,P,-473.604706
4944,P,-477.364349
4945,P,-477.364349
4946,P,401.069672
4947,P,401.069672
4948,P,61.1222343
4949,P,61.1222343
4950,P,132.499146
4951,P,132.499146
4952,P,70.2417755
4953,P,70.2417755
4954,P,403.692291
4955,P,403.692291
4956,P,60.9404564
4957,P,60.9404564
4958,P,100.898865
4959,P,100.898865
4960,P,64.6378174
4961,P,64.6378174
4962,P,162.081436
4963,P,162.081436
4964,P,380.585876
4965,P,380.585876
4966,P,-479.591583
4967,P,-479.591583
4968,P,-494.739624
4969,P,-494.739624
4970,P,-1214.94739
4971,P,-1214.94739
4972,P,350.399719
4973,P,350.399719
4974,P,49.3367462
4975,P,49.3367462
4976,P,89.6739197
4977,P,89.6739197
4978,P,55.2342987
4979,P,55.2342987
4980,P,327.063232
4981,P,327.063232
4982,P,50.8109703
4983,P,50.8109703
4984,P,127.943924
4985,P,127.943924
4986,P,50.30933
4987,P,50.30933
4988,P,103.376266
4989,P,103.376266
4990,P,365.713684
4991,P,365.713684
4992,P,-458.29538
4993,P,-458.29538
4994,P,-469.459473
4995,P,-469.459473
4996,P,-1076.01843
4997,P,-1076.01843
4998,P,385.971313
4999,P,385.971313
5000,P,61.7916489
5001,P,61.7916489
5002,P,103.260422
5003,P,103.260422
5004,P,62.9953575
5005,P,62.9953575
5006,P,391.406097
5007,P,391.406097
5008,P,65.5411987
5009,P,65.5411987
5010,P,145.197342
5011,P,145.197342
5012,P,64.8948135
5013,P,64.8948135
5014,P,106.237381
5015,P,106.237381
5016,P,425.737732
5017,P,425.737732
5018,P,-377.21817
5019,P,-377.21817
5020,P,-400.459076
5021,P,-400.459076
5022,P,-1104.39331
5023,P,-1104.39331
5024,P,450.799805
5025,P,450.799805
5026,P,90.0583344
5027,P,90.0583344
5028,P,138.600235
5029,P,138.600235
5030,P,88.7461777
5031,P,88.7461777
5032,P,488.426086
5033,P,488.426086
5034,P,85.5128708
5035,P,85.5128708
5036,P,161.14444
5037,P,161.14444
5038,P,87.2933655
5039,P,87.2933655
5040,P,125.516243
5041,P,125.516243
5042,P,499.114258
5043,P,499.114258
5044,P,-121.67511
5045,P,-121.67511
5046,P,-210.172012
5047,P,-210.172012
5048,P,604.479431
5049,P,604.479431
5050,P,281.169647
5051,P,281.169647
5052,P,-120.392899
5053,P,-120.392899
5054,P,290.537567
5055,P,290.537567
5056,P,688.542236
5057,P,688.542236
5058,P,1062.57581
5059,P,1062.57581
5060,P,-19.6815166
5061,P,-19.6815166
5062,P,-121.653412
5063,P,-121.653412
5064,P,-307.937134
5065,P,-307.937134
5066,P,-256.815674
5067,P,-256.815674
5068,P,-194.717911
5069,P,-194.717911
5070,P,-151.180069
5071,P,-151.180069
5072,P,-261.765167
5073,P,-261.765167
5074,P,-296.278656
5075,P,-296.278656
5076,P,-450.57901
5077,P,-450.57901
5078,P,-427.943268
5079,P,-427.943268
5080,P,-322.743378
5081,P,-322.743378
5082,P,-298.980164
5083,P,-298.980164
5084,P,-348.355255
5085,P,-348.355255
5086,P,-357.126678
5087,P,-357.126678
5088,P,-487.305908
5089,P,-487.305908
5090,P,-482.857147
5091,P,-482.857147
5092,P,-359.230499
5093,P,-359.230499
5094,P,-361.397095
5095,P,-361.397095
5096,P,-373.570953
5097,P,-373.570953
5098,P,-377.383331
5099,P,-377.383331
5100,P,-507.153473
5101,P,-507.153473
5102,P,-514.582336
5103,P,-514.582336
5104,P,-380.959503
5105,P,-380.959503
5106,P,-392.426453
5107,P,-392.426453
5108,P,-352.195984
5109,P,-352.195984
5110,P,-338.285126
5111,P,-338.285126
5112,P,-453.731079
5113,P,-453.731079
5114,P,-454.346252
5115,P,-454.346252
5116,P,-331.23175
5117,P,-331.23175
5118,P,-331.502869
5119,P,-331.502869
5120,P,-256.346436
5121,P,-256.346436
5122,P,-237.777618
5123,P,-237.777618
5124,P,-319.535126
5125,P,-319.535126
5126,P,-342.532043
5127,P,-342.532043
5128,P,-203.368896
5129,P,-203.368896
5130,P,-225.657669
5131,P,-225.657669
5132,P,692.182739
5133,P,692.182739
5134,P,1070.26013
5135,P,1070.26013
5136,P,1001.43701
5137,P,1001.43701
5138,P,1054.23376
5139,P,1054.23376
5140,P,971.080017
5141,P,971.080017
5142,P,944.330811
5143,P,944.330811
5144,P,1393.02161
5145,P,1393.02161
5146,P,1321.68579
5147,P,1321.68579
5148,P,1097.59314
5149,P,1097.59314
5150,P,1070.00159
5151,P,1070.00159
5152,P,518.359253
5153,P,518.359253
5154,P,271.348999
5155,P,271.348999
5156,P,292.2258
5157,P,292.2258
5158,P,-759.11438
5159,P,-759.11438
5160,P,537.520386
5161,P,537.520386
5162,P,-946.983887
5163,P,-946.983887
5164,P,-318.68161
5165,P,-318.68161
5166,P,-352.079498
5167,P,-352.079498
5168,P,-264.96402
5169,P,-264.96402
5170,P,-235.124985
5171,P,-235.124985
5172,P,-198.48938
5173,P,-198.48938
5174,P,-231.31102
5175,P,-231.31102
5176,P,524.497986
5177,P,524.497986
5178,P,182.421494
5179,P,182.421494
5180,P,89.1241989
5181,P,89.1241989
5182,P,1427.93616
5183,P,1427.93616
5184,P,1453.48877
5185,P,1453.48877
5186,P,1122.32288
5187,P,1122.32288
5188,P,1132.52319
5189,P,1132.52319
5190,P,1479.88147
5191,P,1479.88147
5192,P,1469.28943
5193,P,1469.28943
5194,P,1147.30249
5195,P,1147.30249
5196,P,1165.43127
5197,P,1165.43127
5198,P,448.819824
5199,P,448.819824
5200,P,82.3743286
5201,P,82.3743286
5202,P,92.3963089
5203,P,92.3963089
5204,P,-445.411377
5205,P,-445.411377
5206,P,-455.180084
5207,P,-455.180084
5208,P,-1100.87964
5209,P,-1100.87964
5210,P,-346.141541
5211,P,-346.141541
5212,P,-346.444458
5213,P,-346.444458
5214,P,-318.209747
5215,P,-318.209747
5216,P,-327.200439
5217,P,-327.200439
5218,P,424.025848
5219,P,424.025848
5220,P,79.2879715
5221,P,79.2879715
5222,P,122.915588
5223,P,122.915588
5224,P,71.9177094
5225,P,71.9177094
5226,P,1417.33838
5227,P,1417.33838
5228,P,1459.88135
5229,P,1459.88135
5230,P,1125.55664
5231,P,1125.55664
5232,P,1132.66467
5233,P,1132.66467
5234,P,1424.54224
5235,P,1424.54224
5236,P,1401.12354
5237,P,1401.12354
5238,P,1118.00989
5239,P,1118.00989
5240,P,1116.52173
5241,P,1116.52173
5242,P,370.84726
5243,P,370.84726
5244,P,57.7648201
5245,P,57.7648201
5246,P,60.319931
5247,P,60.319931
5248,P,97.2963333
5249,P,97.2963333
5250,P,359.278442
5251,P,359.278442
5252,P,-1270.33423
5253,P,-1270.33423
5254,P,-499.324921
5255,P,-499.324921
5256,P,-476.047333
5257,P,-476.047333
5258,P,-361.05188
5259,P,-361.05188
5260,P,-372.696777
5261,P,-372.696777
5262,P,-371.377014
5263,P,-371.377014
5264,P,-362.329315
5265,P,-362.329315
5266,P,349.798248
5267,P,349.798248
5268,P,58.1077156
5269,P,58.1077156
5270,P,53.0980453
5271,P,53.0980453
5272,P,1468.37671
5273,P,1468.37671
5274,P,1450.34314
5275,P,1450.34314
5276,P,1094.38513
5277,P,1094.38513
5278,P,1100.04797
5279,P,1100.04797
5280,P,1439.23462
5281,P,1439.23462
5282,P,1458.42566
5283,P,1458.42566
5284,P,1142.0614
5285,P,1142.0614
5286,P,1135.63391
5287,P,1135.63391
5288,P,371.105469
5289,P,371.105469
5290,P,56.2891235
5291,P,56.2891235
5292,P,52.6312103
5293,P,52.6312103
5294,P,-485.807037
5295,P,-485.807037
5296,P,-464.407837
5297,P,-464.407837
5298,P,-1208.02612
5299,P,-1208.02612
5300,P,-347.762817
5301,P,-347.762817
5302,P,-364.559631
5303,P,-364.559631
5304,P,-374.500885
5305,P,-374.500885
5306,P,-351.061218
5307,P,-351.061218
5308,P,356.757385
5309,P,356.757385
5310,P,54.5771294
5311,P,54.5771294
5312,P,132.438965
5313,P,132.438965
5314,P,59.4088669
5315,P,59.4088669
5316,P,1525.6748
5317,P,1525.6748
5318,P,1512.20544
5319,P,1512.20544
5320,P,1174.69897
5321,P,1174.69897
5322,P,1161.04651
5323,P,1161.04651
5324,P,1510.849
5325,P,1510.849
5326,P,1531.14185
5327,P,1531.14185
5328,P,1173.34998
5329,P,1173.34998
5330,P,1186.7074
5331,P,1186.7074
5332,P,446.170502
5333,P,446.170502
5334,P,78.3931808
5335,P,78.3931808
5336,P,67.6476822
5337,P,67.6476822
5338,P,154.296677
5339,P,154.296677
5340,P,429.036285
5341,P,429.036285
5342,P,-1058.99365
5343,P,-1058.99365
5344,P,-446.675354
5345,P,-446.675354
5346,P,-426.330078
5347,P,-426.330078
5348,P,-263.084625
5349,P,-263.084625
5350,P,-282.87561
5351,P,-282.87561
5352,P,-330.449066
5353,P,-330.449066
5354,P,-302.749847
5355,P,-302.749847
5356,P,424.531128
5357,P,424.531128
5358,P,83.4758759
5359,P,83.4758759
5360,P,89.9062881
5361,P,89.9062881
5362,P,1398.0332
5363,P,1398.0332
5364,P,1342.12463
5365,P,1342.12463
5366,P,1099.823
5367,P,1099.823
5368,P,1080.16003
5369,P,1080.16003
5370,P,1022.99817
5371,P,1022.99817
5372,P,1091.92395
5373,P,1091.92395
5374,P,992.155518
5375,P,992.155518
5376,P,962.622498
5377,P,962.622498
5378,P,535.084045
5379,P,535.084045
5380,P,182.314468
5381,P,182.314468
5382,P,87.4267426
5383,P,87.4267426
5384,P,-299.798828
5385,P,-299.798828
5386,P,-245.189148
5387,P,-245.189148
5388,P,-673.540222
5389,P,-673.540222
5390,P,-32.3608742
5391,P,-32.3608742
5392,P,-113.898849
5393,P,-113.898849
5394,P,-183.980698
5395,P,-183.980698
5396,P,-148.67601
5397,P,-148.67601
5398,P,507.120392
5399,P,507.120392
5400,P,271.04126
5401,P,271.04126
5402,P,-712.431213
5403,P,-712.431213
5404,P,294.785217
5405,P,294.785217
5406,P,292.322998
5407,P,292.322998
5408,P,300.200348
5409,P,300.200348
5410,P,343.611877
5411,P,343.611877
5412,P,194.534439
5413,P,194.534439
5414,P,277.86972
5415,P,277.86972
5416,P,454.717133
5417,P,454.717133
5418,P,114.684753
5419,P,114.684753
5420,P,123.387276
5421,P,123.387276
5422,P,659.135681
5423,P,659.135681
5424,P,15.8357897
5425,P,15.8357897
5426,P,574.891724
5427,P,574.891724
5428,P,6.22701311
5429,P,6.22701311
5430,P,79.3843002
5431,P,79.3843002
5432,P,83.2491913
5433,P,83.2491913
5434,P,138.536209
5435,P,138.536209
5436,P,-98.3867569
5437,P,-98.3867569
5438,P,143.407089
5439,P,143.407089
5440,P,-85.8199005
5441,P,-85.8199005
5442,P,68.1090469
5443,P,68.1090469
5444,P,68.0173264
5445,P,68.0173264
5446,P,123.733887
5447,P,123.733887
5448,P,-85.3544998
5449,P,-85.3544998
5450,P,123.177551
5451,P,123.177551
5452,P,-85.1780167
5453,P,-85.1780167
5454,P,84.3687744
5455,P,84.3687744
5456,P,83.4759598
5457,P,83.4759598
5458,P,142.497192
5459,P,142.497192
5460,P,-31.8982964
5461,P,-31.8982964
5462,P,145.097
5463,P,145.097
5464,P,-76.1910095
5465,P,-76.1910095
5466,P,110.333229
5467,P,110.333229
5468,P,109.695786
5469,P,109.695786
5470,P,471.036377
5471,P,471.036377
5472,P,18.7503815
5473,P,18.7503815
5474,P,529.67218
5475,P,529.67218
5476,P,7.8054409
5477,P,7.8054409
5478,P,-464.311615
5479,P,-464.311615
5480,P,-78.7149963
5481,P,-78.7149963
5482,P,2710.12769
5483,P,2710.12769
5484,P,1002.96429
5485,P,1002.96429
5486,P,-1318.953
5487,P,-1318.953
5488,P,2539.65381
5489,P,2539.65381
5490,P,1189.65747
5491,P,1189.65747
5492,P,-1290.74072
5493,P,-1290.74072
5494,P,3943.46509
5495,P,3943.46509
5496,P,2440.93481
5497,P,2440.93481
5498,P,-1075.62207
5499,P,-1075.62207
5500,P,-1494.49231
5501,P,-1494.49231
5502,P,-1540.3158
5503,P,-1540.3158
5504,P,3960.54077
5505,P,3960.54077
5506,P,2389.1582
5507,P,2389.1582
5508,P,-1077.7876
5509,P,-1077.7876
5510,P,487.372833
5511,P,487.372833
5512,P,627.882751
5513,P,627.882751
5514,P,358.854889
5515,P,358.854889
5516,P,262.581757
5517,P,262.581757
5518,P,4001.55371
5519,P,4001.55371
5520,P,2525.97534
5521,P,2525.97534
5522,P,-1063.47461
5523,P,-1063.47461
5524,P,3917.90771
5525,P,3917.90771
5526,P,2517.63989
5527,P,2517.63989
5528,P,-1060.18005
5529,P,-1060.18005
5530,P,4080.63696
5531,P,4080.63696
5532,P,2728.0481
5533,P,2728.0481
5534,P,-994.402954
5535,P,-994.402954
5536,P,-1597.51221
5537,P,-1597.51221
5538,P,-1580.88843
5539,P,-1580.88843
5540,P,4195.24072
5541,P,4195.24072
5542,P,2783.198
5543,P,2783.198
5544,P,-1006.90845
5545,P,-1006.90845
5546,P,265.093323
5547,P,265.093323
5548,P,338.550873
5549,P,338.550873
5550,P,260.107727
5551,P,260.107727
5552,P,4202.646
5553,P,4202.646
5554,P,2733.39966
5555,P,2733.39966
5556,P,-974.27594
5557,P,-974.27594
5558,P,4243.25195
5559,P,4243.25195
5560,P,2743.59375
5561,P,2743.59375
5562,P,-973.923645
5563,P,-973.923645
5564,P,4105.29395
5565,P,4105.29395
5566,P,2849.74438
5567,P,2849.74438
5568,P,-979.42572
5569,P,-979.42572
5570,P,-1632.98645
5571,P,-1632.98645
5572,P,-1625.78162
5573,P,-1625.78162
5574,P,4114.57666
5575,P,4114.57666
5576,P,2845.00952
5577,P,2845.00952
5578,P,-976.04071
5579,P,-976.04071
5580,P,254.205002
5581,P,254.205002
5582,P,228.173126
5583,P,228.173126
5584,P,119.666107
5585,P,119.666107
5586,P,4258.42871
5587,P,4258.42871
5588,P,2806.97388
5589,P,2806.97388
5590,P,-975.086548
5591,P,-975.086548
5592,P,4236.26562
5593,P,4236.26562
5594,P,2804.70752
5595,P,2804.70752
5596,P,-973.805237
5597,P,-973.805237
5598,P,4157.60889
5599,P,4157.60889
5600,P,2748.43262
5601,P,2748.43262
5602,P,-985.573547
5603,P,-985.573547
5604,P,-1585.51416
5605,P,-1585.51416
5606,P,-1589.48975
5607,P,-1589.48975
5608,P,4230.58057
5609,P,4230.58057
5610,P,2776.50171
5611,P,2776.50171
5612,P,-987.037048
5613,P,-987.037048
5614,P,138.108948
5615,P,138.108948
5616,P,232.869278
5617,P,232.869278
5618,P,255.158356
5619,P,255.158356
5620,P,159.294983
5621,P,159.294983
5622,P,4291.97119
5623,P,4291.97119
5624,P,2748.33081
5625,P,2748.33081
5626,P,-1007.73761
5627,P,-1007.73761
5628,P,4252.8208
5629,P,4252.8208
5630,P,2732.37988
5631,P,2732.37988
5632,P,-998.912537
5633,P,-998.912537
5634,P,4099.23975
5635,P,4099.23975
5636,P,2472.37524
5637,P,2472.37524
5638,P,-1084.35425
5639,P,-1084.35425
5640,P,-1513.74988
5641,P,-1513.74988
5642,P,-1445.6875
5643,P,-1445.6875
5644,P,4061.91724
5645,P,4061.91724
5646,P,2486.51514
5647,P,2486.51514
5648,P,-1081.20862
5649,P,-1081.20862
5650,P,182.882553
5651,P,182.882553
5652,P,271.495392
5653,P,271.495392
5654,P,342.975311
5655,P,342.975311
5656,P,266.369995
5657,P,266.369995
5658,P,3996.27979
5659,P,3996.27979
5660,P,2406.5166
5661,P,2406.5166
5662,P,-1081.00598
5663,P,-1081.00598
5664,P,4023.74976
5665,P,4023.74976
5666,P,2379.01514
5667,P,2379.01514
5668,P,-1098.71436
5669,P,-1098.71436
5670,P,2703.79907
5671,P,2703.79907
5672,P,981.373169
5673,P,981.373169
5674,P,-1292.26782
5675,P,-1292.26782
5676,P,-1026.66309
5677,P,-1026.66309
5678,P,-1073.34155
5679,P,-1073.34155
5680,P,1167.89404
5681,P,1167.89404
5682,P,-1289.78101
5683,P,-1289.78101
5684,P,2532.28027
5685,P,2532.28027
5686,P,262.752747
5687,P,262.752747
5688,P,353.208252
5689,P,353.208252
5690,P,583.773193
5691,P,583.773193
5692,P,-88.1011047
5693,P,-88.1011047
5694,P,742.136353
5695,P,742.136353
5696,P,239.185043
5697,P,239.185043
5698,P,-46.128437
5699,P,-46.128437
5700,P,119.810692
5701,P,119.810692
5702,P,53.7261772
5703,P,53.7261772
5704,P,63.9915314
5705,P,63.9915314
5706,P,84.8315887
5707,P,84.8315887
5708,P,51.843544
5709,P,51.843544
5710,P,-29.0378609
5711,P,-29.0378609
5712,P,26.4736881
5713,P,26.4736881
5714,P,-8.91972065
5715,P,-8.91972065
5716,P,5.53754997
5717,P,5.53754997
5718,P,-45.4329643
5719,P,-45.4329643
5720,P,112.6604
5721,P,112.6604
5722,P,108.816811
5723,P,108.816811
5724,P,474.966553
5725,P,474.966553
5726,P,19.6308079
5727,P,19.6308079
5728,P,537.103333
5729,P,537.103333
5730,P,7.14722729
5731,P,7.14722729
5732,P,-64.7220001
5733,P,-64.7220001
5734,P,-119.397789
5735,P,-119.397789
5736,P,-76.3216858
5737,P,-76.3216858
5738,P,-120.259178
5739,P,-120.259178
5740,P,-71.7285995
5741,P,-71.7285995
5742,P,-147.891861
5743,P,-147.891861
5744,P,-125.160248
5745,P,-125.160248
5746,P,-100.79895
5747,P,-100.79895
5748,P,-100.107361
5749,P,-100.107361
5750,P,-150.977112
5751,P,-150.977112
5752,P,-67.5963287
5753,P,-67.5963287
5754,P,80.0423203
5755,P,80.0423203
5756,P,86.9831314
5757,P,86.9831314
5758,P,143.826614
5759,P,143.826614
5760,P,-25.8262959
5761,P,-25.8262959
5762,P,144.858612
5763,P,144.858612
5764,P,-74.2537155
5765,P,-74.2537155
5766,P,-173.611023
5767,P,-173.611023
5768,P,-131.174637
5769,P,-131.174637
5770,P,-183.317398
5771,P,-183.317398
5772,P,-178.235367
5773,P,-178.235367
5774,P,-130.681702
5775,P,-130.681702
5776,P,-183.727219
5777,P,-183.727219
5778,P,-181.34848
5779,P,-181.34848
5780,P,-144.064117
5781,P,-144.064117
5782,P,-138.614517
5783,P,-138.614517
5784,P,-185.137497
5785,P,-185.137497
5786,P,66.8203964
5787,P,66.8203964
5788,P,71.6231155
5789,P,71.6231155
5790,P,125.060066
5791,P,125.060066
5792,P,-81.34655
5793,P,-81.34655
5794,P,122.573288
5795,P,122.573288
5796,P,-81.828949
5797,P,-81.828949
5798,P,-177.255798
5799,P,-177.255798
5800,P,-198.37085
5801,P,-198.37085
5802,P,-141.106201
5803,P,-141.106201
5804,P,-194.269379
5805,P,-194.269379
5806,P,-148.419266
5807,P,-148.419266
5808,P,-190.476105
5809,P,-190.476105
5810,P,-73.9189682
5811,P,-73.9189682
5812,P,-144.623306
5813,P,-144.623306
5814,P,-148.250763
5815,P,-148.250763
5816,P,-186.170898
5817,P,-186.170898
5818,P,80.5349731
5819,P,80.5349731
5820,P,82.8233643
5821,P,82.8233643
5822,P,138.609879
5823,P,138.609879
5824,P,-101.420479
5825,P,-101.420479
5826,P,143.393326
5827,P,143.393326
5828,P,-87.632019
5829,P,-87.632019
5830,P,-185.582733
5831,P,-185.582733
5832,P,-176.675858
5833,P,-176.675858
5834,P,-126.142601
5835,P,-126.142601
5836,P,-170.702606
5837,P,-170.702606
5838,P,-129.306183
5839,P,-129.306183
5840,P,-157.411514
5841,P,-157.411514
5842,P,-63.7715836
5843,P,-63.7715836
5844,P,-114.048615
5845,P,-114.048615
5846,P,-111.277161
5847,P,-111.277161
5848,P,-158.722778
5849,P,-158.722778
5850,P,114.828346
5851,P,114.828346
5852,P,117.612625
5853,P,117.612625
5854,P,659.882629
5855,P,659.882629
5856,P,15.555563
5857,P,15.555563
5858,P,568.706116
5859,P,568.706116
5860,P,10.3709202
5861,P,10.3709202
5862,P,-80.4712219
5863,P,-80.4712219
5864,P,-106.691452
5865,P,-106.691452
5866,P,-57.0618286
5867,P,-57.0618286
5868,P,-102.915878
5869,P,-102.915878
5870,P,-64.9992447
5871,P,-64.9992447
5872,P,-61.0283775
5873,P,-61.0283775
5874,P,-30.5983925
5875,P,-30.5983925
5876,P,-22.0137272
5877,P,-22.0137272
5878,P,-21.943346
5879,P,-21.943346
5880,P,-57.6127357
5881,P,-57.6127357
5882,P,-44.6383286
5883,P,-44.6383286
5884,P,289.808685
5885,P,289.808685
5886,P,301.115845
5887,P,301.115845
5888,P,342.972839
5889,P,342.972839
5890,P,182.219055
5891,P,182.219055
5892,P,303.324005
5893,P,303.324005
5894,P,446.764709
5895,P,446.764709
5896,P,242.27829
5897,P,242.27829
5898,P,-100.175781
5899,P,-100.175781
5900,P,1554.47607
5901,P,1554.47607
5902,P,634.187256
5903,P,634.187256
5904,P,3354.83838
5905,P,3354.83838
5906,P,1941.17163
5907,P,1941.17163
5908,P,-1186.94153
5909,P,-1186.94153
5910,P,1870.63818
5911,P,1870.63818
5912,P,-1207.68494
5913,P,-1207.68494
5914,P,3447.78833
5915,P,3447.78833
5916,P,1193.34473
5917,P,1193.34473
5918,P,1616.83545
5919,P,1616.83545
5920,P,935.742798
5921,P,935.742798
5922,P,1062.79761
5923,P,1062.79761
5924,P,980.423279
5925,P,980.423279
5926,P,939.8974
5927,P,939.8974
5928,P,774.872742
5929,P,774.872742
5930,P,3616.66479
5931,P,3616.66479
5932,P,2029.31848
5933,P,2029.31848
5934,P,-1162.52771
5935,P,-1162.52771
5936,P,-1388.80127
5937,P,-1388.80127
5938,P,2094.67871
5939,P,2094.67871
5940,P,-1150.86841
5941,P,-1150.86841
5942,P,3545.20874
5943,P,3545.20874
5944,P,-1448.2699
5945,P,-1448.2699
5946,P,1439.22351
5947,P,1439.22351
5948,P,1263.85608
5949,P,1263.85608
5950,P,1018.82471
5951,P,1018.82471
5952,P,797.489807
5953,P,797.489807
5954,P,1114.19299
5955,P,1114.19299
5956,P,817.644958
5957,P,817.644958
5958,P,953.114197
5959,P,953.114197
5960,P,1035.96704
5961,P,1035.96704
5962,P,-401.056671
5963,P,-401.056671
5964,P,237.614456
5965,P,237.614456
5966,P,-240.220566
5967,P,-240.220566
5968,P,292.703766
5969,P,292.703766
5970,P,436.628479
5971,P,436.628479
5972,P,31.4542255
5973,P,31.4542255
5974,P,55.2942238
5975,P,55.2942238
5976,P,64.0302887
5977,P,64.0302887
5978,P,-105.152794
5979,P,-105.152794
5980,P,-69.8285599
5981,P,-69.8285599
5982,P,-112.921837
5983,P,-112.921837
5984,P,-63.8722153
5985,P,-63.8722153
5986,P,-65.4702911
5987,P,-65.4702911
5988,P,35.3128395
5989,P,35.3128395
5990,P,-19.2126389
5991,P,-19.2126389
5992,P,-57.542366
5993,P,-57.542366
5994,P,-25.488718
5995,P,-25.488718
5996,P,471.696899
5997,P,471.696899
5998,P,406.683899
5999,P,406.683899
6000,P,70.2502823
6001,P,70.2502823
6002,P,-34.8231697
6003,P,-34.8231697
6004,P,-33.1709366
6005,P,-33.1709366
6006,P,33.1880722
6007,P,33.1880722
6008,P,18.1898956
6009,P,18.1898956
6010,P,6.92531633
6011,P,6.92531633
6012,P,1972.44775
6013,P,1972.44775
6014,P,1447.52563
6015,P,1447.52563
6016,P,4092.72388
6017,P,4092.72388
6018,P,2631.59082
6019,P,2631.59082
6020,P,-1008.74933
6021,P,-1008.74933
6022,P,2629.87231
6023,P,2629.87231
6024,P,-1023.85132
6025,P,-1023.85132
6026,P,4154.30762
6027,P,4154.30762
6028,P,1464.48926
6029,P,1464.48926
6030,P,2061.87427
6031,P,2061.87427
6032,P,1045.42126
6033,P,1045.42126
6034,P,1139.25574
6035,P,1139.25574
6036,P,1172.87488
6037,P,1172.87488
6038,P,1054.7406
6039,P,1054.7406
6040,P,806.943298
6041,P,806.943298
6042,P,778.697144
6043,P,778.697144
6044,P,4206.33887
6045,P,4206.33887
6046,P,2630.57568
6047,P,2630.57568
6048,P,-1015.04163
6049,P,-1015.04163
6050,P,-1579.91309
6051,P,-1579.91309
6052,P,2649.61475
6053,P,2649.61475
6054,P,-1002.51001
6055,P,-1002.51001
6056,P,4214.49121
6057,P,4214.49121
6058,P,-1613.9353
6059,P,-1613.9353
6060,P,1927.81433
6061,P,1927.81433
6062,P,1472.7301
6063,P,1472.7301
6064,P,1522.85828
6065,P,1522.85828
6066,P,1053.18896
6067,P,1053.18896
6068,P,1137.96106
6069,P,1137.96106
6070,P,1074.42603
6071,P,1074.42603
6072,P,773.457031
6073,P,773.457031
6074,P,1163.55359
6075,P,1163.55359
6076,P,779.342896
6077,P,779.342896
6078,P,108.540565
6079,P,108.540565
6080,P,-38.6494026
6081,P,-38.6494026
6082,P,-39.2887383
6083,P,-39.2887383
6084,P,43.8492432
6085,P,43.8492432
6086,P,233.788605
6087,P,233.788605
6088,P,325.302551
6089,P,325.302551
6090,P,-66.3617477
6091,P,-66.3617477
6092,P,-60.5965157
6093,P,-60.5965157
6094,P,-109.410706
6095,P,-109.410706
6096,P,-168.299866
6097,P,-168.299866
6098,P,-127.003212
6099,P,-127.003212
6100,P,-173.583694
6101,P,-173.583694
6102,P,-174.636993
6103,P,-174.636993
6104,P,-120.039223
6105,P,-120.039223
6106,P,-150.918488
6107,P,-150.918488
6108,P,-109.759735
6109,P,-109.759735
6110,P,-153.369507
6111,P,-153.369507
6112,P,-104.948357
6113,P,-104.948357
6114,P,309.264313
6115,P,309.264313
6116,P,36.4444275
6117,P,36.4444275
6118,P,-82.5894852
6119,P,-82.5894852
6120,P,-83.1244659
6121,P,-83.1244659
6122,P,3.60482144
6123,P,3.60482144
6124,P,65.298851
6125,P,65.298851
6126,P,-71.6168823
6127,P,-71.6168823
6128,P,15.6849375
6129,P,15.6849375
6130,P,-70.8496094
6131,P,-70.8496094
6132,P,1973.07605
6133,P,1973.07605
6134,P,1443.45935
6135,P,1443.45935
6136,P,4255.59326
6137,P,4255.59326
6138,P,2750.38306
6139,P,2750.38306
6140,P,-1003.82373
6141,P,-1003.82373
6142,P,2754.01733
6143,P,2754.01733
6144,P,-997.589966
6145,P,-997.589966
6146,P,4294.75635
6147,P,4294.75635
6148,P,1463.09229
6149,P,1463.09229
6150,P,1031.30505
6151,P,1031.30505
6152,P,774.787903
6153,P,774.787903
6154,P,1104.77966
6155,P,1104.77966
6156,P,797.104187
6157,P,797.104187
6158,P,1116.31299
6159,P,1116.31299
6160,P,1003.00879
6161,P,1003.00879
6162,P,773.573547
6163,P,773.573547
6164,P,4290.49316
6165,P,4290.49316
6166,P,2767.38721
6167,P,2767.38721
6168,P,-993.84314
6169,P,-993.84314
6170,P,-1597.8302
6171,P,-1597.8302
6172,P,2771.28638
6173,P,2771.28638
6174,P,-998.735718
6175,P,-998.735718
6176,P,4271.62256
6177,P,4271.62256
6178,P,-1580.66309
6179,P,-1580.66309
6180,P,1984.77893
6181,P,1984.77893
6182,P,1436.28967
6183,P,1436.28967
6184,P,1899.68909
6185,P,1899.68909
6186,P,1419.11951
6187,P,1419.11951
6188,P,995.475037
6189,P,995.475037
6190,P,1099.4126
6191,P,1099.4126
6192,P,1005.46356
6193,P,1005.46356
6194,P,776.420044
6195,P,776.420044
6196,P,1130.78149
6197,P,1130.78149
6198,P,731.201721
6199,P,731.201721
6200,P,-91.1957703
6201,P,-91.1957703
6202,P,-87.7878494
6203,P,-87.7878494
6204,P,149.211136
6205,P,149.211136
6206,P,235.71254
6207,P,235.71254
6208,P,-12.4117928
6209,P,-12.4117928
6210,P,-99.5684891
6211,P,-99.5684891
6212,P,-94.9497528
6213,P,-94.9497528
6214,P,-28.3332233
6215,P,-28.3332233
6216,P,-192.106979
6217,P,-192.106979
6218,P,-141.377304
6219,P,-141.377304
6220,P,-148.867996
6221,P,-148.867996
6222,P,-195.158493
6223,P,-195.158493
6224,P,-142.387741
6225,P,-142.387741
6226,P,-190.585983
6227,P,-190.585983
6228,P,-132.647705
6229,P,-132.647705
6230,P,-181.310135
6231,P,-181.310135
6232,P,-132.223297
6233,P,-132.223297
6234,P,-148.547043
6235,P,-148.547043
6236,P,143.23526
6237,P,143.23526
6238,P,228.860229
6239,P,228.860229
6240,P,-93.4971771
6241,P,-93.4971771
6242,P,-98.1841888
6243,P,-98.1841888
6244,P,-30.4439602
6245,P,-30.4439602
6246,P,-92.9211121
6247,P,-92.9211121
6248,P,-102.360649
6249,P,-102.360649
6250,P,1474.57458
6251,P,1474.57458
6252,P,4340.58643
6253,P,4340.58643
6254,P,2801.05811
6255,P,2801.05811
6256,P,-1028.39966
6257,P,-1028.39966
6258,P,2791.37988
6259,P,2791.37988
6260,P,-1040.8656
6261,P,-1040.8656
6262,P,4269.43457
6263,P,4269.43457
6264,P,1446.78479
6265,P,1446.78479
6266,P,1999.4679
6267,P,1999.4679
6268,P,1010.08398
6269,P,1010.08398
6270,P,1113.74683
6271,P,1113.74683
6272,P,755.869446
6273,P,755.869446
6274,P,1102.17261
6275,P,1102.17261
6276,P,1003.90417
6277,P,1003.90417
6278,P,4099.93018
6279,P,4099.93018
6280,P,2831.75732
6281,P,2831.75732
6282,P,-1004.74176
6283,P,-1004.74176
6284,P,-1536.25232
6285,P,-1536.25232
6286,P,2812.93262
6287,P,2812.93262
6288,P,-994.501648
6289,P,-994.501648
6290,P,4096.93652
6291,P,4096.93652
6292,P,-1582.98987
6293,P,-1582.98987
6294,P,2012.16833
6295,P,2012.16833
6296,P,1493.17419
6297,P,1493.17419
6298,P,2052.11108
6299,P,2052.11108
6300,P,1483.30542
6301,P,1483.30542
6302,P,1059.86414
6303,P,1059.86414
6304,P,751.082397
6305,P,751.082397
6306,P,1152.24622
6307,P,1152.24622
6308,P,1024.65393
6309,P,1024.65393
6310,P,1127.52771
6311,P,1127.52771
6312,P,769.636902
6313,P,769.636902
6314,P,-31.0278931
6315,P,-31.0278931
6316,P,-100.709
6317,P,-100.709
6318,P,-102.331451
6319,P,-102.331451
6320,P,27.8334808
6321,P,27.8334808
6322,P,140.352997
6323,P,140.352997
6324,P,233.102859
6325,P,233.102859
6326,P,2.56639433
6327,P,2.56639433
6328,P,-101.36338
6329,P,-101.36338
6330,P,-109.14492
6331,P,-109.14492
6332,P,-149.047424
6333,P,-149.047424
6334,P,-172.022751
6335,P,-172.022751
6336,P,-127.521126
6337,P,-127.521126
6338,P,-171.317001
6339,P,-171.317001
6340,P,-122.598991
6341,P,-122.598991
6342,P,-184.37886
6343,P,-184.37886
6344,P,-203.183487
6345,P,-203.183487
6346,P,-133.12886
6347,P,-133.12886
6348,P,-178.965439
6349,P,-178.965439
6350,P,-144.024353
6351,P,-144.024353
6352,P,140.946198
6353,P,140.946198
6354,P,239.796234
6355,P,239.796234
6356,P,57.9592056
6357,P,57.9592056
6358,P,-87.2724533
6359,P,-87.2724533
6360,P,-93.4291611
6361,P,-93.4291611
6362,P,12.9102383
6363,P,12.9102383
6364,P,-101.028534
6365,P,-101.028534
6366,P,50.4095955
6367,P,50.4095955
6368,P,-100.644249
6369,P,-100.644249
6370,P,1986.5105
6371,P,1986.5105
6372,P,1514.12378
6373,P,1514.12378
6374,P,4294.94092
6375,P,4294.94092
6376,P,2692.75439
6377,P,2692.75439
6378,P,-1018.82532
6379,P,-1018.82532
6380,P,2683.83472
6381,P,2683.83472
6382,P,-1029.54944
6383,P,-1029.54944
6384,P,4190.19043
6385,P,4190.19043
6386,P,1513.8645
6387,P,1513.8645
6388,P,2035.19653
6389,P,2035.19653
6390,P,1055.2019
6391,P,1055.2019
6392,P,1158.29932
6393,P,1158.29932
6394,P,1162.18933
6395,P,1162.18933
6396,P,1059.43616
6397,P,1059.43616
6398,P,825.412231
6399,P,825.412231
6400,P,4038.07202
6401,P,4038.07202
6402,P,2731.61304
6403,P,2731.61304
6404,P,-1040.73804
6405,P,-1040.73804
6406,P,-1508.76453
6407,P,-1508.76453
6408,P,2706.43774
6409,P,2706.43774
6410,P,-1058.5448
6411,P,-1058.5448
6412,P,4051.10181
6413,P,4051.10181
6414,P,-1520.41113
6415,P,-1520.41113
6416,P,1510.52161
6417,P,1510.52161
6418,P,1535.53394
6419,P,1535.53394
6420,P,1071.92651
6421,P,1071.92651
6422,P,799.542786
6423,P,799.542786
6424,P,1182.16736
6425,P,1182.16736
6426,P,829.545776
6427,P,829.545776
6428,P,1068.99536
6429,P,1068.99536
6430,P,1169.69983
6431,P,1169.69983
6432,P,-3.86038685
6433,P,-3.86038685
6434,P,-89.9930344
6435,P,-89.9930344
6436,P,-85.2418213
6437,P,-85.2418213
6438,P,30.4470177
6439,P,30.4470177
6440,P,308.241577
6441,P,308.241577
6442,P,-70.6553421
6443,P,-70.6553421
6444,P,-74.42202
6445,P,-74.42202
6446,P,15.4584579
6447,P,15.4584579
6448,P,-120.494186
6449,P,-120.494186
6450,P,-71.1886063
6451,P,-71.1886063
6452,P,-110.356316
6453,P,-110.356316
6454,P,-79.0078278
6455,P,-79.0078278
6456,P,-149.052322
6457,P,-149.052322
6458,P,-121.330116
6459,P,-121.330116
6460,P,-105.140579
6461,P,-105.140579
6462,P,-153.712143
6463,P,-153.712143
6464,P,-103.832306
6465,P,-103.832306
6466,P,235.191452
6467,P,235.191452
6468,P,334.615204
6469,P,334.615204
6470,P,65.4233398
6471,P,65.4233398
6472,P,-38.5012398
6473,P,-38.5012398
6474,P,-49.4762001
6475,P,-49.4762001
6476,P,52.2459946
6477,P,52.2459946
6478,P,-68.4884415
6479,P,-68.4884415
6480,P,-62.4820213
6481,P,-62.4820213
6482,P,2055.47168
6483,P,2055.47168
6484,P,1440.60828
6485,P,1440.60828
6486,P,3644.63428
6487,P,3644.63428
6488,P,2016.31335
6489,P,2016.31335
6490,P,-1165.53223
6491,P,-1165.53223
6492,P,2084.16211
6493,P,2084.16211
6494,P,-1154.67114
6495,P,-1154.67114
6496,P,3524.41919
6497,P,3524.41919
6498,P,1269.35999
6499,P,1269.35999
6500,P,1692.93298
6501,P,1692.93298
6502,P,1020.33466
6503,P,1020.33466
6504,P,1121.64661
6505,P,1121.64661
6506,P,1035.50769
6507,P,1035.50769
6508,P,954.594727
6509,P,954.594727
6510,P,799.882385
6511,P,799.882385
6512,P,787.243286
6513,P,787.243286
6514,P,3328.93164
6515,P,3328.93164
6516,P,1942.58374
6517,P,1942.58374
6518,P,-1185.91125
6519,P,-1185.91125
6520,P,-1320.16333
6521,P,-1320.16333
6522,P,1848.11047
6523,P,1848.11047
6524,P,-1209.8667
6525,P,-1209.8667
6526,P,3414.94263
6527,P,3414.94263
6528,P,-1303.70178
6529,P,-1303.70178
6530,P,1581.03882
6531,P,1581.03882
6532,P,636.675903
6533,P,636.675903
6534,P,1180.04663
6535,P,1180.04663
6536,P,945.961243
6537,P,945.961243
6538,P,1068.62122
6539,P,1068.62122
6540,P,938.478638
6541,P,938.478638
6542,P,801.615662
6543,P,801.615662
6544,P,993.482666
6545,P,993.482666
6546,P,792.661316
6547,P,792.661316
6548,P,56.0404663
6549,P,56.0404663
6550,P,-35.392437
6551,P,-35.392437
6552,P,-32.1503067
6553,P,-32.1503067
6554,P,110.74942
6555,P,110.74942
6556,P,463.041779
6557,P,463.041779
6558,P,401.666748
6559,P,401.666748
6560,P,13.3515196
6561,P,13.3515196
6562,P,9.69861889
6563,P,9.69861889
6564,P,88.8878098
6565,P,88.8878098
6566,P,59.088459
6567,P,59.088459
6568,P,59.5425949
6569,P,59.5425949
6570,P,173.730408
6571,P,173.730408
6572,P,78.9890976
6573,P,78.9890976
6574,P,64.003334
6575,P,64.003334
6576,P,-29.7528896
6577,P,-29.7528896
6578,P,-7.14709949
6579,P,-7.14709949
6580,P,-41.6545868
6581,P,-41.6545868
6582,P,6.53158855
6583,P,6.53158855
6584,P,425.75882
6585,P,425.75882
6586,P,-384.376892
6587,P,-384.376892
6588,P,231.763397
6589,P,231.763397
6590,P,-239.951797
6591,P,-239.951797
6592,P,295.898621
6593,P,295.898621
6594,P,66.8414841
6595,P,66.8414841
6596,P,26.0727386
6597,P,26.0727386
6598,P,118.116722
6599,P,118.116722
6600,P,57.574543
6601,P,57.574543
6602,P,-162.408783
6603,P,-162.408783
6604,P,-662.768677
6605,P,-662.768677
6606,P,-186.220139
6607,P,-186.220139
6608,P,258.684692
6609,P,258.684692
6610,P,302.14035
6611,P,302.14035
6612,P,360.661469
6613,P,360.661469
6614,P,146.776306
6615,P,146.776306
6616,P,384.328888
6617,P,384.328888
6618,P,64.7984924
6619,P,64.7984924
6620,P,-134.105698
6621,P,-134.105698
6622,P,-134.105698
6623,P,149.498917
6624,P,149.498917
6625,P,149.498917
6626,P,15.3318157
6627,P,15.3318157
6628,P,-33.2752266
6629,P,-33.2752266
6630,P,-9.8725853
6631,P,-9.8725853
6632,P,-9.8725853
6633,P,373.166809
6634,P,373.166809
6635,P,373.166809
6636,P,94.826149
6637,P,94.826149
6638,P,94.826149
6639,P,-67.1007233
6640,P,-67.1007233
6641,P,0.855926454
6642,P,0.855926454
6643,P,0.855926454
6644,P,-395.213318
6645,P,-395.213318
6646,P,-1058.18372
6647,P,-1058.18372
6648,P,-407.865692
6649,P,-407.865692
6650,P,104.243927
6651,P,104.243927
6652,P,119.148087
6653,P,119.148087
6654,P,672.149353
6655,P,672.149353
6656,P,19.1627846
6657,P,19.1627846
6658,P,418.027618
6659,P,418.027618
6660,P,11.8304596
6661,P,11.8304596
6662,P,-1165.18616
6663,P,-1165.18616
6664,P,-1165.18616
6665,P,7.50051403
6666,P,7.50051403
6667,P,7.50051403
6668,P,-23.9148388
6669,P,-23.9148388
6670,P,-23.9148388
6671,P,-62.4074631
6672,P,-62.4074631
6673,P,11.6525211
6674,P,11.6525211
6675,P,11.6525211
6676,P,-21.3820477
6677,P,-21.3820477
6678,P,33.900547
6679,P,33.900547
6680,P,33.900547
6681,P,19.4028473
6682,P,19.4028473
6683,P,31.6879501
6684,P,31.6879501
6685,P,-473.798553
6686,P,-473.798553
6687,P,-1279.396
6688,P,-1279.396
6689,P,-488.227631
6690,P,-488.227631
6691,P,75.8850479
6692,P,75.8850479
6693,P,77.1652145
6694,P,77.1652145
6695,P,134.828125
6696,P,134.828125
6697,P,-98.3475342
6698,P,-98.3475342
6699,P,130.597992
6700,P,130.597992
6701,P,-97.348175
6702,P,-97.348175
6703,P,176.710373
6704,P,176.710373
6705,P,176.710373
6706,P,-123.186615
6707,P,-123.186615
6708,P,-123.186615
6709,P,-182.39917
6710,P,-182.39917
6711,P,-177.732285
6712,P,-177.732285
6713,P,186.474976
6714,P,186.474976
6715,P,186.474976
6716,P,-106.042786
6717,P,-106.042786
6718,P,-106.042786
6719,P,-122.998131
6720,P,-122.998131
6721,P,-122.998131
6722,P,-174.645309
6723,P,-174.645309
6724,P,-115.401703
6725,P,-115.401703
6726,P,-115.401703
6727,P,-498.523651
6728,P,-498.523651
6729,P,-1144.16406
6730,P,-1144.16406
6731,P,-481.653076
6732,P,-481.653076
6733,P,73.6139297
6734,P,73.6139297
6735,P,70.0421143
6736,P,70.0421143
6737,P,124.882408
6738,P,124.882408
6739,P,-87.9379272
6740,P,-87.9379272
6741,P,128.574814
6742,P,128.574814
6743,P,-95.6932144
6744,P,-95.6932144
6745,P,157.223312
6746,P,157.223312
6747,P,157.223312
6748,P,-107.90448
6749,P,-107.90448
6750,P,-107.90448
6751,P,-98.1506729
6752,P,-98.1506729
6753,P,-98.1506729
6754,P,-118.680305
6755,P,-118.680305
6756,P,-111.421791
6757,P,-111.421791
6758,P,-111.421791
6759,P,-135.981995
6760,P,-135.981995
6761,P,-109.155121
6762,P,-109.155121
6763,P,-109.155121
6764,P,-149.147369
6765,P,-149.147369
6766,P,-147.960739
6767,P,-147.960739
6768,P,-467.026611
6769,P,-467.026611
6770,P,-1235.85303
6771,P,-1235.85303
6772,P,-445.1716
6773,P,-445.1716
6774,P,95.2086487
6775,P,95.2086487
6776,P,87.4100418
6777,P,87.4100418
6778,P,142.299576
6779,P,142.299576
6780,P,-19.9382915
6781,P,-19.9382915
6782,P,217.966064
6783,P,217.966064
6784,P,4.12553787
6785,P,4.12553787
6786,P,176.423645
6787,P,176.423645
6788,P,176.423645
6789,P,-31.6285686
6790,P,-31.6285686
6791,P,-31.6285686
6792,P,11.6523638
6793,P,11.6523638
6794,P,36.2810669
6795,P,36.2810669
6796,P,189.466263
6797,P,189.466263
6798,P,189.466263
6799,P,-93.8261719
6800,P,-93.8261719
6801,P,-93.8261719
6802,P,-7.9745326
6803,P,-7.9745326
6804,P,-7.9745326
6805,P,50.8479424
6806,P,50.8479424
6807,P,23.82897
6808,P,23.82897
6809,P,23.82897
6810,P,-380.332611
6811,P,-380.332611
6812,P,-998.557373
6813,P,-998.557373
6814,P,-379.428925
6815,P,-379.428925
6816,P,175.797592
6817,P,175.797592
6818,P,115.503723
6819,P,115.503723
6820,P,456.524658
6821,P,456.524658
6822,P,18.5355568
6823,P,18.5355568
6824,P,387.448273
6825,P,387.448273
6826,P,47.9937706
6827,P,47.9937706
6828,P,-770.777893
6829,P,-770.777893
6830,P,-770.777893
6831,P,-44.122097
6832,P,-44.122097
6833,P,-44.122097
6834,P,-33.8426514
6835,P,-33.8426514
6836,P,-33.8426514
6837,P,-61.6627197
6838,P,-61.6627197
6839,P,-41.7574425
6840,P,-41.7574425
6841,P,-41.7574425
6842,P,-57.9324341
6843,P,-57.9324341
6844,P,-16.985899
6845,P,-16.985899
6846,P,-16.985899
6847,P,-104.451294
6848,P,-104.451294
6849,P,-94.3018188
6850,P,-94.3018188
6851,P,46.6129227
6852,P,46.6129227
6853,P,2661.2959
6854,P,2661.2959
6855,P,1964.5929
6856,P,1964.5929
6857,P,2424.23291
6858,P,2424.23291
6859,P,2166.06592
6860,P,2166.06592
6861,P,2883.78784
6862,P,2883.78784
6863,P,1538.16968
6864,P,1538.16968
6865,P,-1274.82141
6866,P,-1274.82141
6867,P,1372.20483
6868,P,1372.20483
6869,P,-1294.15442
6870,P,-1294.15442
6871,P,3014.83374
6872,P,3014.83374
6873,P,3896.84741
6874,P,3896.84741
6875,P,2289.08569
6876,P,2289.08569
6877,P,-1102.23755
6878,P,-1102.23755
6879,P,-1500.10547
6880,P,-1500.10547
6881,P,-1520.14636
6882,P,-1520.14636
6883,P,2325.55322
6884,P,2325.55322
6885,P,-1089.63928
6886,P,-1089.63928
6887,P,3850.62476
6888,P,3850.62476
6889,P,4055.30737
6890,P,4055.30737
6891,P,-1074.36169
6892,P,-1074.36169
6893,P,3795.95215
6894,P,3795.95215
6895,P,-1180.85437
6896,P,-1180.85437
6897,P,4093.05859
6898,P,4093.05859
6899,P,3703.95972
6900,P,3703.95972
6901,P,-1115.50659
6902,P,-1115.50659
6903,P,416.41684
6904,P,416.41684
6905,P,604.342468
6906,P,604.342468
6907,P,-217.39534
6908,P,-217.39534
6909,P,283.451508
6910,P,283.451508
6911,P,538.665771
6912,P,538.665771
6913,P,374.851501
6914,P,374.851501
6915,P,-355.024628
6916,P,-355.024628
6917,P,291.848083
6918,P,291.848083
6919,P,544.058655
6920,P,544.058655
6921,P,-374.358795
6922,P,-374.358795
6923,P,-370.852844
6924,P,-370.852844
6925,P,81.4971695
6926,P,81.4971695
6927,P,356.746643
6928,P,356.746643
6929,P,244.021652
6930,P,244.021652
6931,P,480.575989
6932,P,480.575989
6933,P,129.166824
6934,P,129.166824
6935,P,88.7396545
6936,P,88.7396545
6937,P,145.015076
6938,P,145.015076
6939,P,87.2150345
6940,P,87.2150345
6941,P,468.977234
6942,P,468.977234
6943,P,79.6032867
6944,P,79.6032867
6945,P,4148.29688
6946,P,4148.29688
6947,P,3910.37451
6948,P,3910.37451
6949,P,4151.62305
6950,P,4151.62305
6951,P,3843.34595
6952,P,3843.34595
6953,P,4050.1001
6954,P,4050.1001
6955,P,2582.27466
6956,P,2582.27466
6957,P,-1048.76416
6958,P,-1048.76416
6959,P,2531.93579
6960,P,2531.93579
6961,P,-1052.39197
6962,P,-1052.39197
6963,P,4023.6189
6964,P,4023.6189
6965,P,4048.00098
6966,P,4048.00098
6967,P,2708.19824
6968,P,2708.19824
6969,P,-991.518982
6970,P,-991.518982
6971,P,-1614.02136
6972,P,-1614.02136
6973,P,-1599.15161
6974,P,-1599.15161
6975,P,2752.27124
6976,P,2752.27124
6977,P,-999.846008
6978,P,-999.846008
6979,P,4147.46826
6980,P,4147.46826
6981,P,4299.17725
6982,P,4299.17725
6983,P,-1201.89294
6984,P,-1201.89294
6985,P,3941.05542
6986,P,3941.05542
6987,P,4265.24609
6988,P,4265.24609
6989,P,3952.21558
6990,P,3952.21558
6991,P,-1259.79395
6992,P,-1259.79395
6993,P,-1187.21863
6994,P,-1187.21863
6995,P,71.9033508
6996,P,71.9033508
6997,P,479.726532
6998,P,479.726532
6999,P,169.068161
7000,P,169.068161
7001,P,89.0131683
7002,P,89.0131683
7003,P,244.126297
7004,P,244.126297
7005,P,338.193878
7006,P,338.193878
7007,P,131.483231
7008,P,131.483231
7009,P,93.9083557
7010,P,93.9083557
7011,P,71.1892395
7012,P,71.1892395
7013,P,464.333832
7014,P,464.333832
7015,P,-1180.61414
7016,P,-1180.61414
7017,P,-476.687134
7018,P,-476.687134
7019,P,-475.47644
7020,P,-475.47644
7021,P,57.4001427
7022,P,57.4001427
7023,P,268.36557
7024,P,268.36557
7025,P,409.979431
7026,P,409.979431
7027,P,112.257751
7028,P,112.257751
7029,P,65.8681564
7030,P,65.8681564
7031,P,144.02623
7032,P,144.02623
7033,P,67.8557892
7034,P,67.8557892
7035,P,407.582397
7036,P,407.582397
7037,P,57.4380608
7038,P,57.4380608
7039,P,4228.19922
7040,P,4228.19922
7041,P,3957.05054
7042,P,3957.05054
7043,P,4292.25732
7044,P,4292.25732
7045,P,3926.33398
7046,P,3926.33398
7047,P,4118.56787
7048,P,4118.56787
7049,P,2764.05859
7050,P,2764.05859
7051,P,-990.613953
7052,P,-990.613953
7053,P,2790.35571
7054,P,2790.35571
7055,P,-990.580811
7056,P,-990.580811
7057,P,4185.98535
7058,P,4185.98535
7059,P,4237.4624
7060,P,4237.4624
7061,P,2790.90063
7062,P,2790.90063
7063,P,-988.260559
7064,P,-988.260559
7065,P,-1596.0531
7066,P,-1596.0531
7067,P,-1525.3783
7068,P,-1525.3783
7069,P,2806.44873
7070,P,2806.44873
7071,P,-996.891785
7072,P,-996.891785
7073,P,4241.75635
7074,P,4241.75635
7075,P,4375.5708
7076,P,4375.5708
7077,P,-1246.13086
7078,P,-1246.13086
7079,P,3875.40845
7080,P,3875.40845
7081,P,-1276.3894
7082,P,-1276.3894
7083,P,4342.93555
7084,P,4342.93555
7085,P,3803.37305
7086,P,3803.37305
7087,P,-1045.17859
7088,P,-1045.17859
7089,P,52.0406837
7090,P,52.0406837
7091,P,384.063812
7092,P,384.063812
7093,P,129.7798
7094,P,129.7798
7095,P,63.9832916
7096,P,63.9832916
7097,P,158.127945
7098,P,158.127945
7099,P,255.157776
7100,P,255.157776
7101,P,98.0123825
7102,P,98.0123825
7103,P,64.6903076
7104,P,64.6903076
7105,P,51.6499557
7106,P,51.6499557
7107,P,390.124542
7108,P,390.124542
7109,P,-485.252563
7110,P,-485.252563
7111,P,-487.084015
7112,P,-487.084015
7113,P,44.4801559
7114,P,44.4801559
7115,P,227.350433
7116,P,227.350433
7117,P,139.72789
7118,P,139.72789
7119,P,327.296661
7120,P,327.296661
7121,P,123.323219
7122,P,123.323219
7123,P,52.9846191
7124,P,52.9846191
7125,P,130.718781
7126,P,130.718781
7127,P,55.8417473
7128,P,55.8417473
7129,P,347.379364
7130,P,347.379364
7131,P,41.7823906
7132,P,41.7823906
7133,P,4336.78467
7134,P,4336.78467
7135,P,3901.86938
7136,P,3901.86938
7137,P,4348.27441
7138,P,4348.27441
7139,P,3921.53003
7140,P,3921.53003
7141,P,4295.2959
7142,P,4295.2959
7143,P,2777.64941
7144,P,2777.64941
7145,P,-980.554016
7146,P,-980.554016
7147,P,2806.39429
7148,P,2806.39429
7149,P,-992.369385
7150,P,-992.369385
7151,P,4300.09277
7152,P,4300.09277
7153,P,4240.65625
7154,P,4240.65625
7155,P,2764.39771
7156,P,2764.39771
7157,P,-999.368713
7158,P,-999.368713
7159,P,-1519.73071
7160,P,-1519.73071
7161,P,-1492.43591
7162,P,-1492.43591
7163,P,2749.70239
7164,P,2749.70239
7165,P,-993.679749
7166,P,-993.679749
7167,P,4204.45361
7168,P,4204.45361
7169,P,4422.38525
7170,P,4422.38525
7171,P,-1246.59827
7172,P,-1246.59827
7173,P,4011.75488
7174,P,4011.75488
7175,P,-1174.01038
7176,P,-1174.01038
7177,P,4375.69238
7178,P,4375.69238
7179,P,4050.12451
7180,P,4050.12451
7181,P,-1030.42175
7182,P,-1030.42175
7183,P,38.7661285
7184,P,38.7661285
7185,P,348.901398
7186,P,348.901398
7187,P,111.544121
7188,P,111.544121
7189,P,54.8481827
7190,P,54.8481827
7191,P,224.233521
7192,P,224.233521
7193,P,91.8095016
7194,P,91.8095016
7195,P,52.7460251
7196,P,52.7460251
7197,P,41.6111145
7198,P,41.6111145
7199,P,346.141205
7200,P,346.141205
7201,P,-447.441406
7202,P,-447.441406
7203,P,-465.766785
7204,P,-465.766785
7205,P,52.5637321
7206,P,52.5637321
7207,P,249.562088
7208,P,249.562088
7209,P,145.945892
7210,P,145.945892
7211,P,390.684875
7212,P,390.684875
7213,P,149.292923
7214,P,149.292923
7215,P,60.3926506
7216,P,60.3926506
7217,P,115.886612
7218,P,115.886612
7219,P,61.5874939
7220,P,61.5874939
7221,P,370.461884
7222,P,370.461884
7223,P,52.1743469
7224,P,52.1743469
7225,P,4377.34766
7226,P,4377.34766
7227,P,4053.15479
7228,P,4053.15479
7229,P,4350.54883
7230,P,4350.54883
7231,P,4018.87646
7232,P,4018.87646
7233,P,4254.48975
7234,P,4254.48975
7235,P,2759.448
7236,P,2759.448
7237,P,-996.789307
7238,P,-996.789307
7239,P,2722.57031
7240,P,2722.57031
7241,P,-990.845642
7242,P,-990.845642
7243,P,4151.55957
7244,P,4151.55957
7245,P,4128.91455
7246,P,4128.91455
7247,P,2565.3562
7248,P,2565.3562
7249,P,-1057.95959
7250,P,-1057.95959
7251,P,-1526.45337
7252,P,-1526.45337
7253,P,-1525.86255
7254,P,-1525.86255
7255,P,2529.50562
7256,P,2529.50562
7257,P,-1060.02124
7258,P,-1060.02124
7259,P,4150.58008
7260,P,4150.58008
7261,P,4205.25586
7262,P,4205.25586
7263,P,-1132.83655
7264,P,-1132.83655
7265,P,3776.15259
7266,P,3776.15259
7267,P,-978.546448
7268,P,-978.546448
7269,P,4174.21533
7270,P,4174.21533
7271,P,3836.23096
7272,P,3836.23096
7273,P,-1155.74597
7274,P,-1155.74597
7275,P,55.5507164
7276,P,55.5507164
7277,P,396.811798
7278,P,396.811798
7279,P,109.615067
7280,P,109.615067
7281,P,64.8310089
7282,P,64.8310089
7283,P,276.014008
7284,P,276.014008
7285,P,144.434631
7286,P,144.434631
7287,P,65.3132553
7288,P,65.3132553
7289,P,54.6234207
7290,P,54.6234207
7291,P,402.734039
7292,P,402.734039
7293,P,-398.876495
7294,P,-398.876495
7295,P,-416.270508
7296,P,-416.270508
7297,P,72.9564896
7298,P,72.9564896
7299,P,344.640045
7300,P,344.640045
7301,P,241.413422
7302,P,241.413422
7303,P,477.312714
7304,P,477.312714
7305,P,185.404312
7306,P,185.404312
7307,P,91.1694717
7308,P,91.1694717
7309,P,133.189835
7310,P,133.189835
7311,P,90.556221
7312,P,90.556221
7313,P,450.075928
7314,P,450.075928
7315,P,77.0600281
7316,P,77.0600281
7317,P,4093.31299
7318,P,4093.31299
7319,P,3760.50049
7320,P,3760.50049
7321,P,4141.50293
7322,P,4141.50293
7323,P,3765.68945
7324,P,3765.68945
7325,P,3911.84985
7326,P,3911.84985
7327,P,2284.04492
7328,P,2284.04492
7329,P,-1125.37244
7330,P,-1125.37244
7331,P,2329.65503
7332,P,2329.65503
7333,P,-1116.99683
7334,P,-1116.99683
7335,P,3866.88379
7336,P,3866.88379
7337,P,2862.6416
7338,P,2862.6416
7339,P,1493.05371
7340,P,1493.05371
7341,P,-1263.08704
7342,P,-1263.08704
7343,P,-1177.03821
7344,P,-1177.03821
7345,P,-1160.93201
7346,P,-1160.93201
7347,P,1344.03613
7348,P,1344.03613
7349,P,-1269.71094
7350,P,-1269.71094
7351,P,3009.10303
7352,P,3009.10303
7353,P,2636.68921
7354,P,2636.68921
7355,P,-611.485291
7356,P,-611.485291
7357,P,1876.68762
7358,P,1876.68762
7359,P,2355.84058
7360,P,2355.84058
7361,P,2116.7334
7362,P,2116.7334
7363,P,-734.148254
7364,P,-734.148254
7365,P,-762.146606
7366,P,-762.146606
7367,P,85.5164948
7368,P,85.5164948
7369,P,477.246857
7370,P,477.246857
7371,P,128.422791
7372,P,128.422791
7373,P,84.6421585
7374,P,84.6421585
7375,P,234.892975
7376,P,234.892975
7377,P,350.394409
7378,P,350.394409
7379,P,162.404236
7380,P,162.404236
7381,P,85.3902206
7382,P,85.3902206
7383,P,76.5077515
7384,P,76.5077515
7385,P,465.097473
7386,P,465.097473
7387,P,-624.248901
7388,P,-624.248901
7389,P,-163.180191
7390,P,-163.180191
7391,P,-186.087036
7392,P,-186.087036
7393,P,411.299896
7394,P,411.299896
7395,P,527.763611
7396,P,527.763611
7397,P,589.386963
7398,P,589.386963
7399,P,-225.325348
7400,P,-225.325348
7401,P,277.808075
7402,P,277.808075
7403,P,-364.998444
7404,P,-364.998444
7405,P,285.122986
7406,P,285.122986
7407,P,372.323517
7408,P,372.323517
7409,P,539.50238
7410,P,539.50238
7411,P,37.9049034
7412,P,37.9049034
7413,P,194.827499
7414,P,194.827499
7415,P,-55.7560234
7416,P,-55.7560234
7417,P,168.62561
7418,P,168.62561
7419,P,27.5191002
7420,P,27.5191002
7421,P,50.0563889
7422,P,50.0563889
7423,P,48.4111137
7424,P,48.4111137
7425,P,13.10009
7426,P,13.10009
7427,P,41.1578751
7428,P,41.1578751
7429,P,-97.6066437
7430,P,-97.6066437
7431,P,-273.097809
7432,P,-273.097809
7433,P,-273.983032
7434,P,-273.983032
7435,P,-932.828674
7436,P,-932.828674
7437,P,15.3068066
7438,P,15.3068066
7439,P,-19.125843
7440,P,-19.125843
7441,P,28.1245022
7442,P,28.1245022
7443,P,-1.02917624
7444,P,-1.02917624
7445,P,13.4264727
7446,P,13.4264727
7447,P,56.4813957
7448,P,56.4813957
7449,P,-165.243576
7450,P,-165.243576
7451,P,103.597137
7452,P,103.597137
7453,P,-149.529327
7454,P,-149.529327
7455,P,175.269592
7456,P,175.269592
7457,P,112.996941
7458,P,112.996941
7459,P,456.033112
7460,P,456.033112
7461,P,21.7602062
7462,P,21.7602062
7463,P,386.922791
7464,P,386.922791
7465,P,53.2007713
7466,P,53.2007713
7467,P,-774.206482
7468,P,-774.206482
7469,P,-774.206482
7470,P,-48.7987633
7471,P,-48.7987633
7472,P,-48.7987633
7473,P,-71.7438126
7474,P,-71.7438126
7475,P,-33.6170349
7476,P,-33.6170349
7477,P,-33.6170349
7478,P,-57.2866058
7479,P,-57.2866058
7480,P,-63.7375336
7481,P,-63.7375336
7482,P,-43.5864563
7483,P,-43.5864563
7484,P,-43.5864563
7485,P,-15.693676
7486,P,-15.693676
7487,P,-15.693676
7488,P,-93.6361237
7489,P,-93.6361237
7490,P,-267.851807
7491,P,-267.851807
7492,P,-59.3153152
7493,P,-59.3153152
7494,P,-124.583717
7495,P,-124.583717
7496,P,-86.4386902
7497,P,-86.4386902
7498,P,-134.420029
7499,P,-134.420029
7500,P,-81.6688538
7501,P,-81.6688538
7502,P,-276.161835
7503,P,-276.161835
7504,P,-36.2491837
7505,P,-36.2491837
7506,P,-436.420288
7507,P,-436.420288
7508,P,-1168.42004
7509,P,-1168.42004
7510,P,-441.07547
7511,P,-441.07547
7512,P,-1227.25073
7513,P,-1227.25073
7514,P,-63.0273895
7515,P,-63.0273895
7516,P,-141.097626
7517,P,-141.097626
7518,P,-95.22995
7519,P,-95.22995
7520,P,-129.935303
7521,P,-129.935303
7522,P,-140.918335
7523,P,-140.918335
7524,P,-93.2490997
7525,P,-93.2490997
7526,P,-306.968323
7527,P,-306.968323
7528,P,-309.321136
7529,P,-309.321136
7530,P,96.8327103
7531,P,96.8327103
7532,P,90.0308609
7533,P,90.0308609
7534,P,143.569626
7535,P,143.569626
7536,P,-11.6342201
7537,P,-11.6342201
7538,P,220.392456
7539,P,220.392456
7540,P,7.33475447
7541,P,7.33475447
7542,P,-24.2356472
7543,P,-24.2356472
7544,P,-24.2356472
7545,P,16.4372559
7546,P,16.4372559
7547,P,186.782913
7548,P,186.782913
7549,P,186.782913
7550,P,-90.1046371
7551,P,-90.1046371
7552,P,-90.1046371
7553,P,-123.48056
7554,P,-123.48056
7555,P,-8.46294308
7556,P,-8.46294308
7557,P,-8.46294308
7558,P,51.3314781
7559,P,51.3314781
7560,P,29.2333832
7561,P,29.2333832
7562,P,29.2333832
7563,P,45.1565666
7564,P,45.1565666
7565,P,-350.305969
7566,P,-350.305969
7567,P,-165.237946
7568,P,-165.237946
7569,P,-178.972443
7570,P,-178.972443
7571,P,-132.579086
7572,P,-132.579086
7573,P,-101.907654
7574,P,-101.907654
7575,P,-179.683945
7576,P,-179.683945
7577,P,-137.382156
7578,P,-137.382156
7579,P,-349.131805
7580,P,-349.131805
7581,P,-497.339081
7582,P,-497.339081
7583,P,-484.228516
7584,P,-484.228516
7585,P,-1245.35022
7586,P,-1245.35022
7587,P,-129.9142
7588,P,-129.9142
7589,P,-177.075729
7590,P,-177.075729
7591,P,-138.020676
7592,P,-138.020676
7593,P,-180.528656
7594,P,-180.528656
7595,P,-130.512482
7596,P,-130.512482
7597,P,-119.830589
7598,P,-119.830589
7599,P,-363.416626
7600,P,-363.416626
7601,P,-179.000977
7602,P,-179.000977
7603,P,-362.645142
7604,P,-362.645142
7605,P,77.1922989
7606,P,77.1922989
7607,P,70.0197906
7608,P,70.0197906
7609,P,125.411636
7610,P,125.411636
7611,P,-86.5959167
7612,P,-86.5959167
7613,P,129.030212
7614,P,129.030212
7615,P,-95.0257721
7616,P,-95.0257721
7617,P,159.326309
7618,P,159.326309
7619,P,159.326309
7620,P,-104.633644
7621,P,-104.633644
7622,P,-104.633644
7623,P,-127.985931
7624,P,-127.985931
7625,P,-97.8559113
7626,P,-97.8559113
7627,P,-97.8559113
7628,P,-122.128571
7629,P,-122.128571
7630,P,-123.742035
7631,P,-123.742035
7632,P,-104.864777
7633,P,-104.864777
7634,P,-104.864777
7635,P,-111.142357
7636,P,-111.142357
7637,P,-111.142357
7638,P,-113.245155
7639,P,-113.245155
7640,P,-361.518066
7641,P,-361.518066
7642,P,-69.6261292
7643,P,-69.6261292
7644,P,-191.457764
7645,P,-191.457764
7646,P,-143.654129
7647,P,-143.654129
7648,P,-195.847656
7649,P,-195.847656
7650,P,-138.199097
7651,P,-138.199097
7652,P,-359.529358
7653,P,-359.529358
7654,P,-202.954056
7655,P,-202.954056
7656,P,-508.844238
7657,P,-508.844238
7658,P,-972.380432
7659,P,-972.380432
7660,P,-513.204041
7661,P,-513.204041
7662,P,-1167.9231
7663,P,-1167.9231
7664,P,-183.629044
7665,P,-183.629044
7666,P,-189.044113
7667,P,-189.044113
7668,P,-146.424576
7669,P,-146.424576
7670,P,-132.511658
7671,P,-132.511658
7672,P,-192.62529
7673,P,-192.62529
7674,P,-144.82048
7675,P,-144.82048
7676,P,-166.542969
7677,P,-166.542969
7678,P,-386.098969
7679,P,-386.098969
7680,P,-375.873352
7681,P,-375.873352
7682,P,74.2638168
7683,P,74.2638168
7684,P,78.7359161
7685,P,78.7359161
7686,P,135.240891
7687,P,135.240891
7688,P,-102.049194
7689,P,-102.049194
7690,P,130.329514
7691,P,130.329514
7692,P,-97.9504776
7693,P,-97.9504776
7694,P,-122.753326
7695,P,-122.753326
7696,P,-122.753326
7697,P,-175.644531
7698,P,-175.644531
7699,P,186.465683
7700,P,186.465683
7701,P,186.465683
7702,P,-110.965546
7703,P,-110.965546
7704,P,-110.965546
7705,P,-174.405869
7706,P,-174.405869
7707,P,-121.416138
7708,P,-121.416138
7709,P,-121.416138
7710,P,-169.670654
7711,P,-169.670654
7712,P,-110.73896
7713,P,-110.73896
7714,P,-110.73896
7715,P,-152.656876
7716,P,-152.656876
7717,P,-89.8130722
7718,P,-89.8130722
7719,P,-351.888824
7720,P,-351.888824
7721,P,-160.709396
7722,P,-160.709396
7723,P,-171.398178
7724,P,-171.398178
7725,P,-115.91658
7726,P,-115.91658
7727,P,-99.2337952
7728,P,-99.2337952
7729,P,-165.82811
7730,P,-165.82811
7731,P,-120.679688
7732,P,-120.679688
7733,P,-330.027863
7734,P,-330.027863
7735,P,-444.70462
7736,P,-444.70462
7737,P,-463.724701
7738,P,-463.724701
7739,P,-1062.27588
7740,P,-1062.27588
7741,P,-149.642975
7742,P,-149.642975
7743,P,-171.293884
7744,P,-171.293884
7745,P,-115.603195
7746,P,-115.603195
7747,P,-167.374435
7748,P,-167.374435
7749,P,-124.771881
7750,P,-124.771881
7751,P,-162.622406
7752,P,-162.622406
7753,P,-327.294861
7754,P,-327.294861
7755,P,-172.277298
7756,P,-172.277298
7757,P,-334.194427
7758,P,-334.194427
7759,P,104.1381
7760,P,104.1381
7761,P,116.335968
7762,P,116.335968
7763,P,671.149536
7764,P,671.149536
7765,P,15.6987925
7766,P,15.6987925
7767,P,417.368713
7768,P,417.368713
7769,P,10.9998207
7770,P,10.9998207
7771,P,-1168.5603
7772,P,-1168.5603
7773,P,-1168.5603
7774,P,1.57934332
7775,P,1.57934332
7776,P,1.57934332
7777,P,-45.7664032
7778,P,-45.7664032
7779,P,-31.0914059
7780,P,-31.0914059
7781,P,-31.0914059
7782,P,-38.4960251
7783,P,-38.4960251
7784,P,-45.6274185
7785,P,-45.6274185
7786,P,7.56120777
7787,P,7.56120777
7788,P,7.56120777
7789,P,26.738451
7790,P,26.738451
7791,P,26.738451
7792,P,-19.1971245
7793,P,-19.1971245
7794,P,-253.041672
7795,P,-253.041672
7796,P,-64.9002151
7797,P,-64.9002151
7798,P,-103.281418
7799,P,-103.281418
7800,P,-53.4603539
7801,P,-53.4603539
7802,P,-93.7441788
7803,P,-93.7441788
7804,P,-57.171463
7805,P,-57.171463
7806,P,-248.425278
7807,P,-248.425278
7808,P,27.5153446
7809,P,27.5153446
7810,P,-313.129456
7811,P,-313.129456
7812,P,-884.120911
7813,P,-884.120911
7814,P,-345.847137
7815,P,-345.847137
7816,P,-1100.42102
7817,P,-1100.42102
7818,P,-66.8882217
7819,P,-66.8882217
7820,P,-79.0685272
7821,P,-79.0685272
7822,P,-38.8356743
7823,P,-38.8356743
7824,P,-35.3386116
7825,P,-35.3386116
7826,P,-83.4197693
7827,P,-83.4197693
7828,P,-41.0871849
7829,P,-41.0871849
7830,P,-200.504242
7831,P,-200.504242
7832,P,-222.75293
7833,P,-222.75293
7834,P,258.492828
7835,P,258.492828
7836,P,305.7724
7837,P,305.7724
7838,P,360.859222
7839,P,360.859222
7840,P,146.36232
7841,P,146.36232
7842,P,386.031921
7843,P,386.031921
7844,P,57.7279129
7845,P,57.7279129
7846,P,141.616302
7847,P,141.616302
7848,P,141.616302
7849,P,10.068326
7850,P,10.068326
7851,P,-15.1492729
7852,P,-15.1492729
7853,P,-15.1492729
7854,P,379.412445
7855,P,379.412445
7856,P,379.412445
7857,P,201.674866
7858,P,201.674866
7859,P,93.0126801
7860,P,93.0126801
7861,P,93.0126801
7862,P,-39.8872147
7863,P,-39.8872147
7864,P,-2.09880829
7865,P,-2.09880829
7866,P,-2.09880829
7867,P,-103.035515
7868,P,-103.035515
7869,P,1478.13025
7870,P,1478.13025
7871,P,1491.98706
7872,P,1491.98706
7873,P,1566.23083
7874,P,1566.23083
7875,P,1441.48645
7876,P,1441.48645
7877,P,783.339478
7878,P,783.339478
7879,P,1438.60999
7880,P,1438.60999
7881,P,3236.77954
7882,P,3236.77954
7883,P,1677.77625
7884,P,1677.77625
7885,P,-1233.39819
7886,P,-1233.39819
7887,P,3128.10669
7888,P,3128.10669
7889,P,1760.64807
7890,P,1760.64807
7891,P,-1227.13696
7892,P,-1227.13696
7893,P,3440.29541
7894,P,3440.29541
7895,P,3149.92505
7896,P,3149.92505
7897,P,3098.7146
7898,P,3098.7146
7899,P,3525.84033
7900,P,3525.84033
7901,P,1117.27429
7902,P,1117.27429
7903,P,1798.76526
7904,P,1798.76526
7905,P,2262.32837
7906,P,2262.32837
7907,P,2215.41553
7908,P,2215.41553
7909,P,1836.48901
7910,P,1836.48901
7911,P,1063.06128
7912,P,1063.06128
7913,P,900.091003
7914,P,900.091003
7915,P,957.352478
7916,P,957.352478
7917,P,893.6026
7918,P,893.6026
7919,P,773.030579
7920,P,773.030579
7921,P,760.369751
7922,P,760.369751
7923,P,3712.84351
7924,P,3712.84351
7925,P,2213.32959
7926,P,2213.32959
7927,P,-1123.48206
7928,P,-1123.48206
7929,P,-1441.4668
7930,P,-1441.4668
7931,P,3795.45581
7932,P,3795.45581
7933,P,2171.55664
7934,P,2171.55664
7935,P,-1142.45972
7936,P,-1142.45972
7937,P,-1413.84766
7938,P,-1413.84766
7939,P,3701.53174
7940,P,3701.53174
7941,P,3337.15405
7942,P,3337.15405
7943,P,3608.06177
7944,P,3608.06177
7945,P,3409.71338
7946,P,3409.71338
7947,P,-1012.93024
7948,P,-1012.93024
7949,P,-962.285828
7950,P,-962.285828
7951,P,2205.62109
7952,P,2205.62109
7953,P,2833.073
7954,P,2833.073
7955,P,2812.21191
7956,P,2812.21191
7957,P,2222.06738
7958,P,2222.06738
7959,P,1385.51025
7960,P,1385.51025
7961,P,1960.07007
7962,P,1960.07007
7963,P,2455.92725
7964,P,2455.92725
7965,P,1955.97876
7966,P,1955.97876
7967,P,2495.28589
7968,P,2495.28589
7969,P,1335.55908
7970,P,1335.55908
7971,P,1769.16589
7972,P,1769.16589
7973,P,1107.16797
7974,P,1107.16797
7975,P,1007.63507
7976,P,1007.63507
7977,P,815.97876
7978,P,815.97876
7979,P,1066.15747
7980,P,1066.15747
7981,P,999.681274
7982,P,999.681274
7983,P,784.035339
7984,P,784.035339
7985,P,814.688293
7986,P,814.688293
7987,P,246.914566
7988,P,246.914566
7989,P,-871.617615
7990,P,-871.617615
7991,P,-557.183167
7992,P,-557.183167
7993,P,436.704895
7994,P,436.704895
7995,P,346.132294
7996,P,346.132294
7997,P,281.382324
7998,P,281.382324
7999,P,476.391052
8000,P,476.391052
8001,P,459.053467
8002,P,459.053467
8003,P,527.984741
8004,P,527.984741
8005,P,-1132.16089
8006,P,-1132.16089
8007,P,271.745789
8008,P,271.745789
8009,P,-803.552612
8010,P,-803.552612
8011,P,297.977142
8012,P,297.977142
8013,P,522.188354
8014,P,522.188354
8015,P,604.813171
8016,P,604.813171
8017,P,92.2532043
8018,P,92.2532043
8019,P,-21.5960579
8020,P,-21.5960579
8021,P,292.064484
8022,P,292.064484
8023,P,100.849091
8024,P,100.849091
8025,P,-280.032837
8026,P,-280.032837
8027,P,74.1522903
8028,P,74.1522903
8029,P,-1084.13416
8030,P,-1084.13416
8031,P,-331.62262
8032,P,-331.62262
8033,P,-326.547577
8034,P,-326.547577
8035,P,-6.01444292
8036,P,-6.01444292
8037,P,-248.095764
8038,P,-248.095764
8039,P,-98.5479813
8040,P,-98.5479813
8041,P,-52.1076851
8042,P,-52.1076851
8043,P,-94.3358612
8044,P,-94.3358612
8045,P,-56.6851234
8046,P,-56.6851234
8047,P,-244.682281
8048,P,-244.682281
8049,P,-81.0870285
8050,P,-81.0870285
8051,P,-33.9169312
8052,P,-33.9169312
8053,P,-211.774002
8054,P,-211.774002
8055,P,-75.0022659
8056,P,-75.0022659
8057,P,-44.2581367
8058,P,-44.2581367
8059,P,-85.1082153
8060,P,-85.1082153
8061,P,-35.5320396
8062,P,-35.5320396
8063,P,-209.807709
8064,P,-209.807709
8065,P,-1.12211168
8066,P,-1.12211168
8067,P,98.7119827
8068,P,98.7119827
8069,P,393.386475
8070,P,393.386475
8071,P,511.480743
8072,P,511.480743
8073,P,-12.9584103
8074,P,-12.9584103
8075,P,117.630554
8076,P,117.630554
8077,P,73.4530563
8078,P,73.4530563
8079,P,94.7571945
8080,P,94.7571945
8081,P,514.408203
8082,P,514.408203
8083,P,131.218353
8084,P,131.218353
8085,P,16.5177078
8086,P,16.5177078
8087,P,49.7036057
8088,P,49.7036057
8089,P,-21.8465691
8090,P,-21.8465691
8091,P,-23.4498253
8092,P,-23.4498253
8093,P,98.112114
8094,P,98.112114
8095,P,13.5942717
8096,P,13.5942717
8097,P,30.8574505
8098,P,30.8574505
8099,P,77.685112
8100,P,77.685112
8101,P,-11.6938505
8102,P,-11.6938505
8103,P,-6.27239704
8104,P,-6.27239704
8105,P,52.7367363
8106,P,52.7367363
8107,P,37.0051422
8108,P,37.0051422
8109,P,2258.68384
8110,P,2258.68384
8111,P,2936.84204
8112,P,2936.84204
8113,P,2885.05884
8114,P,2885.05884
8115,P,2269.81055
8116,P,2269.81055
8117,P,1453.05737
8118,P,1453.05737
8119,P,4053.10449
8120,P,4053.10449
8121,P,2597.45337
8122,P,2597.45337
8123,P,-1033.77551
8124,P,-1033.77551
8125,P,4018.31714
8126,P,4018.31714
8127,P,2606.50195
8128,P,2606.50195
8129,P,-1028.67688
8130,P,-1028.67688
8131,P,4161.81348
8132,P,4161.81348
8133,P,3854.50317
8134,P,3854.50317
8135,P,3882.59155
8136,P,3882.59155
8137,P,4238.21094
8138,P,4238.21094
8139,P,1452.57483
8140,P,1452.57483
8141,P,1985.00305
8142,P,1985.00305
8143,P,2316.51099
8144,P,2316.51099
8145,P,2926.3728
8146,P,2926.3728
8147,P,2926.40576
8148,P,2926.40576
8149,P,2295.32129
8150,P,2295.32129
8151,P,1131.5918
8152,P,1131.5918
8153,P,1045.41199
8154,P,1045.41199
8155,P,797.593445
8156,P,797.593445
8157,P,824.016235
8158,P,824.016235
8159,P,1162.41077
8160,P,1162.41077
8161,P,1035.14172
8162,P,1035.14172
8163,P,818.187439
8164,P,818.187439
8165,P,4128.79883
8166,P,4128.79883
8167,P,2698.38379
8168,P,2698.38379
8169,P,-1017.00153
8170,P,-1017.00153
8171,P,-1543.36951
8172,P,-1543.36951
8173,P,4176.86084
8174,P,4176.86084
8175,P,2703.76123
8176,P,2703.76123
8177,P,-1004.23987
8178,P,-1004.23987
8179,P,-1557.66943
8180,P,-1557.66943
8181,P,4303.56738
8182,P,4303.56738
8183,P,-1165.71094
8184,P,-1165.71094
8185,P,3930.42676
8186,P,3930.42676
8187,P,4277.90088
8188,P,4277.90088
8189,P,3955.15015
8190,P,3955.15015
8191,P,2310.43457
8192,P,2310.43457
8193,P,2936.59253
8194,P,2936.59253
8195,P,2964.95825
8196,P,2964.95825
8197,P,2320.62939
8198,P,2320.62939
8199,P,1443.62695
8200,P,1443.62695
8201,P,2346.91797
8202,P,2346.91797
8203,P,2992.43677
8204,P,2992.43677
8205,P,2382.54102
8206,P,2382.54102
8207,P,2982.55542
8208,P,2982.55542
8209,P,1506.95557
8210,P,1506.95557
8211,P,1949.1803
8212,P,1949.1803
8213,P,1138.52417
8214,P,1138.52417
8215,P,1040.12146
8216,P,1040.12146
8217,P,1166.51648
8218,P,1166.51648
8219,P,1085.48145
8220,P,1085.48145
8221,P,766.693237
8222,P,766.693237
8223,P,794.56604
8224,P,794.56604
8225,P,3.66278744
8226,P,3.66278744
8227,P,40.5154037
8228,P,40.5154037
8229,P,-53.469841
8230,P,-53.469841
8231,P,-45.1269341
8232,P,-45.1269341
8233,P,78.4416962
8234,P,78.4416962
8235,P,7.5402832
8236,P,7.5402832
8237,P,68.6329727
8238,P,68.6329727
8239,P,252.134796
8240,P,252.134796
8241,P,331.174042
8242,P,331.174042
8243,P,447.41806
8244,P,447.41806
8245,P,127.108757
8246,P,127.108757
8247,P,85.2151871
8248,P,85.2151871
8249,P,163.199142
8250,P,163.199142
8251,P,88.8236389
8252,P,88.8236389
8253,P,467.406097
8254,P,467.406097
8255,P,67.8598175
8256,P,67.8598175
8257,P,-4.15068293
8258,P,-4.15068293
8259,P,57.7565002
8260,P,57.7565002
8261,P,-55.1507683
8262,P,-55.1507683
8263,P,-59.807785
8264,P,-59.807785
8265,P,25.3005733
8266,P,25.3005733
8267,P,-4.90825891
8268,P,-4.90825891
8269,P,-1253.86414
8270,P,-1253.86414
8271,P,-448.422272
8272,P,-448.422272
8273,P,-1133.3136
8274,P,-1133.3136
8275,P,-463.246613
8276,P,-463.246613
8277,P,-353.861145
8278,P,-353.861145
8279,P,-161.589874
8280,P,-161.589874
8281,P,-168.606369
8282,P,-168.606369
8283,P,-116.51976
8284,P,-116.51976
8285,P,-87.8408356
8286,P,-87.8408356
8287,P,-164.120636
8288,P,-164.120636
8289,P,-123.175529
8290,P,-123.175529
8291,P,-336.074982
8292,P,-336.074982
8293,P,-133.462738
8294,P,-133.462738
8295,P,-323.676453
8296,P,-323.676453
8297,P,-160.17807
8298,P,-160.17807
8299,P,-160.72084
8300,P,-160.72084
8301,P,-113.161789
8302,P,-113.161789
8303,P,-156.669205
8304,P,-156.669205
8305,P,-117.770905
8306,P,-117.770905
8307,P,-330.938599
8308,P,-330.938599
8309,P,-103.102005
8310,P,-103.102005
8311,P,63.9818382
8312,P,63.9818382
8313,P,206.103867
8314,P,206.103867
8315,P,298.472412
8316,P,298.472412
8317,P,436.164673
8318,P,436.164673
8319,P,152.329285
8320,P,152.329285
8321,P,75.7019272
8322,P,75.7019272
8323,P,118.526276
8324,P,118.526276
8325,P,74.270256
8326,P,74.270256
8327,P,439.780365
8328,P,439.780365
8329,P,63.2367134
8330,P,63.2367134
8331,P,-20.435503
8332,P,-20.435503
8333,P,3.37005687
8334,P,3.37005687
8335,P,55.1840439
8336,P,55.1840439
8337,P,-79.3270493
8338,P,-79.3270493
8339,P,-80.3500824
8340,P,-80.3500824
8341,P,-21.6415863
8342,P,-21.6415863
8343,P,-14.5014133
8344,P,-14.5014133
8345,P,30.6780186
8346,P,30.6780186
8347,P,9.18015575
8348,P,9.18015575
8349,P,-72.4015732
8350,P,-72.4015732
8351,P,-78.2685318
8352,P,-78.2685318
8353,P,-11.583147
8354,P,-11.583147
8355,P,2285.93848
8356,P,2285.93848
8357,P,2959.57129
8358,P,2959.57129
8359,P,2937.36304
8360,P,2937.36304
8361,P,2317.48657
8362,P,2317.48657
8363,P,1437.55444
8364,P,1437.55444
8365,P,1902.43884
8366,P,1902.43884
8367,P,4216.92334
8368,P,4216.92334
8369,P,2794.05884
8370,P,2794.05884
8371,P,-987.159241
8372,P,-987.159241
8373,P,4160.68555
8374,P,4160.68555
8375,P,2758.16675
8376,P,2758.16675
8377,P,-979.798462
8378,P,-979.798462
8379,P,4326.875
8380,P,4326.875
8381,P,4045.1499
8382,P,4045.1499
8383,P,3980.08447
8384,P,3980.08447
8385,P,4340.20557
8386,P,4340.20557
8387,P,1426.5968
8388,P,1426.5968
8389,P,1954.16187
8390,P,1954.16187
8391,P,2233.00757
8392,P,2233.00757
8393,P,2957.52393
8394,P,2957.52393
8395,P,2917.57642
8396,P,2917.57642
8397,P,2276.9541
8398,P,2276.9541
8399,P,1114.2251
8400,P,1114.2251
8401,P,1041.71814
8402,P,1041.71814
8403,P,743.987
8404,P,743.987
8405,P,784.414917
8406,P,784.414917
8407,P,1120.33325
8408,P,1120.33325
8409,P,1030.82483
8410,P,1030.82483
8411,P,4281.36719
8412,P,4281.36719
8413,P,2814.42822
8414,P,2814.42822
8415,P,-991.30011
8416,P,-991.30011
8417,P,-1619.85376
8418,P,-1619.85376
8419,P,4172.29199
8420,P,4172.29199
8421,P,2773.37549
8422,P,2773.37549
8423,P,-995.272705
8424,P,-995.272705
8425,P,-1550.68933
8426,P,-1550.68933
8427,P,4321.87256
8428,P,4321.87256
8429,P,4054.26025
8430,P,4054.26025
8431,P,4336.3457
8432,P,4336.3457
8433,P,4006.46509
8434,P,4006.46509
8435,P,-1257.0321
8436,P,-1257.0321
8437,P,2263.68042
8438,P,2263.68042
8439,P,2884.73877
8440,P,2884.73877
8441,P,2861.36914
8442,P,2861.36914
8443,P,2254.95972
8444,P,2254.95972
8445,P,1457.95569
8446,P,1457.95569
8447,P,2287.59985
8448,P,2287.59985
8449,P,2970.36011
8450,P,2970.36011
8451,P,2277.59473
8452,P,2277.59473
8453,P,2950.25684
8454,P,2950.25684
8455,P,1436.672
8456,P,1436.672
8457,P,1848.70874
8458,P,1848.70874
8459,P,1107.59143
8460,P,1107.59143
8461,P,986.845276
8462,P,986.845276
8463,P,782.505493
8464,P,782.505493
8465,P,1121.90894
8466,P,1121.90894
8467,P,1015.93695
8468,P,1015.93695
8469,P,767.949036
8470,P,767.949036
8471,P,759.108582
8472,P,759.108582
8473,P,-29.8463192
8474,P,-29.8463192
8475,P,-14.8645048
8476,P,-14.8645048
8477,P,-93.642662
8478,P,-93.642662
8479,P,-92.3432083
8480,P,-92.3432083
8481,P,37.6589317
8482,P,37.6589317
8483,P,-27.7874832
8484,P,-27.7874832
8485,P,47.7653618
8486,P,47.7653618
8487,P,136.713531
8488,P,136.713531
8489,P,241.894211
8490,P,241.894211
8491,P,352.909454
8492,P,352.909454
8493,P,148.162628
8494,P,148.162628
8495,P,61.4542961
8496,P,61.4542961
8497,P,109.769608
8498,P,109.769608
8499,P,59.3546143
8500,P,59.3546143
8501,P,341.503632
8502,P,341.503632
8503,P,49.1001511
8504,P,49.1001511
8505,P,-32.9652328
8506,P,-32.9652328
8507,P,38.8973808
8508,P,38.8973808
8509,P,-11.0525427
8510,P,-11.0525427
8511,P,-97.5032959
8512,P,-97.5032959
8513,P,-94.4380798
8514,P,-94.4380798
8515,P,-33.0514679
8516,P,-33.0514679
8517,P,-1178.67822
8518,P,-1178.67822
8519,P,-494.546112
8520,P,-494.546112
8521,P,-1122.9259
8522,P,-1122.9259
8523,P,-493.279419
8524,P,-493.279419
8525,P,-369.815521
8526,P,-369.815521
8527,P,-189.432571
8528,P,-189.432571
8529,P,-148.21788
8530,P,-148.21788
8531,P,-189.792892
8532,P,-189.792892
8533,P,-189.186951
8534,P,-189.186951
8535,P,-144.810165
8536,P,-144.810165
8537,P,-379.146545
8538,P,-379.146545
8539,P,-361.746796
8540,P,-361.746796
8541,P,-187.277679
8542,P,-187.277679
8543,P,-189.93103
8544,P,-189.93103
8545,P,-131.857285
8546,P,-131.857285
8547,P,-120.255867
8548,P,-120.255867
8549,P,-182.101974
8550,P,-182.101974
8551,P,-146.349106
8552,P,-146.349106
8553,P,-367.472931
8554,P,-367.472931
8555,P,38.842186
8556,P,38.842186
8557,P,135.603729
8558,P,135.603729
8559,P,225.600891
8560,P,225.600891
8561,P,347.345215
8562,P,347.345215
8563,P,89.9024582
8564,P,89.9024582
8565,P,53.0777168
8566,P,53.0777168
8567,P,141.499924
8568,P,141.499924
8569,P,51.655056
8570,P,51.655056
8571,P,357.10434
8572,P,357.10434
8573,P,43.8712654
8574,P,43.8712654
8575,P,-39.9634247
8576,P,-39.9634247
8577,P,-24.6676846
8578,P,-24.6676846
8579,P,4.7186985
8580,P,4.7186985
8581,P,-106.223488
8582,P,-106.223488
8583,P,-106.764503
8584,P,-106.764503
8585,P,-39.6039047
8586,P,-39.6039047
8587,P,-36.0632324
8588,P,-36.0632324
8589,P,55.2958221
8590,P,55.2958221
8591,P,-28.0271168
8592,P,-28.0271168
8593,P,-93.1648865
8594,P,-93.1648865
8595,P,-103.582008
8596,P,-103.582008
8597,P,-31.7170124
8598,P,-31.7170124
8599,P,2271.06519
8600,P,2271.06519
8601,P,2892.86743
8602,P,2892.86743
8603,P,2948.74902
8604,P,2948.74902
8605,P,2273.1189
8606,P,2273.1189
8607,P,1460.01331
8608,P,1460.01331
8609,P,4286.88965
8610,P,4286.88965
8611,P,2803.17383
8612,P,2803.17383
8613,P,-980.684082
8614,P,-980.684082
8615,P,4195.68799
8616,P,4195.68799
8617,P,2775.53296
8618,P,2775.53296
8619,P,-1007.98676
8620,P,-1007.98676
8621,P,4330.34814
8622,P,4330.34814
8623,P,3913.6853
8624,P,3913.6853
8625,P,4023.97559
8626,P,4023.97559
8627,P,4320.15967
8628,P,4320.15967
8629,P,1459.11853
8630,P,1459.11853
8631,P,1947.16248
8632,P,1947.16248
8633,P,2291.73071
8634,P,2291.73071
8635,P,2937.88232
8636,P,2937.88232
8637,P,2993.32642
8638,P,2993.32642
8639,P,2291.07471
8640,P,2291.07471
8641,P,1107.09119
8642,P,1107.09119
8643,P,978.652893
8644,P,978.652893
8645,P,1097.19788
8646,P,1097.19788
8647,P,1016.05145
8648,P,1016.05145
8649,P,731.236023
8650,P,731.236023
8651,P,768.89978
8652,P,768.89978
8653,P,4231.03516
8654,P,4231.03516
8655,P,2770.69385
8656,P,2770.69385
8657,P,-1002.88879
8658,P,-1002.88879
8659,P,-1571.73401
8660,P,-1571.73401
8661,P,4208.8208
8662,P,4208.8208
8663,P,2762.65991
8664,P,2762.65991
8665,P,-1002.85419
8666,P,-1002.85419
8667,P,-1523.07886
8668,P,-1523.07886
8669,P,4305.74219
8670,P,4305.74219
8671,P,-1152.59448
8672,P,-1152.59448
8673,P,3801.13623
8674,P,3801.13623
8675,P,4355.26416
8676,P,4355.26416
8677,P,3792.82056
8678,P,3792.82056
8679,P,-1204.39038
8680,P,-1204.39038
8681,P,2285.09644
8682,P,2285.09644
8683,P,2979.99487
8684,P,2979.99487
8685,P,2997.06421
8686,P,2997.06421
8687,P,2251.47827
8688,P,2251.47827
8689,P,1500.39893
8690,P,1500.39893
8691,P,1923.60791
8692,P,1923.60791
8693,P,2279.68652
8694,P,2279.68652
8695,P,2849.69702
8696,P,2849.69702
8697,P,2256.25635
8698,P,2256.25635
8699,P,2876.37744
8700,P,2876.37744
8701,P,1451.06555
8702,P,1451.06555
8703,P,1156.45813
8704,P,1156.45813
8705,P,1059.42334
8706,P,1059.42334
8707,P,752.824097
8708,P,752.824097
8709,P,775.593933
8710,P,775.593933
8711,P,1120.53943
8712,P,1120.53943
8713,P,1030.40747
8714,P,1030.40747
8715,P,-41.02911
8716,P,-41.02911
8717,P,-8.35697269
8718,P,-8.35697269
8719,P,-2.6791575
8720,P,-2.6791575
8721,P,-101.413567
8722,P,-101.413567
8723,P,-94.6137466
8724,P,-94.6137466
8725,P,-41.3094749
8726,P,-41.3094749
8727,P,48.0359001
8728,P,48.0359001
8729,P,153.030701
8730,P,153.030701
8731,P,235.599701
8732,P,235.599701
8733,P,347.803375
8734,P,347.803375
8735,P,144.648743
8736,P,144.648743
8737,P,57.7657356
8738,P,57.7657356
8739,P,103.473938
8740,P,103.473938
8741,P,55.7602463
8742,P,55.7602463
8743,P,359.625427
8744,P,359.625427
8745,P,45.6721611
8746,P,45.6721611
8747,P,-35.61092
8748,P,-35.61092
8749,P,-1.96525919
8750,P,-1.96525919
8751,P,-1.83667564
8752,P,-1.83667564
8753,P,-108.071915
8754,P,-108.071915
8755,P,-99.9167709
8756,P,-99.9167709
8757,P,-35.273304
8758,P,-35.273304
8759,P,-493.020081
8760,P,-493.020081
8761,P,-1048.21045
8762,P,-1048.21045
8763,P,-482.937958
8764,P,-482.937958
8765,P,-172.977051
8766,P,-172.977051
8767,P,-341.744934
8768,P,-341.744934
8769,P,-186.847977
8770,P,-186.847977
8771,P,-181.270676
8772,P,-181.270676
8773,P,-136.029816
8774,P,-136.029816
8775,P,-182.841888
8776,P,-182.841888
8777,P,-133.976593
8778,P,-133.976593
8779,P,-355.540192
8780,P,-355.540192
8781,P,-73.6611557
8782,P,-73.6611557
8783,P,-134.150253
8784,P,-134.150253
8785,P,-376.999542
8786,P,-376.999542
8787,P,-184.606201
8788,P,-184.606201
8789,P,-188.956314
8790,P,-188.956314
8791,P,-132.850281
8792,P,-132.850281
8793,P,-155.036606
8794,P,-155.036606
8795,P,-180.584747
8796,P,-180.584747
8797,P,-144.894943
8798,P,-144.894943
8799,P,-373.25528
8800,P,-373.25528
8801,P,49.2397308
8802,P,49.2397308
8803,P,242.875137
8804,P,242.875137
8805,P,381.764313
8806,P,381.764313
8807,P,94.3376236
8808,P,94.3376236
8809,P,55.7195549
8810,P,55.7195549
8811,P,163.78595
8812,P,163.78595
8813,P,60.6668854
8814,P,60.6668854
8815,P,374.542603
8816,P,374.542603
8817,P,47.6442871
8818,P,47.6442871
8819,P,-29.9853611
8820,P,-29.9853611
8821,P,-6.14826155
8822,P,-6.14826155
8823,P,-98.0820847
8824,P,-98.0820847
8825,P,-90.1909866
8826,P,-90.1909866
8827,P,8.36283493
8828,P,8.36283493
8829,P,-29.0642891
8830,P,-29.0642891
8831,P,-36.0065041
8832,P,-36.0065041
8833,P,4.08754635
8834,P,4.08754635
8835,P,-94.9542313
8836,P,-94.9542313
8837,P,-105.855858
8838,P,-105.855858
8839,P,32.573597
8840,P,32.573597
8841,P,-34.3415756
8842,P,-34.3415756
8843,P,2286.14429
8844,P,2286.14429
8845,P,3015.40649
8846,P,3015.40649
8847,P,2957.16577
8848,P,2957.16577
8849,P,2318.80225
8850,P,2318.80225
8851,P,1504.323
8852,P,1504.323
8853,P,2062.64014
8854,P,2062.64014
8855,P,4295.05518
8856,P,4295.05518
8857,P,2705.30713
8858,P,2705.30713
8859,P,-1000.42139
8860,P,-1000.42139
8861,P,4220.33887
8862,P,4220.33887
8863,P,2687.27173
8864,P,2687.27173
8865,P,-1017.88818
8866,P,-1017.88818
8867,P,4320.82227
8868,P,4320.82227
8869,P,3967.3269
8870,P,3967.3269
8871,P,4033.98975
8872,P,4033.98975
8873,P,4292.68164
8874,P,4292.68164
8875,P,1491.77502
8876,P,1491.77502
8877,P,2330.37451
8878,P,2330.37451
8879,P,2975.79028
8880,P,2975.79028
8881,P,2984.84985
8882,P,2984.84985
8883,P,2319.49536
8884,P,2319.49536
8885,P,1173.33533
8886,P,1173.33533
8887,P,1054.49951
8888,P,1054.49951
8889,P,1161.1925
8890,P,1161.1925
8891,P,1068.20056
8892,P,1068.20056
8893,P,787.705872
8894,P,787.705872
8895,P,787.762878
8896,P,787.762878
8897,P,4138.13916
8898,P,4138.13916
8899,P,2600.40088
8900,P,2600.40088
8901,P,-1039.23071
8902,P,-1039.23071
8903,P,-1546.83911
8904,P,-1546.83911
8905,P,4156.6626
8906,P,4156.6626
8907,P,2624.19043
8908,P,2624.19043
8909,P,-1035.30188
8910,P,-1035.30188
8911,P,-1572.10913
8912,P,-1572.10913
8913,P,4233.51953
8914,P,4233.51953
8915,P,3921.51318
8916,P,3921.51318
8917,P,4303.87207
8918,P,4303.87207
8919,P,3889.56567
8920,P,3889.56567
8921,P,-1137.35657
8922,P,-1137.35657
8923,P,-1217.61829
8924,P,-1217.61829
8925,P,2313.88184
8926,P,2313.88184
8927,P,2877.92896
8928,P,2877.92896
8929,P,2922.44604
8930,P,2922.44604
8931,P,2255.17065
8932,P,2255.17065
8933,P,1538.67151
8934,P,1538.67151
8935,P,2295.20947
8936,P,2295.20947
8937,P,2991.22339
8938,P,2991.22339
8939,P,2328.03906
8940,P,2328.03906
8941,P,2943.80322
8942,P,2943.80322
8943,P,1496.40625
8944,P,1496.40625
8945,P,2094.75269
8946,P,2094.75269
8947,P,1179.62036
8948,P,1179.62036
8949,P,1073.78394
8950,P,1073.78394
8951,P,808.902527
8952,P,808.902527
8953,P,1165.6073
8954,P,1165.6073
8955,P,1061.22705
8956,P,1061.22705
8957,P,847.596008
8958,P,847.596008
8959,P,804.269836
8960,P,804.269836
8961,P,-19.9048481
8962,P,-19.9048481
8963,P,8.43420315
8964,P,8.43420315
8965,P,56.8231659
8966,P,56.8231659
8967,P,-75.381691
8968,P,-75.381691
8969,P,-81.2857437
8970,P,-81.2857437
8971,P,-22.9731064
8972,P,-22.9731064
8973,P,62.0683365
8974,P,62.0683365
8975,P,298.85849
8976,P,298.85849
8977,P,441.145508
8978,P,441.145508
8979,P,155.249542
8980,P,155.249542
8981,P,76.2169571
8982,P,76.2169571
8983,P,126.756691
8984,P,126.756691
8985,P,71.7998505
8986,P,71.7998505
8987,P,410.140045
8988,P,410.140045
8989,P,63.2757263
8990,P,63.2757263
8991,P,-16.1072273
8992,P,-16.1072273
8993,P,-1.69190371
8994,P,-1.69190371
8995,P,-76.9435349
8996,P,-76.9435349
8997,P,-79.1778488
8998,P,-79.1778488
8999,P,59.3808861
9000,P,59.3808861
9001,P,-13.4638824
9002,P,-13.4638824
9003,P,-1092.12073
9004,P,-1092.12073
9005,P,-434.98349
9006,P,-434.98349
9007,P,-441.725708
9008,P,-441.725708
9009,P,-44.4336472
9010,P,-44.4336472
9011,P,-284.628876
9012,P,-284.628876
9013,P,-129.031067
9014,P,-129.031067
9015,P,-79.8998108
9016,P,-79.8998108
9017,P,-125.434868
9018,P,-125.434868
9019,P,-88.0754395
9020,P,-88.0754395
9021,P,-291.209473
9022,P,-291.209473
9023,P,-88.0951309
9024,P,-88.0951309
9025,P,-61.1936188
9026,P,-61.1936188
9027,P,-312.408569
9028,P,-312.408569
9029,P,-141.064453
9030,P,-141.064453
9031,P,-96.836731
9032,P,-96.836731
9033,P,-137.993088
9034,P,-137.993088
9035,P,-93.1423187
9036,P,-93.1423187
9037,P,-321.477631
9038,P,-321.477631
9039,P,-125.736137
9040,P,-125.736137
9041,P,69.0202713
9042,P,69.0202713
9043,P,332.93335
9044,P,332.93335
9045,P,427.865692
9046,P,427.865692
9047,P,123.885323
9048,P,123.885323
9049,P,86.4371719
9050,P,86.4371719
9051,P,166.31517
9052,P,166.31517
9053,P,87.0394974
9054,P,87.0394974
9055,P,447.200256
9056,P,447.200256
9057,P,68.5780792
9058,P,68.5780792
9059,P,-1.70631874
9060,P,-1.70631874
9061,P,39.3626442
9062,P,39.3626442
9063,P,-54.0325546
9064,P,-54.0325546
9065,P,-52.8403015
9066,P,-52.8403015
9067,P,86.7718735
9068,P,86.7718735
9069,P,3.64989829
9070,P,3.64989829
9071,P,-2.33113599
9072,P,-2.33113599
9073,P,81.7381134
9074,P,81.7381134
9075,P,-58.7293777
9076,P,-58.7293777
9077,P,-59.8044167
9078,P,-59.8044167
9079,P,18.7506199
9080,P,18.7506199
9081,P,-6.86832142
9082,P,-6.86832142
9083,P,2239.49097
9084,P,2239.49097
9085,P,2863.38062
9086,P,2863.38062
9087,P,2881.39526
9088,P,2881.39526
9089,P,2233.4248
9090,P,2233.4248
9091,P,1394.21777
9092,P,1394.21777
9093,P,3702.15259
9094,P,3702.15259
9095,P,2196.80249
9096,P,2196.80249
9097,P,-1130.39807
9098,P,-1130.39807
9099,P,3805.28931
9100,P,3805.28931
9101,P,2160.48926
9102,P,2160.48926
9103,P,-1135.76538
9104,P,-1135.76538
9105,P,3715.71313
9106,P,3715.71313
9107,P,3281.02393
9108,P,3281.02393
9109,P,3387.92969
9110,P,3387.92969
9111,P,3617.02515
9112,P,3617.02515
9113,P,1323.12036
9114,P,1323.12036
9115,P,1814.62085
9116,P,1814.62085
9117,P,1954.18481
9118,P,1954.18481
9119,P,2402.00098
9120,P,2402.00098
9121,P,2479.86719
9122,P,2479.86719
9123,P,1923.43701
9124,P,1923.43701
9125,P,1113.17737
9126,P,1113.17737
9127,P,1006.59857
9128,P,1006.59857
9129,P,823.252991
9130,P,823.252991
9131,P,796.77417
9132,P,796.77417
9133,P,1052.16443
9134,P,1052.16443
9135,P,1010.32922
9136,P,1010.32922
9137,P,819.726746
9138,P,819.726746
9139,P,3222.20068
9140,P,3222.20068
9141,P,1676.19519
9142,P,1676.19519
9143,P,-1262.88599
9144,P,-1262.88599
9145,P,-1126.68323
9146,P,-1126.68323
9147,P,3116.51978
9148,P,3116.51978
9149,P,1772.31873
9150,P,1772.31873
9151,P,-1243.27734
9152,P,-1243.27734
9153,P,-1151.69446
9154,P,-1151.69446
9155,P,3415.66577
9156,P,3415.66577
9157,P,-857.288269
9158,P,-857.288269
9159,P,3166.43164
9160,P,3166.43164
9161,P,3493.82471
9162,P,3493.82471
9163,P,3080.42456
9164,P,3080.42456
9165,P,1488.19336
9166,P,1488.19336
9167,P,1473.07178
9168,P,1473.07178
9169,P,1571.74622
9170,P,1571.74622
9171,P,1436.81116
9172,P,1436.81116
9173,P,782.578613
9174,P,782.578613
9175,P,1822.43884
9176,P,1822.43884
9177,P,2291.77051
9178,P,2291.77051
9179,P,1835.77051
9180,P,1835.77051
9181,P,2221.31445
9182,P,2221.31445
9183,P,1130.55603
9184,P,1130.55603
9185,P,1532.88135
9186,P,1532.88135
9187,P,1067.56262
9188,P,1067.56262
9189,P,904.329529
9190,P,904.329529
9191,P,980.591858
9192,P,980.591858
9193,P,894.466736
9194,P,894.466736
9195,P,777.127136
9196,P,777.127136
9197,P,764.619446
9198,P,764.619446
9199,P,11.0194664
9200,P,11.0194664
9201,P,90.8211136
9202,P,90.8211136
9203,P,-20.9388275
9204,P,-20.9388275
9205,P,-27.3426876
9206,P,-27.3426876
9207,P,44.7823677
9208,P,44.7823677
9209,P,5.75287533
9210,P,5.75287533
9211,P,98.6524429
9212,P,98.6524429
9213,P,456.958099
9214,P,456.958099
9215,P,393.938202
9216,P,393.938202
9217,P,503.894623
9218,P,503.894623
9219,P,-3.8259325
9220,P,-3.8259325
9221,P,118.833069
9222,P,118.833069
9223,P,65.6811981
9224,P,65.6811981
9225,P,93.5271759
9226,P,93.5271759
9227,P,511.135101
9228,P,511.135101
9229,P,134.689529
9230,P,134.689529
9231,P,32.2952194
9232,P,32.2952194
9233,P,67.9915924
9234,P,67.9915924
9235,P,-9.56511307
9236,P,-9.56511307
9237,P,-6.64289618
9238,P,-6.64289618
9239,P,121.582321
9240,P,121.582321
9241,P,41.4868927
9242,P,41.4868927
9243,P,-943.186707
9244,P,-943.186707
9245,P,-293.870056
9246,P,-293.870056
9247,P,-687.255554
9248,P,-687.255554
9249,P,-271.819916
9250,P,-271.819916
9251,P,-63.9780617
9252,P,-63.9780617
9253,P,166.597733
9254,P,166.597733
9255,P,42.8999252
9256,P,42.8999252
9257,P,57.7813377
9258,P,57.7813377
9259,P,65.3089981
9260,P,65.3089981
9261,P,22.2229156
9262,P,22.2229156
9263,P,61.651783
9264,P,61.651783
9265,P,-93.7221375
9266,P,-93.7221375
9267,P,-10.9202337
9268,P,-10.9202337
9269,P,-184.474762
9270,P,-184.474762
9271,P,3.72174549
9272,P,3.72174549
9273,P,-20.6105423
9274,P,-20.6105423
9275,P,28.6140537
9276,P,28.6140537
9277,P,-1.419155
9278,P,-1.419155
9279,P,14.2054777
9280,P,14.2054777
9281,P,-159.048523
9282,P,-159.048523
9283,P,113.664093
9284,P,113.664093
9285,P,477.829834
9286,P,477.829834
9287,P,597.730652
9288,P,597.730652
9289,P,441.661469
9290,P,441.661469
9291,P,524.015137
9292,P,524.015137
9293,P,-1141.15564
9294,P,-1141.15564
9295,P,272.297882
9296,P,272.297882
9297,P,-817.452026
9298,P,-817.452026
9299,P,298.467224
9300,P,298.467224
9301,P,518.011597
9302,P,518.011597
9303,P,601.414856
9304,P,601.414856
9305,P,247.629181
9306,P,247.629181
9307,P,-543.407715
9308,P,-543.407715
9309,P,-869.448975
9310,P,-869.448975
9311,P,437.208557
9312,P,437.208557
9313,P,356.352905
9314,P,356.352905
9315,P,276.387817
9316,P,276.387817
9317,P,84.0725861
9318,P,84.0725861
9319,P,-19.3960133
9320,P,-19.3960133
9321,P,-287.28656
9322,P,-287.28656
9323,P,289.248322
9324,P,289.248322
9325,P,100.501999
9326,P,100.501999
9327,P,70.7649155
9328,P,70.7649155
9329,P,253.710632
9330,P,253.710632
9331,P,315.059998
9332,P,315.059998
9333,P,549.5271
9334,P,549.5271
9335,P,757.953491
9336,P,757.953491
9337,P,-1355.98743
9338,P,-1355.98743
9339,P,-801.118164
9340,P,-801.118164
9341,P,2217.30737
9342,P,2217.30737
9343,P,1930.97412
9344,P,1930.97412
9345,P,-651.974243
9346,P,-651.974243
9347,P,633.434692
9348,P,633.434692
9349,P,-1168.08093
9350,P,-1168.08093
9351,P,588.161438
9352,P,588.161438
9353,P,834.259644
9354,P,834.259644
9355,P,748.286072
9356,P,748.286072
9357,P,-1298.80237
9358,P,-1298.80237
9359,P,2203.63013
9360,P,2203.63013
9361,P,1927.64917
9362,P,1927.64917
9363,P,644.385315
9364,P,644.385315
9365,P,-1139.66699
9366,P,-1139.66699
9367,P,805.81897
9368,P,805.81897
9369,P,633.048523
9370,P,633.048523
9371,P,262.531342
9372,P,262.531342
9373,P,249.003723
9374,P,249.003723
9375,P,647.966125
9376,P,647.966125
9377,P,74.4727325
9378,P,74.4727325
9379,P,115.038231
9380,P,115.038231
9381,P,121.387428
9382,P,121.387428
9383,P,175.338821
9384,P,175.338821
9385,P,175.338821
9386,P,200.398331
9387,P,200.398331
9388,P,110.724609
9389,P,110.724609
9390,P,1440.3573
9391,P,1440.3573
9392,P,843.031738
9393,P,843.031738
9394,P,949.164673
9395,P,949.164673
9396,P,960.681152
9397,P,960.681152
9398,P,1066.95544
9399,P,1066.95544
9400,P,1270.3363
9401,P,1270.3363
9402,P,76.872818
9403,P,76.872818
9404,P,122.223793
9405,P,122.223793
9406,P,202.2883
9407,P,202.2883
9408,P,110.54277
9409,P,110.54277
9410,P,188.711533
9411,P,188.711533
9412,P,-81.8356628
9413,P,-81.8356628
9414,P,196.852249
9415,P,196.852249
9416,P,196.852249
9417,P,147.03334
9418,P,147.03334
9419,P,844.964172
9420,P,844.964172
9421,P,954.354797
9422,P,954.354797
9423,P,956.5979
9424,P,956.5979
9425,P,1071.37744
9426,P,1071.37744
9427,P,1278.60144
9428,P,1278.60144
9429,P,181.325592
9430,P,181.325592
9431,P,150.522583
9432,P,150.522583
9433,P,302.857941
9434,P,302.857941
9435,P,328.581787
9436,P,328.581787
9437,P,301.175903
9438,P,301.175903
9439,P,425.535187
9440,P,425.535187
9441,P,311.913452
9442,P,311.913452
9443,P,304.483307
9444,P,304.483307
9445,P,322.126831
9446,P,322.126831
9447,P,312.132446
9448,P,312.132446
9449,P,241.054047
9450,P,241.054047
9451,P,272.073517
9452,P,272.073517
9453,P,242.537506
9454,P,242.537506
9455,P,331.623505
9456,P,331.623505
9457,P,275.160156
9458,P,275.160156
9459,P,287.906921
9460,P,287.906921
9461,P,352.478943
9462,P,352.478943
9463,P,324.161469
9464,P,324.161469
9465,P,292.949188
9466,P,292.949188
9467,P,117.910126
9468,P,117.910126
9469,P,171.219742
9470,P,171.219742
9471,P,176.165482
9472,P,176.165482
9473,P,120.388229
9474,P,120.388229
9475,P,184.453506
9476,P,184.453506
9477,P,180.624893
9478,P,180.624893
9479,P,68.7230377
9480,P,68.7230377
9481,P,210.976868
9482,P,210.976868
9483,P,5.74768686
9484,P,5.74768686
9485,P,623.146973
9486,P,623.146973
9487,P,202.720825
9488,P,202.720825
9489,P,89.2018738
9490,P,89.2018738
9491,P,194.418716
9492,P,194.418716
9493,P,7.57227421
9494,P,7.57227421
9495,P,588.847168
9496,P,588.847168
9497,P,197.737518
9498,P,197.737518
9499,P,81.9638062
9500,P,81.9638062
9501,P,-57.52211
9502,P,-57.52211
9503,P,96.7521133
9504,P,96.7521133
9505,P,-53.249649
9506,P,-53.249649
9507,P,96.8914032
9508,P,96.8914032
9509,P,80.8302383
9510,P,80.8302383
9511,P,-61.3470726
9512,P,-61.3470726
9513,P,95.4477463
9514,P,95.4477463
9515,P,94.471283
9516,P,94.471283
9517,P,-64.0132523
9518,P,-64.0132523
9519,P,118.211227
9520,P,118.211227
9521,P,-95.1628418
9522,P,-95.1628418
9523,P,139.832596
9524,P,139.832596
9525,P,118.157379
9526,P,118.157379
9527,P,120.619614
9528,P,120.619614
9529,P,-90.0180817
9530,P,-90.0180817
9531,P,142.399445
9532,P,142.399445
9533,P,120.048347
9534,P,120.048347
9535,P,70.9986115
9536,P,70.9986115
9537,P,-49.7363281
9538,P,-49.7363281
9539,P,83.1707382
9540,P,83.1707382
9541,P,84.2968979
9542,P,84.2968979
9543,P,68.6540604
9544,P,68.6540604
9545,P,-56.9728508
9546,P,-56.9728508
9547,P,83.8204727
9548,P,83.8204727
9549,P,83.277626
9550,P,83.277626
9551,P,-57.9855881
9552,P,-57.9855881
9553,P,105.870926
9554,P,105.870926
9555,P,-85.7085266
9556,P,-85.7085266
9557,P,123.479599
9558,P,123.479599
9559,P,105.44017
9560,P,105.44017
9561,P,-55.96772
9562,P,-55.96772
9563,P,105.533691
9564,P,105.533691
9565,P,-81.821106
9566,P,-81.821106
9567,P,123.360359
9568,P,123.360359
9569,P,105.97979
9570,P,105.97979
9571,P,82.3009109
9572,P,82.3009109
9573,P,-36.5389137
9574,P,-36.5389137
9575,P,99.5076294
9576,P,99.5076294
9577,P,-48.968029
9578,P,-48.968029
9579,P,98.3200989
9580,P,98.3200989
9581,P,84.4910431
9582,P,84.4910431
9583,P,100.128784
9584,P,100.128784
9585,P,100.240959
9586,P,100.240959
9587,P,-16.5685616
9588,P,-16.5685616
9589,P,120.780014
9590,P,120.780014
9591,P,-47.2296753
9592,P,-47.2296753
9593,P,144.429932
9594,P,144.429932
9595,P,122.158165
9596,P,122.158165
9597,P,122.377876
9598,P,122.377876
9599,P,-63.9900589
9600,P,-63.9900589
9601,P,144.341461
9602,P,144.341461
9603,P,121.690514
9604,P,121.690514
9605,P,108.025955
9606,P,108.025955
9607,P,165.410934
9608,P,165.410934
9609,P,160.377655
9610,P,160.377655
9611,P,109.77861
9612,P,109.77861
9613,P,153.612366
9614,P,153.612366
9615,P,157.592407
9616,P,157.592407
9617,P,95.0939941
9618,P,95.0939941
9619,P,170.713242
9620,P,170.713242
9621,P,12.4262161
9622,P,12.4262161
9623,P,491.392517
9624,P,491.392517
9625,P,175.9664
9626,P,175.9664
9627,P,76.0496368
9628,P,76.0496368
9629,P,183.479279
9630,P,183.479279
9631,P,13.0271072
9632,P,13.0271072
9633,P,515.328369
9634,P,515.328369
9635,P,179.994019
9636,P,179.994019
9637,P,-208.462173
9638,P,-208.462173
9639,P,10.2686729
9640,P,10.2686729
9641,P,-155.590057
9642,P,-155.590057
9643,P,-155.590057
9644,P,81.4754028
9645,P,81.4754028
9646,P,18.5858879
9647,P,18.5858879
9648,P,18.5858879
9649,P,536.65448
9650,P,536.65448
9651,P,536.65448
9652,P,-366.185272
9653,P,-366.185272
9654,P,1634.56079
9655,P,1634.56079
9656,P,1942.42822
9657,P,1942.42822
9658,P,1680.4729
9659,P,1680.4729
9660,P,1501.80493
9661,P,1501.80493
9662,P,1427.46021
9663,P,1427.46021
9664,P,-473.611145
9665,P,-473.611145
9666,P,465.679718
9667,P,465.679718
9668,P,-793.916992
9669,P,-793.916992
9670,P,746.314758
9671,P,746.314758
9672,P,-104.051308
9673,P,-104.051308
9674,P,-104.051308
9675,P,-175.701523
9676,P,-175.701523
9677,P,5.00615263
9678,P,5.00615263
9679,P,77.011879
9680,P,77.011879
9681,P,967.03302
9682,P,967.03302
9683,P,168.435379
9684,P,168.435379
9685,P,276.911987
9686,P,276.911987
9687,P,244.917633
9688,P,244.917633
9689,P,199.656403
9690,P,199.656403
9691,P,704.819641
9692,P,704.819641
9693,P,981.872192
9694,P,981.872192
9695,P,981.872192
9696,P,200.835953
9697,P,200.835953
9698,P,200.835953
9699,P,289.537292
9700,P,289.537292
9701,P,1665.69348
9702,P,1665.69348
9703,P,1665.69348
9704,P,109.63855
9705,P,109.63855
9706,P,93.2222595
9707,P,93.2222595
9708,P,166.222885
9709,P,166.222885
9710,P,74.6793823
9711,P,74.6793823
9712,P,161.493439
9713,P,161.493439
9714,P,108.252274
9715,P,108.252274
9716,P,82.9292068
9717,P,82.9292068
9718,P,154.279358
9719,P,154.279358
9720,P,157.285126
9721,P,157.285126
9722,P,118.497314
9723,P,118.497314
9724,P,171.274078
9725,P,171.274078
9726,P,11.0125427
9727,P,11.0125427
9728,P,489.909637
9729,P,489.909637
9730,P,174.796326
9731,P,174.796326
9732,P,185.24559
9733,P,185.24559
9734,P,22.4841862
9735,P,22.4841862
9736,P,517.331665
9737,P,517.331665
9738,P,180.665985
9739,P,180.665985
9740,P,82.5470123
9741,P,82.5470123
9742,P,-41.7157631
9743,P,-41.7157631
9744,P,98.1415176
9745,P,98.1415176
9746,P,99.2181091
9747,P,99.2181091
9748,P,85.5638809
9749,P,85.5638809
9750,P,-33.6343002
9751,P,-33.6343002
9752,P,101.733414
9753,P,101.733414
9754,P,-18.9139271
9755,P,-18.9139271
9756,P,100.800194
9757,P,100.800194
9758,P,122.757584
9759,P,122.757584
9760,P,-43.2850266
9761,P,-43.2850266
9762,P,145.110901
9763,P,145.110901
9764,P,123.142509
9765,P,123.142509
9766,P,-46.9379196
9767,P,-46.9379196
9768,P,121.69754
9769,P,121.69754
9770,P,-62.1339226
9771,P,-62.1339226
9772,P,144.802078
9773,P,144.802078
9774,P,122.166786
9775,P,122.166786
9776,P,70.2788849
9777,P,70.2788849
9778,P,-56.0628128
9779,P,-56.0628128
9780,P,82.8806152
9781,P,82.8806152
9782,P,-44.9677963
9783,P,-44.9677963
9784,P,84.3134155
9785,P,84.3134155
9786,P,71.2895966
9787,P,71.2895966
9788,P,85.752121
9789,P,85.752121
9790,P,84.1627884
9791,P,84.1627884
9792,P,-48.3987808
9793,P,-48.3987808
9794,P,107.354805
9795,P,107.354805
9796,P,-79.4851379
9797,P,-79.4851379
9798,P,123.952988
9799,P,123.952988
9800,P,105.893639
9801,P,105.893639
9802,P,104.796242
9803,P,104.796242
9804,P,-81.955864
9805,P,-81.955864
9806,P,123.601173
9807,P,123.601173
9808,P,105.748505
9809,P,105.748505
9810,P,81.5204697
9811,P,81.5204697
9812,P,96.93396
9813,P,96.93396
9814,P,96.8884964
9815,P,96.8884964
9816,P,80.6723557
9817,P,80.6723557
9818,P,-64.1244049
9819,P,-64.1244049
9820,P,95.5912628
9821,P,95.5912628
9822,P,-63.1591644
9823,P,-63.1591644
9824,P,95.1771164
9825,P,95.1771164
9826,P,118.343979
9827,P,118.343979
9828,P,-99.3290329
9829,P,-99.3290329
9830,P,139.78653
9831,P,139.78653
9832,P,118.826172
9833,P,118.826172
9834,P,-57.4976845
9835,P,-57.4976845
9836,P,120.352516
9837,P,120.352516
9838,P,-94.2876358
9839,P,-94.2876358
9840,P,142.363632
9841,P,142.363632
9842,P,120.380013
9843,P,120.380013
9844,P,118.793633
9845,P,118.793633
9846,P,79.2401505
9847,P,79.2401505
9848,P,171.402969
9849,P,171.402969
9850,P,89.1819687
9851,P,89.1819687
9852,P,176.414108
9853,P,176.414108
9854,P,117.010368
9855,P,117.010368
9856,P,85.204483
9857,P,85.204483
9858,P,181.84787
9859,P,181.84787
9860,P,179.002243
9861,P,179.002243
9862,P,73.7688828
9863,P,73.7688828
9864,P,208.735214
9865,P,208.735214
9866,P,6.13795757
9867,P,6.13795757
9868,P,623.253967
9869,P,623.253967
9870,P,201.173096
9871,P,201.173096
9872,P,193.172043
9873,P,193.172043
9874,P,10.5094004
9875,P,10.5094004
9876,P,586.700195
9877,P,586.700195
9878,P,196.463593
9879,P,196.463593
9880,P,293.571899
9881,P,293.571899
9882,P,340.934875
9883,P,340.934875
9884,P,294.341064
9885,P,294.341064
9886,P,310.485321
9887,P,310.485321
9888,P,299.244812
9889,P,299.244812
9890,P,293.116608
9891,P,293.116608
9892,P,322.192078
9893,P,322.192078
9894,P,245.682831
9895,P,245.682831
9896,P,308.1026
9897,P,308.1026
9898,P,268.621307
9899,P,268.621307
9900,P,245.121475
9901,P,245.121475
9902,P,325.122406
9903,P,325.122406
9904,P,264.485748
9905,P,264.485748
9906,P,438.786987
9907,P,438.786987
9908,P,270.941315
9909,P,270.941315
9910,P,340.3797
9911,P,340.3797
9912,P,318.777344
9913,P,318.777344
9914,P,280.139282
9915,P,280.139282
9916,P,1633.25781
9917,P,1633.25781
9918,P,1924.35352
9919,P,1924.35352
9920,P,1682.50623
9921,P,1682.50623
9922,P,1492.30688
9923,P,1492.30688
9924,P,1421.81628
9925,P,1421.81628
9926,P,464.042297
9927,P,464.042297
9928,P,-789.469666
9929,P,-789.469666
9930,P,993.12439
9931,P,993.12439
9932,P,213.492889
9933,P,213.492889
9934,P,289.448151
9935,P,289.448151
9936,P,254.336151
9937,P,254.336151
9938,P,210.798447
9939,P,210.798447
9940,P,750.416138
9941,P,750.416138
9942,P,249.136169
9943,P,249.136169
9944,P,249.136169
9945,P,306.726959
9946,P,306.726959
9947,P,1745.09106
9948,P,1745.09106
9949,P,1745.09106
9950,P,561.592224
9951,P,561.592224
9952,P,561.592224
9953,P,371.749908
9954,P,371.749908
9955,P,503.843506
9956,P,503.843506
9957,P,260.762115
9958,P,260.762115
9959,P,233.15773
9960,P,233.15773
9961,P,242.843628
9962,P,242.843628
9963,P,309.833221
9964,P,309.833221
9965,P,186.583771
9966,P,186.583771
9967,P,314.38147
9968,P,314.38147
9969,P,216.694473
9970,P,216.694473
9971,P,281.515381
9972,P,281.515381
9973,P,268.308533
9974,P,268.308533
9975,P,112.950813
9976,P,112.950813
9977,P,375.680084
9978,P,375.680084
9979,P,248.339203
9980,P,248.339203
9981,P,138.525116
9982,P,138.525116
9983,P,216.546295
9984,P,216.546295
9985,P,85.9392319
9986,P,85.9392319
9987,P,400.076294
9988,P,400.076294
9989,P,226.575027
9990,P,226.575027
9991,P,379.879456
9992,P,379.879456
9993,P,-165.450546
9994,P,-165.450546
9995,P,401.207642
9996,P,401.207642
9997,P,-273.847107
9998,P,-273.847107
9999,P,374.176788
10000,P,374.176788
10001,P,-247.574234
10002,P,-247.574234
10003,P,367.224762
10004,P,367.224762
10005,P,-176.517715
10006,P,-176.517715
10007,P,-374.682587
10008,P,-374.682587
10009,P,367.873444
10010,P,367.873444
10011,P,-232.272827
10012,P,-232.272827
10013,P,403.849976
10014,P,403.849976
10015,P,-200.643845
10016,P,-200.643845
10017,P,426.167297
10018,P,426.167297
10019,P,-159.011734
10020,P,-159.011734
10021,P,394.771759
10022,P,394.771759
10023,P,204.349747
10024,P,204.349747
10025,P,204.349747
10026,P,33.5575752
10027,P,33.5575752
10028,P,297.602753
10029,P,297.602753
10030,P,297.602753
10031,P,162.442245
10032,P,162.442245
10033,P,75.8648911
10034,P,75.8648911
10035,P,367.480011
10036,P,367.480011
10037,P,335.851196
10038,P,335.851196
10039,P,-75.4631042
10040,P,-75.4631042
10041,P,287.143677
10042,P,287.143677
10043,P,327.812653
10044,P,327.812653
10045,P,286.822144
10046,P,286.822144
10047,P,327.579224
10048,P,327.579224
10049,P,-358.333496
10050,P,-358.333496
10051,P,364.85907
10052,P,364.85907
10053,P,329.712067
10054,P,329.712067
10055,P,55.866291
10056,P,55.866291
10057,P,55.866291
10058,P,-80.0681915
10059,P,-80.0681915
10060,P,25.7889767
10061,P,25.7889767
10062,P,25.7889767
10063,P,-57.0513268
10064,P,-57.0513268
10065,P,108.320404
10066,P,108.320404
10067,P,53.9447441
10068,P,53.9447441
10069,P,141.715088
10070,P,141.715088
10071,P,158.403366
10072,P,158.403366
10073,P,41.0653877
10074,P,41.0653877
10075,P,116.886169
10076,P,116.886169
10077,P,64.092865
10078,P,64.092865
10079,P,180.538574
10080,P,180.538574
10081,P,68.9424286
10082,P,68.9424286
10083,P,176.151901
10084,P,176.151901
10085,P,205.22963
10086,P,205.22963
10087,P,16.9507523
10088,P,16.9507523
10089,P,689.02124
10090,P,689.02124
10091,P,197.678802
10092,P,197.678802
10093,P,135.533646
10094,P,135.533646
10095,P,13.6041498
10096,P,13.6041498
10097,P,597.38501
10098,P,597.38501
10099,P,161.851746
10100,P,161.851746
10101,P,-49.2930832
10102,P,-49.2930832
10103,P,609.808594
10104,P,609.808594
10105,P,663.738953
10106,P,663.738953
10107,P,60.173481
10108,P,60.173481
10109,P,91.2945557
10110,P,91.2945557
10111,P,448.070282
10112,P,448.070282
10113,P,5.06567192
10114,P,5.06567192
10115,P,587.969299
10116,P,587.969299
10117,P,21.5140285
10118,P,21.5140285
10119,P,-58.0338211
10120,P,-58.0338211
10121,P,511.995667
10122,P,511.995667
10123,P,-11.475687
10124,P,-11.475687
10125,P,570.581604
10126,P,570.581604
10127,P,51.6306534
10128,P,51.6306534
10129,P,507.183044
10130,P,507.183044
10131,P,0.0276121963
10132,P,0.0276121963
10133,P,678.817566
10134,P,678.817566
10135,P,-8.49025822
10136,P,-8.49025822
10137,P,-8.49025822
10138,P,-1134.94019
10139,P,-1134.94019
10140,P,-1134.94019
10141,P,-15.7088718
10142,P,-15.7088718
10143,P,-15.7088718
10144,P,-1059.22424
10145,P,-1059.22424
10146,P,-1059.22424
10147,P,554.223083
10148,P,554.223083
10149,P,511.886383
10150,P,511.886383
10151,P,461.564148
10152,P,461.564148
10153,P,506.647095
10154,P,506.647095
10155,P,-176.560745
10156,P,-176.560745
10157,P,488.032349
10158,P,488.032349
10159,P,526.608337
10160,P,526.608337
10161,P,476.630676
10162,P,476.630676
10163,P,478.529327
10164,P,478.529327
10165,P,19.2265186
10166,P,19.2265186
10167,P,19.2265186
10168,P,-12.7295818
10169,P,-12.7295818
10170,P,-4.73436785
10171,P,-4.73436785
10172,P,31.9842873
10173,P,31.9842873
10174,P,31.9842873
10175,P,13.342186
10176,P,13.342186
10177,P,7.68802977
10178,P,7.68802977
10179,P,80.1159515
10180,P,80.1159515
10181,P,89.2266235
10182,P,89.2266235
10183,P,91.9998932
10184,P,91.9998932
10185,P,-63.0463142
10186,P,-63.0463142
10187,P,77.8995285
10188,P,77.8995285
10189,P,91.5589523
10190,P,91.5589523
10191,P,91.6457596
10192,P,91.6457596
10193,P,-66.450676
10194,P,-66.450676
10195,P,114.550964
10196,P,114.550964
10197,P,-98.1953049
10198,P,-98.1953049
10199,P,134.081284
10200,P,134.081284
10201,P,114.199898
10202,P,114.199898
10203,P,111.593216
10204,P,111.593216
10205,P,-99.5225296
10206,P,-99.5225296
10207,P,132.28331
10208,P,132.28331
10209,P,113.876503
10210,P,113.876503
10211,P,-178.874802
10212,P,-178.874802
10213,P,258.291901
10214,P,258.291901
10215,P,-166.57193
10216,P,-166.57193
10217,P,251.601288
10218,P,251.601288
10219,P,-150.224091
10220,P,-150.224091
10221,P,294.674164
10222,P,294.674164
10223,P,-157.312881
10224,P,-157.312881
10225,P,296.389954
10226,P,296.389954
10227,P,-137.481354
10228,P,-137.481354
10229,P,-164.130692
10230,P,-164.130692
10231,P,-147.85466
10232,P,-147.85466
10233,P,306.249725
10234,P,306.249725
10235,P,-160.075043
10236,P,-160.075043
10237,P,297.786285
10238,P,297.786285
10239,P,-143.271042
10240,P,-143.271042
10241,P,-153.814621
10242,P,-153.814621
10243,P,248.996902
10244,P,248.996902
10245,P,-160.977768
10246,P,-160.977768
10247,P,252.651688
10248,P,252.651688
10249,P,-119.857918
10250,P,-119.857918
10251,P,-119.857918
10252,P,-187.531952
10253,P,-187.531952
10254,P,-190.088745
10255,P,-190.088745
10256,P,-113.655495
10257,P,-113.655495
10258,P,-113.655495
10259,P,184.725647
10260,P,184.725647
10261,P,184.725647
10262,P,-184.43692
10263,P,-184.43692
10264,P,-190.114944
10265,P,-190.114944
10266,P,263.05304
10267,P,263.05304
10268,P,275.035095
10269,P,275.035095
10270,P,-69.425293
10271,P,-69.425293
10272,P,350.304626
10273,P,350.304626
10274,P,333.902161
10275,P,333.902161
10276,P,-127.449173
10277,P,-127.449173
10278,P,295.816254
10279,P,295.816254
10280,P,283.082825
10281,P,283.082825
10282,P,310.061859
10283,P,310.061859
10284,P,324.913147
10285,P,324.913147
10286,P,-139.320801
10287,P,-139.320801
10288,P,-121.269234
10289,P,-121.269234
10290,P,-121.269234
10291,P,-164.657837
10292,P,-164.657837
10293,P,-118.329315
10294,P,-118.329315
10295,P,-118.329315
10296,P,75.3468246
10297,P,75.3468246
10298,P,-57.5582466
10299,P,-57.5582466
10300,P,87.430481
10301,P,87.430481
10302,P,87.6049576
10303,P,87.6049576
10304,P,-64.2722626
10305,P,-64.2722626
10306,P,71.0683746
10307,P,71.0683746
10308,P,84.5937729
10309,P,84.5937729
10310,P,-53.3292847
10311,P,-53.3292847
10312,P,84.2814331
10313,P,84.2814331
10314,P,106.73996
10315,P,106.73996
10316,P,-90.8270187
10317,P,-90.8270187
10318,P,125.247917
10319,P,125.247917
10320,P,106.90451
10321,P,106.90451
10322,P,110.039177
10323,P,110.039177
10324,P,-92.9037247
10325,P,-92.9037247
10326,P,127.720734
10327,P,127.720734
10328,P,109.737457
10329,P,109.737457
10330,P,239.009705
10331,P,239.009705
10332,P,240.241501
10333,P,240.241501
10334,P,-153.257187
10335,P,-153.257187
10336,P,-132.269577
10337,P,-132.269577
10338,P,290.76532
10339,P,290.76532
10340,P,-141.32341
10341,P,-141.32341
10342,P,289.667633
10343,P,289.667633
10344,P,-128.371017
10345,P,-128.371017
10346,P,-134.684891
10347,P,-134.684891
10348,P,289.056213
10349,P,289.056213
10350,P,-136.055679
10351,P,-136.055679
10352,P,288.506195
10353,P,288.506195
10354,P,-120.261955
10355,P,-120.261955
10356,P,245.351303
10357,P,245.351303
10358,P,243.757919
10359,P,243.757919
10360,P,-107.272812
10361,P,-107.272812
10362,P,-107.272812
10363,P,156.49086
10364,P,156.49086
10365,P,156.49086
10366,P,-129.66423
10367,P,-129.66423
10368,P,-99.5961838
10369,P,-99.5961838
10370,P,-99.5961838
10371,P,157.197464
10372,P,157.197464
10373,P,157.197464
10374,P,240.452988
10375,P,240.452988
10376,P,239.075836
10377,P,239.075836
10378,P,-98.6991272
10379,P,-98.6991272
10380,P,283.034668
10381,P,283.034668
10382,P,284.854919
10383,P,284.854919
10384,P,-108.867447
10385,P,-108.867447
10386,P,237.775177
10387,P,237.775177
10388,P,239.763794
10389,P,239.763794
10390,P,-124.574959
10391,P,-124.574959
10392,P,289.024933
10393,P,289.024933
10394,P,285.618622
10395,P,285.618622
10396,P,-111.715004
10397,P,-111.715004
10398,P,-112.217178
10399,P,-112.217178
10400,P,-112.217178
10401,P,-110.126434
10402,P,-110.126434
10403,P,-110.126434
10404,P,-146.667633
10405,P,-146.667633
10406,P,-140.340424
10407,P,-140.340424
10408,P,94.0035324
10409,P,94.0035324
10410,P,121.009003
10411,P,121.009003
10412,P,112.841187
10413,P,112.841187
10414,P,88.6086044
10415,P,88.6086044
10416,P,8.78430653
10417,P,8.78430653
10418,P,102.994255
10419,P,102.994255
10420,P,-4.75871992
10421,P,-4.75871992
10422,P,104.778961
10423,P,104.778961
10424,P,120.80407
10425,P,120.80407
10426,P,-9.74659824
10427,P,-9.74659824
10428,P,144.746246
10429,P,144.746246
10430,P,119.366104
10431,P,119.366104
10432,P,32.8848495
10433,P,32.8848495
10434,P,125.745804
10435,P,125.745804
10436,P,-2.65052104
10437,P,-2.65052104
10438,P,168.474487
10439,P,168.474487
10440,P,122.384689
10441,P,122.384689
10442,P,306.162262
10443,P,306.162262
10444,P,89.8646545
10445,P,89.8646545
10446,P,308.365448
10447,P,308.365448
10448,P,64.0123367
10449,P,64.0123367
10450,P,400.530518
10451,P,400.530518
10452,P,113.199112
10453,P,113.199112
10454,P,380.806976
10455,P,380.806976
10456,P,136.532135
10457,P,136.532135
10458,P,251.087662
10459,P,251.087662
10460,P,375.020874
10461,P,375.020874
10462,P,123.917694
10463,P,123.917694
10464,P,370.562347
10465,P,370.562347
10466,P,50.594265
10467,P,50.594265
10468,P,422.724823
10469,P,422.724823
10470,P,81.1815491
10471,P,81.1815491
10472,P,325.277069
10473,P,325.277069
10474,P,-49.8162422
10475,P,-49.8162422
10476,P,-49.8162422
10477,P,4.33690548
10478,P,4.33690548
10479,P,-72.8237076
10480,P,-72.8237076
10481,P,-72.8237076
10482,P,-81.3260117
10483,P,-81.3260117
10484,P,-57.4584236
10485,P,-57.4584236
10486,P,307.907257
10487,P,307.907257
10488,P,308.300629
10489,P,308.300629
10490,P,-11.5223207
10491,P,-11.5223207
10492,P,357.937012
10493,P,357.937012
10494,P,372.302032
10495,P,372.302032
10496,P,299.797638
10497,P,299.797638
10498,P,307.422516
10499,P,307.422516
10500,P,269.943024
10501,P,269.943024
10502,P,376.567291
10503,P,376.567291
10504,P,375.706512
10505,P,375.706512
10506,P,10.7215004
10507,P,10.7215004
10508,P,10.7215004
10509,P,53.1751518
10510,P,53.1751518
10511,P,19.8546162
10512,P,19.8546162
10513,P,19.8546162
10514,P,50.1085548
10515,P,50.1085548
10516,P,153.550308
10517,P,153.550308
10518,P,102.794296
10519,P,102.794296
10520,P,171.931305
10521,P,171.931305
10522,P,170.383102
10523,P,170.383102
10524,P,118.145554
10525,P,118.145554
10526,P,123.823021
10527,P,123.823021
10528,P,100.662277
10529,P,100.662277
10530,P,154.523224
10531,P,154.523224
10532,P,99.5203323
10533,P,99.5203323
10534,P,152.985001
10535,P,152.985001
10536,P,171.278336
10537,P,171.278336
10538,P,24.6329212
10539,P,24.6329212
10540,P,433.327271
10541,P,433.327271
10542,P,163.717773
10543,P,163.717773
10544,P,172.087311
10545,P,172.087311
10546,P,32.7928467
10547,P,32.7928467
10548,P,421.383209
10549,P,421.383209
10550,P,182.062866
10551,P,182.062866
10552,P,-159.40712
10553,P,-159.40712
10554,P,450.666107
10555,P,450.666107
10556,P,425.531769
10557,P,425.531769
10558,P,-263.473877
10559,P,-263.473877
10560,P,-384.031494
10561,P,-384.031494
10562,P,362.991486
10563,P,362.991486
10564,P,-271.946045
10565,P,-271.946045
10566,P,406.554626
10567,P,406.554626
10568,P,-368.501556
10569,P,-368.501556
10570,P,-250.477539
10571,P,-250.477539
10572,P,453.344208
10573,P,453.344208
10574,P,-259.139557
10575,P,-259.139557
10576,P,425.887848
10577,P,425.887848
10578,P,-181.877335
10579,P,-181.877335
10580,P,400.264648
10581,P,400.264648
10582,P,-201.228394
10583,P,-201.228394
10584,P,423.705414
10585,P,423.705414
10586,P,-42.855381
10587,P,-42.855381
10588,P,-42.855381
10589,P,-838.421326
10590,P,-838.421326
10591,P,-838.421326
10592,P,-42.4325027
10593,P,-42.4325027
10594,P,-42.4325027
10595,P,-904.231506
10596,P,-904.231506
10597,P,-904.231506
10598,P,463.580048
10599,P,463.580048
10600,P,476.674133
10601,P,476.674133
10602,P,499.412964
10603,P,499.412964
10604,P,497.315948
10605,P,497.315948
10606,P,-296.710388
10607,P,-296.710388
10608,P,506.071014
10609,P,506.071014
10610,P,483.340546
10611,P,483.340546
10612,P,480.011993
10613,P,480.011993
10614,P,490.669647
10615,P,490.669647
10616,P,-37.1122704
10617,P,-37.1122704
10618,P,-37.1122704
10619,P,-77.9334488
10620,P,-77.9334488
10621,P,-77.3656311
10622,P,-77.3656311
10623,P,-31.075695
10624,P,-31.075695
10625,P,-31.075695
10626,P,-81.0524979
10627,P,-81.0524979
10628,P,-92.5006561
10629,P,-92.5006561
10630,P,97.7125015
10631,P,97.7125015
10632,P,105.602692
10633,P,105.602692
10634,P,785.06073
10635,P,785.06073
10636,P,-282.752991
10637,P,-282.752991
10638,P,-282.752991
10639,P,1313.65979
10640,P,1313.65979
10641,P,1212.69849
10642,P,1212.69849
10643,P,1053.94897
10644,P,1053.94897
10645,P,1133.3573
10646,P,1133.3573
10647,P,1161.83984
10648,P,1161.83984
10649,P,-476.11441
10650,P,-476.11441
10651,P,1824.49988
10652,P,1824.49988
10653,P,1824.49988
10654,P,1824.49988
10655,P,1184.44824
10656,P,1184.44824
10657,P,77.5770035
10658,P,77.5770035
10659,P,104.840996
10660,P,104.840996
10661,P,112.991821
10662,P,112.991821
10663,P,322.852631
10664,P,322.852631
10665,P,504.890289
10666,P,504.890289
10667,P,126.516525
10668,P,126.516525
10669,P,152.616989
10670,P,152.616989
10671,P,171.108124
10672,P,171.108124
10673,P,169.378494
10674,P,169.378494
10675,P,123.572426
10676,P,123.572426
10677,P,118.240463
10678,P,118.240463
10679,P,153.470062
10680,P,153.470062
10681,P,112.062363
10682,P,112.062363
10683,P,152.731384
10684,P,152.731384
10685,P,169.726074
10686,P,169.726074
10687,P,29.9868431
10688,P,29.9868431
10689,P,434.214233
10690,P,434.214233
10691,P,163.969009
10692,P,163.969009
10693,P,124.62056
10694,P,124.62056
10695,P,171.099426
10696,P,171.099426
10697,P,38.3115692
10698,P,38.3115692
10699,P,421.049896
10700,P,421.049896
10701,P,181.269348
10702,P,181.269348
10703,P,443.350861
10704,P,443.350861
10705,P,-174.999252
10706,P,-174.999252
10707,P,426.985107
10708,P,426.985107
10709,P,-272.490448
10710,P,-272.490448
10711,P,-382.305664
10712,P,-382.305664
10713,P,360.031921
10714,P,360.031921
10715,P,-274.070312
10716,P,-274.070312
10717,P,399.334686
10718,P,399.334686
10719,P,-365.685455
10720,P,-365.685455
10721,P,-164.520096
10722,P,-164.520096
10723,P,399.802887
10724,P,399.802887
10725,P,-208.345764
10726,P,-208.345764
10727,P,423.789917
10728,P,423.789917
10729,P,-245.143387
10730,P,-245.143387
10731,P,448.720154
10732,P,448.720154
10733,P,-252.934891
10734,P,-252.934891
10735,P,426.699097
10736,P,426.699097
10737,P,-43.8980408
10738,P,-43.8980408
10739,P,-43.8980408
10740,P,-838.509216
10741,P,-838.509216
10742,P,-838.509216
10743,P,-94.4703293
10744,P,-94.4703293
10745,P,-35.3940926
10746,P,-35.3940926
10747,P,-35.3940926
10748,P,-901.085266
10749,P,-901.085266
10750,P,-901.085266
10751,P,-55.4270821
10752,P,-55.4270821
10753,P,-56.7817345
10754,P,-56.7817345
10755,P,-39.2877846
10756,P,-39.2877846
10757,P,-39.2877846
10758,P,-28.7173824
10759,P,-28.7173824
10760,P,-28.7173824
10761,P,-103.23996
10762,P,-103.23996
10763,P,460.349426
10764,P,460.349426
10765,P,479.616272
10766,P,479.616272
10767,P,-259.724335
10768,P,-259.724335
10769,P,498.869995
10770,P,498.869995
10771,P,501.72702
10772,P,501.72702
10773,P,510.774353
10774,P,510.774353
10775,P,488.812836
10776,P,488.812836
10777,P,-317.487579
10778,P,-317.487579
10779,P,477.486908
10780,P,477.486908
10781,P,490.850555
10782,P,490.850555
10783,P,93.5816879
10784,P,93.5816879
10785,P,123.418243
10786,P,123.418243
10787,P,33.2317352
10788,P,33.2317352
10789,P,113.568161
10790,P,113.568161
10791,P,90.705307
10792,P,90.705307
10793,P,8.44748688
10794,P,8.44748688
10795,P,104.342552
10796,P,104.342552
10797,P,-5.59531641
10798,P,-5.59531641
10799,P,107.033722
10800,P,107.033722
10801,P,122.461884
10802,P,122.461884
10803,P,-4.12432861
10804,P,-4.12432861
10805,P,146.954544
10806,P,146.954544
10807,P,121.835182
10808,P,121.835182
10809,P,127.479317
10810,P,127.479317
10811,P,1.16825879
10812,P,1.16825879
10813,P,169.769608
10814,P,169.769608
10815,P,123.662498
10816,P,123.662498
10817,P,103.467346
10818,P,103.467346
10819,P,311.829529
10820,P,311.829529
10821,P,105.857521
10822,P,105.857521
10823,P,314.235901
10824,P,314.235901
10825,P,79.4441833
10826,P,79.4441833
10827,P,405.430786
10828,P,405.430786
10829,P,130.688049
10830,P,130.688049
10831,P,384.617126
10832,P,384.617126
10833,P,209.773849
10834,P,209.773849
10835,P,66.3972397
10836,P,66.3972397
10837,P,424.851715
10838,P,424.851715
10839,P,328.918243
10840,P,328.918243
10841,P,155.407288
10842,P,155.407288
10843,P,278.973267
10844,P,278.973267
10845,P,381.149292
10846,P,381.149292
10847,P,142.321365
10848,P,142.321365
10849,P,376.081146
10850,P,376.081146
10851,P,239.762009
10852,P,239.762009
10853,P,-45.8299141
10854,P,-45.8299141
10855,P,-45.8299141
10856,P,-33.457798
10857,P,-33.457798
10858,P,-71.846405
10859,P,-71.846405
10860,P,-71.846405
10861,P,187.560242
10862,P,187.560242
10863,P,187.560242
10864,P,11.348114
10865,P,11.348114
10866,P,11.348114
10867,P,58.0196953
10868,P,58.0196953
10869,P,25.4025726
10870,P,25.4025726
10871,P,25.4025726
10872,P,49.1280823
10873,P,49.1280823
10874,P,52.8403358
10875,P,52.8403358
10876,P,311.599945
10877,P,311.599945
10878,P,310.237946
10879,P,310.237946
10880,P,354.209198
10881,P,354.209198
10882,P,372.732056
10883,P,372.732056
10884,P,128.2798
10885,P,128.2798
10886,P,297.432922
10887,P,297.432922
10888,P,307.609253
10889,P,307.609253
10890,P,381.039459
10891,P,381.039459
10892,P,377.706238
10893,P,377.706238
10894,P,73.0181198
10895,P,73.0181198
10896,P,-57.8492432
10897,P,-57.8492432
10898,P,89.3465118
10899,P,89.3465118
10900,P,-61.7388802
10901,P,-61.7388802
10902,P,86.7375565
10903,P,86.7375565
10904,P,72.7376022
10905,P,72.7376022
10906,P,-57.2277412
10907,P,-57.2277412
10908,P,85.0163574
10909,P,85.0163574
10910,P,86.9701538
10911,P,86.9701538
10912,P,-56.1914673
10913,P,-56.1914673
10914,P,107.009392
10915,P,107.009392
10916,P,-90.0515213
10917,P,-90.0515213
10918,P,126.297714
10919,P,126.297714
10920,P,108.448929
10921,P,108.448929
10922,P,110.784821
10923,P,110.784821
10924,P,-91.9331894
10925,P,-91.9331894
10926,P,127.183167
10927,P,127.183167
10928,P,108.50386
10929,P,108.50386
10930,P,241.055511
10931,P,241.055511
10932,P,242.639191
10933,P,242.639191
10934,P,-148.85907
10935,P,-148.85907
10936,P,-127.035896
10937,P,-127.035896
10938,P,294.796082
10939,P,294.796082
10940,P,-143.206711
10941,P,-143.206711
10942,P,292.765869
10943,P,292.765869
10944,P,247.885422
10945,P,247.885422
10946,P,244.066574
10947,P,244.066574
10948,P,-131.923462
10949,P,-131.923462
10950,P,-100.733017
10951,P,-100.733017
10952,P,290.652557
10953,P,290.652557
10954,P,-139.079208
10955,P,-139.079208
10956,P,291.384796
10957,P,291.384796
10958,P,-102.417839
10959,P,-102.417839
10960,P,-102.417839
10961,P,156.135895
10962,P,156.135895
10963,P,156.135895
10964,P,-126.522713
10965,P,-126.522713
10966,P,-126.665047
10967,P,-126.665047
10968,P,-98.9143448
10969,P,-98.9143448
10970,P,-98.9143448
10971,P,155.521896
10972,P,155.521896
10973,P,155.521896
10974,P,-123.144119
10975,P,-123.144119
10976,P,-126.525505
10977,P,-126.525505
10978,P,-105.922325
10979,P,-105.922325
10980,P,-105.922325
10981,P,-137.019791
10982,P,-137.019791
10983,P,-108.46463
10984,P,-108.46463
10985,P,-108.46463
10986,P,-133.409805
10987,P,-133.409805
10988,P,243.090469
10989,P,243.090469
10990,P,239.856827
10991,P,239.856827
10992,P,-91.5370941
10993,P,-91.5370941
10994,P,284.313049
10995,P,284.313049
10996,P,283.88382
10997,P,283.88382
10998,P,-105.976967
10999,P,-105.976967
11000,P,238.036835
11001,P,238.036835
11002,P,237.996841
11003,P,237.996841
11004,P,-111.961037
11005,P,-111.961037
11006,P,291.595886
11007,P,291.595886
11008,P,285.100952
11009,P,285.100952
11010,P,-106.578171
11011,P,-106.578171
11012,P,75.6085129
11013,P,75.6085129
11014,P,-61.2796402
11015,P,-61.2796402
11016,P,89.018074
11017,P,89.018074
11018,P,89.5754166
11019,P,89.5754166
11020,P,81.6242981
11021,P,81.6242981
11022,P,92.0465851
11023,P,92.0465851
11024,P,-58.2844353
11025,P,-58.2844353
11026,P,93.4829559
11027,P,93.4829559
11028,P,114.926376
11029,P,114.926376
11030,P,-100.561211
11031,P,-100.561211
11032,P,134.518646
11033,P,134.518646
11034,P,115.275467
11035,P,115.275467
11036,P,-60.4691086
11037,P,-60.4691086
11038,P,111.075943
11039,P,111.075943
11040,P,-100.902664
11041,P,-100.902664
11042,P,131.413467
11043,P,131.413467
11044,P,111.695999
11045,P,111.695999
11046,P,-170.664566
11047,P,-170.664566
11048,P,261.488647
11049,P,261.488647
11050,P,253.378799
11051,P,253.378799
11052,P,-155.209946
11053,P,-155.209946
11054,P,-134.274826
11055,P,-134.274826
11056,P,292.342499
11057,P,292.342499
11058,P,-160.712189
11059,P,-160.712189
11060,P,296.955566
11061,P,296.955566
11062,P,-141.780991
11063,P,-141.780991
11064,P,-153.109741
11065,P,-153.109741
11066,P,246.340561
11067,P,246.340561
11068,P,249.433899
11069,P,249.433899
11070,P,-164.031586
11071,P,-164.031586
11072,P,308.272552
11073,P,308.272552
11074,P,-161.534302
11075,P,-161.534302
11076,P,299.509796
11077,P,299.509796
11078,P,-146.201019
11079,P,-146.201019
11080,P,-124.363487
11081,P,-124.363487
11082,P,-124.363487
11083,P,-180.129089
11084,P,-180.129089
11085,P,-122.327843
11086,P,-122.327843
11087,P,-122.327843
11088,P,-184.751617
11089,P,-184.751617
11090,P,-119.238464
11091,P,-119.238464
11092,P,-119.238464
11093,P,-163.048264
11094,P,-163.048264
11095,P,-165.754379
11096,P,-165.754379
11097,P,-114.252586
11098,P,-114.252586
11099,P,-114.252586
11100,P,-161.054932
11101,P,-161.054932
11102,P,267.026184
11103,P,267.026184
11104,P,278.884003
11105,P,278.884003
11106,P,-48.1605988
11107,P,-48.1605988
11108,P,351.614746
11109,P,351.614746
11110,P,332.502441
11111,P,332.502441
11112,P,-118.351677
11113,P,-118.351677
11114,P,294.871216
11115,P,294.871216
11116,P,281.655487
11117,P,281.655487
11118,P,313.877655
11119,P,313.877655
11120,P,328.113708
11121,P,328.113708
11122,P,-130.823792
11123,P,-130.823792
11124,P,107.851028
11125,P,107.851028
11126,P,140.733032
11127,P,140.733032
11128,P,157.835541
11129,P,157.835541
11130,P,114.203102
11131,P,114.203102
11132,P,55.1185875
11133,P,55.1185875
11134,P,179.855286
11135,P,179.855286
11136,P,74.1510468
11137,P,74.1510468
11138,P,174.807465
11139,P,174.807465
11140,P,204.341919
11141,P,204.341919
11142,P,13.9605713
11143,P,13.9605713
11144,P,688.021729
11145,P,688.021729
11146,P,196.427582
11147,P,196.427582
11148,P,38.4247971
11149,P,38.4247971
11150,P,135.388046
11151,P,135.388046
11152,P,14.5148592
11153,P,14.5148592
11154,P,594.6875
11155,P,594.6875
11156,P,161.31427
11157,P,161.31427
11158,P,612.068909
11159,P,612.068909
11160,P,-21.6330395
11161,P,-21.6330395
11162,P,669.037048
11163,P,669.037048
11164,P,45.7480392
11165,P,45.7480392
11166,P,65.2772751
11167,P,65.2772751
11168,P,442.910797
11169,P,442.910797
11170,P,-4.77061701
11171,P,-4.77061701
11172,P,588.481262
11173,P,588.481262
11174,P,3.07279158
11175,P,3.07279158
11176,P,36.1589813
11177,P,36.1589813
11178,P,510.125092
11179,P,510.125092
11180,P,-5.49002314
11181,P,-5.49002314
11182,P,684.969055
11183,P,684.969055
11184,P,-63.082531
11185,P,-63.082531
11186,P,508.538574
11187,P,508.538574
11188,P,-22.2934113
11189,P,-22.2934113
11190,P,568.971252
11191,P,568.971252
11192,P,-11.216754
11193,P,-11.216754
11194,P,-11.216754
11195,P,-1132.55042
11196,P,-1132.55042
11197,P,-1132.55042
11198,P,-42.8504257
11199,P,-42.8504257
11200,P,-18.0565319
11201,P,-18.0565319
11202,P,-18.0565319
11203,P,-1048.74841
11204,P,-1048.74841
11205,P,-1048.74841
11206,P,-40.0319443
11207,P,-40.0319443
11208,P,-46.1862183
11209,P,-46.1862183
11210,P,15.1272259
11211,P,15.1272259
11212,P,15.1272259
11213,P,24.668684
11214,P,24.668684
11215,P,24.668684
11216,P,-9.72202492
11217,P,-9.72202492
11218,P,553.597595
11219,P,553.597595
11220,P,513.02063
11221,P,513.02063
11222,P,-239.418732
11223,P,-239.418732
11224,P,473.191376
11225,P,473.191376
11226,P,497.57016
11227,P,497.57016
11228,P,490.134277
11229,P,490.134277
11230,P,534.121582
11231,P,534.121582
11232,P,-106.460426
11233,P,-106.460426
11234,P,472.175812
11235,P,472.175812
11236,P,469.395966
11237,P,469.395966
11238,P,259.155762
11239,P,259.155762
11240,P,233.709915
11241,P,233.709915
11242,P,133.521423
11243,P,133.521423
11244,P,241.896713
11245,P,241.896713
11246,P,308.501526
11247,P,308.501526
11248,P,197.94487
11249,P,197.94487
11250,P,315.526276
11251,P,315.526276
11252,P,224.613678
11253,P,224.613678
11254,P,278.095428
11255,P,278.095428
11256,P,266.010681
11257,P,266.010681
11258,P,111.83947
11259,P,111.83947
11260,P,377.495605
11261,P,377.495605
11262,P,244.761017
11263,P,244.761017
11264,P,217.389526
11265,P,217.389526
11266,P,79.4704742
11267,P,79.4704742
11268,P,402.269714
11269,P,402.269714
11270,P,226.640167
11271,P,226.640167
11272,P,-119.85627
11273,P,-119.85627
11274,P,381.305084
11275,P,381.305084
11276,P,-172.991409
11277,P,-172.991409
11278,P,400.330139
11279,P,400.330139
11280,P,-266.94162
11281,P,-266.94162
11282,P,376.507111
11283,P,376.507111
11284,P,-246.674057
11285,P,-246.674057
11286,P,365.05658
11287,P,365.05658
11288,P,-406.394257
11289,P,-406.394257
11290,P,-198.437408
11291,P,-198.437408
11292,P,426.545654
11293,P,426.545654
11294,P,392.74942
11295,P,392.74942
11296,P,-181.641739
11297,P,-181.641739
11298,P,-378.16745
11299,P,-378.16745
11300,P,365.263
11301,P,365.263
11302,P,-237.723694
11303,P,-237.723694
11304,P,402.155304
11305,P,402.155304
11306,P,-410.503357
11307,P,-410.503357
11308,P,202.45491
11309,P,202.45491
11310,P,202.45491
11311,P,63.6598778
11312,P,63.6598778
11313,P,280.408173
11314,P,280.408173
11315,P,280.408173
11316,P,-42.9095993
11317,P,-42.9095993
11318,P,-42.9095993
11319,P,55.7815514
11320,P,55.7815514
11321,P,55.7815514
11322,P,-55.6566925
11323,P,-55.6566925
11324,P,23.5842781
11325,P,23.5842781
11326,P,23.5842781
11327,P,-82.4604492
11328,P,-82.4604492
11329,P,-66.8048706
11330,P,-66.8048706
11331,P,369.611389
11332,P,369.611389
11333,P,331.834961
11334,P,331.834961
11335,P,285.473267
11336,P,285.473267
11337,P,311.391815
11338,P,311.391815
11339,P,-231.391281
11340,P,-231.391281
11341,P,274.337494
11342,P,274.337494
11343,P,319.065704
11344,P,319.065704
11345,P,365.990295
11346,P,365.990295
11347,P,321.3508
11348,P,321.3508
11349,P,1317.8374
11350,P,1317.8374
11351,P,1196.68054
11352,P,1196.68054
11353,P,1044.36951
11354,P,1044.36951
11355,P,1120.01135
11356,P,1120.01135
11357,P,1172.27026
11358,P,1172.27026
11359,P,1191.64014
11360,P,1191.64014
11361,P,325.74826
11362,P,325.74826
11363,P,493.885773
11364,P,493.885773
11365,P,132.023758
11366,P,132.023758
11367,P,575.036499
11368,P,575.036499
11369,P,-511.120697
11370,P,-511.120697
11371,P,900.613281
11372,P,900.613281
11373,P,-512.329346
11374,P,-512.329346
11375,P,775.141785
11376,P,775.141785
11377,P,-260.591156
11378,P,-260.591156
11379,P,846.862427
11380,P,846.862427
11381,P,-458.456238
11382,P,-458.456238
11383,P,753.150269
11384,P,753.150269
11385,P,55.3664093
11386,P,55.3664093
11387,P,1026.11865
11388,P,1026.11865
11389,P,-86.5432358
11390,P,-86.5432358
11391,P,1168.20325
11392,P,1168.20325
11393,P,-261.963135
11394,P,-261.963135
11395,P,1128.703
11396,P,1128.703
11397,P,-163.351624
11398,P,-163.351624
11399,P,1241.59131
11400,P,1241.59131
11401,P,-124.424622
11402,P,-124.424622
11403,P,1002.38287
11404,P,1002.38287
11405,P,-140.258438
11406,P,-140.258438
11407,P,1014.3006
11408,P,1014.3006
11409,P,-89.6508636
11410,P,-89.6508636
11411,P,1120.45935
11412,P,1120.45935
11413,P,-130.946014
11414,P,-130.946014
11415,P,1025.70154
11416,P,1025.70154
11417,P,-122.898109
11418,P,-122.898109
11419,P,1010.93835
11420,P,1010.93835
11421,P,-114.293343
11422,P,-114.293343
11423,P,1014.96429
11424,P,1014.96429
11425,P,-97.1953049
11426,P,-97.1953049
11427,P,978.204712
11428,P,978.204712
11429,P,-114.666885
11430,P,-114.666885
11431,P,1018.66754
11432,P,1018.66754
11433,P,122.819466
11434,P,122.819466
11435,P,1083.72302
11436,P,1083.72302
11437,P,270.513763
11438,P,270.513763
11439,P,1169.21594
11440,P,1169.21594
11441,P,36.0355492
11442,P,36.0355492
11443,P,1144.95312
11444,P,1144.95312
11445,P,264.998627
11446,P,264.998627
11447,P,1168.5293
11448,P,1168.5293
11449,P,-481.411316
11450,P,-481.411316
11451,P,925.459656
11452,P,925.459656
11453,P,-409.897552
11454,P,-409.897552
11455,P,1019.5976
11456,P,1019.5976
11457,P,-305.186523
11458,P,-305.186523
11459,P,1081.83777
11460,P,1081.83777
11461,P,-366.892151
11462,P,-366.892151
11463,P,1028.0199
11464,P,1028.0199
11465,P,-487.443878
11466,P,-487.443878
11467,P,932.925781
11468,P,932.925781
11469,P,-395.910553
11470,P,-395.910553
11471,P,1014.7052
11472,P,1014.7052
11473,P,-299.131348
11474,P,-299.131348
11475,P,1093.60522
11476,P,1093.60522
11477,P,-368.974365
11478,P,-368.974365
11479,P,1015.02301
11480,P,1015.02301
11481,P,152.136108
11482,P,152.136108
11483,P,1082.14636
11484,P,1082.14636
11485,P,301.129211
11486,P,301.129211
11487,P,1175.37939
11488,P,1175.37939
11489,P,10.6841288
11490,P,10.6841288
11491,P,1143.71716
11492,P,1143.71716
11493,P,272.512573
11494,P,272.512573
11495,P,1178.3595
11496,P,1178.3595
11497,P,-117.041298
11498,P,-117.041298
11499,P,996.743347
11500,P,996.743347
11501,P,-108.131615
11502,P,-108.131615
11503,P,1021.00208
11504,P,1021.00208
11505,P,-95.8340683
11506,P,-95.8340683
11507,P,974.778442
11508,P,974.778442
11509,P,-104.625053
11510,P,-104.625053
11511,P,1011.7146
11512,P,1011.7146
11513,P,-130.926697
11514,P,-130.926697
11515,P,998.612915
11516,P,998.612915
11517,P,-141.477463
11518,P,-141.477463
11519,P,1022.00208
11520,P,1022.00208
11521,P,-72.6999283
11522,P,-72.6999283
11523,P,1125.61682
11524,P,1125.61682
11525,P,-129.328583
11526,P,-129.328583
11527,P,1027.95789
11528,P,1027.95789
11529,P,29.5449371
11530,P,29.5449371
11531,P,1022.39185
11532,P,1022.39185
11533,P,-101.443642
11534,P,-101.443642
11535,P,1165.3855
11536,P,1165.3855
11537,P,-265.533142
11538,P,-265.533142
11539,P,1117.27026
11540,P,1117.27026
11541,P,-178.633591
11542,P,-178.633591
11543,P,1239.00867
11544,P,1239.00867
11545,P,-505.762665
11546,P,-505.762665
11547,P,896.101013
11548,P,896.101013
11549,P,-512.891663
11550,P,-512.891663
11551,P,762.41864
11552,P,762.41864
11553,P,-268.28479
11554,P,-268.28479
11555,P,855.90448
11556,P,855.90448
11557,P,-461.855011
11558,P,-461.855011
11559,P,734.251831
11560,P,734.251831
11561,P,264.238037
11562,P,264.238037
11563,P,282.395111
11564,P,282.395111
11565,P,568.893066
11566,P,568.893066
11567,P,299.19458
11568,P,299.19458
11569,P,263.467072
11570,P,263.467072
11571,P,485.395325
11572,P,485.395325
11573,P,304.235077
11574,P,304.235077
11575,P,300.221527
11576,P,300.221527
11577,P,296.699921
11578,P,296.699921
11579,P,340.219391
11580,P,340.219391
11581,P,422.533264
11582,P,422.533264
11583,P,611.716858
11584,P,611.716858
11585,P,384.814667
11586,P,384.814667
11587,P,282.054169
11588,P,282.054169
11589,P,293.429626
11590,P,293.429626
11591,P,621.590942
11592,P,621.590942
11593,P,802.028503
11594,P,802.028503
11595,P,306.960114
11596,P,306.960114
11597,P,314.036774
11598,P,314.036774
11599,P,607.541199
11600,P,607.541199
11601,P,163.89119
11602,P,163.89119
11603,P,357.248199
11604,P,357.248199
11605,P,313.09491
11606,P,313.09491
11607,P,1196.75598
11608,P,1196.75598
11609,P,1196.75598
11610,P,351.748535
11611,P,351.748535
11612,P,873.432617
11613,P,873.432617
11614,P,218.01918
11615,P,218.01918
11616,P,741.44043
11617,P,741.44043
11618,P,671.597717
11619,P,671.597717
11620,P,671.597717
11621,P,896.489746
11622,P,896.489746
11623,P,896.489746
11624,P,896.489746
11625,P,1202.07947
11626,P,1202.07947
11627,P,974.448486
11628,P,974.448486
11629,P,1536.23364
11630,P,1536.23364
11631,P,1536.23364
11632,P,-6.75797176
11633,P,-6.75797176
11634,P,251.542679
11635,P,251.542679
11636,P,364.840118
11637,P,364.840118
11638,P,238.268768
11639,P,238.268768
11640,P,242.38356
11641,P,242.38356
11642,P,294.782074
11643,P,294.782074
11644,P,916.110107
11645,P,916.110107
11646,P,446.118744
11647,P,446.118744
11648,P,446.118744
11649,P,628.851624
11650,P,628.851624
11651,P,628.851624
11652,P,690.727966
11653,P,690.727966
11654,P,791.473572
11655,P,791.473572
11656,P,857.421143
11657,P,857.421143
11658,P,857.421143
11659,P,857.421143
11660,P,86.6467438
11661,P,86.6467438
11662,P,86.6467438
11663,P,86.6467438
11664,P,86.6467438
11665,P,1389.78003
11666,P,1389.78003
11667,P,1505.99146
11668,P,1505.99146
11669,P,247.699539
11670,P,247.699539
11671,P,281.092133
11672,P,281.092133
11673,P,196.880386
11674,P,196.880386
11675,P,251.304352
11676,P,251.304352
11677,P,300.431
11678,P,300.431
11679,P,374.795471
11680,P,374.795471
11681,P,532.531006
11682,P,532.531006
11683,P,436.595062
11684,P,436.595062
11685,P,436.595062
11686,P,-522.877502
11687,P,-522.877502
11688,P,857.63562
11689,P,857.63562
11690,P,-395.780121
11691,P,-395.780121
11692,P,329.33783
11693,P,329.33783
11694,P,363.165039
11695,P,363.165039
11696,P,-267.943298
11697,P,-267.943298
11698,P,335.872345
11699,P,335.872345
11700,P,363.598785
11701,P,363.598785
11702,P,-403.865936
11703,P,-403.865936
11704,P,-257.065796
11705,P,-257.065796
11706,P,-392.088593
11707,P,-392.088593
11708,P,326.94577
11709,P,326.94577
11710,P,397.98053
11711,P,397.98053
11712,P,-199.907654
11713,P,-199.907654
11714,P,-516.599609
11715,P,-516.599609
11716,P,829.764526
11717,P,829.764526
11718,P,-398.145142
11719,P,-398.145142
11720,P,377.012573
11721,P,377.012573
11722,P,-214.961929
11723,P,-214.961929
11724,P,352.530731
11725,P,352.530731
11726,P,-118.666595
11727,P,-118.666595
11728,P,276.526093
11729,P,276.526093
11730,P,300.432861
11731,P,300.432861
11732,P,-314.534332
11733,P,-314.534332
11734,P,788.977905
11735,P,788.977905
11736,P,-180.338028
11737,P,-180.338028
11738,P,317.900665
11739,P,317.900665
11740,P,306.766663
11741,P,306.766663
11742,P,-328.836212
11743,P,-328.836212
11744,P,317.355316
11745,P,317.355316
11746,P,337.253113
11747,P,337.253113
11748,P,-433.990906
11749,P,-433.990906
11750,P,767.975403
11751,P,767.975403
11752,P,-309.174561
11753,P,-309.174561
11754,P,350.41864
11755,P,350.41864
11756,P,297.973724
11757,P,297.973724
11758,P,38.7084351
11759,P,38.7084351
11760,P,966.474915
11761,P,966.474915
11762,P,444.563202
11763,P,444.563202
11764,P,462.814667
11765,P,462.814667
11766,P,63.1366501
11767,P,63.1366501
11768,P,40.9032555
11769,P,40.9032555
11770,P,42.2251472
11771,P,42.2251472
11772,P,491.659393
11773,P,491.659393
11774,P,520.969482
11775,P,520.969482
11776,P,22.3145618
11777,P,22.3145618
11778,P,-48.5073013
11779,P,-48.5073013
11780,P,464.862579
11781,P,464.862579
11782,P,533.637878
11783,P,533.637878
11784,P,-45.1745491
11785,P,-45.1745491
11786,P,-56.9562836
11787,P,-56.9562836
11788,P,1070.43298
11789,P,1070.43298
11790,P,560.015381
11791,P,560.015381
11792,P,-22.450079
11793,P,-22.450079
11794,P,-30.0714798
11795,P,-30.0714798
11796,P,481.919006
11797,P,481.919006
11798,P,-216.941269
11799,P,-216.941269
11800,P,417.063293
11801,P,417.063293
11802,P,442.059937
11803,P,442.059937
11804,P,-242.804016
11805,P,-242.804016
11806,P,1082.51733
11807,P,1082.51733
11808,P,-204.04631
11809,P,-204.04631
11810,P,490.662781
11811,P,490.662781
11812,P,434.53476
11813,P,434.53476
11814,P,446.483978
11815,P,446.483978
11816,P,-121.165253
11817,P,-121.165253
11818,P,476.003601
11819,P,476.003601
11820,P,-185.403336
11821,P,-185.403336
11822,P,1148.14075
11823,P,1148.14075
11824,P,-151.873856
11825,P,-151.873856
11826,P,485.524323
11827,P,485.524323
11828,P,419.996368
11829,P,419.996368
11830,P,-127.205383
11831,P,-127.205383
11832,P,1008.58948
11833,P,1008.58948
11834,P,-131.45369
11835,P,-131.45369
11836,P,347.587036
11837,P,347.587036
11838,P,294.169189
11839,P,294.169189
11840,P,-153.20993
11841,P,-153.20993
11842,P,351.800842
11843,P,351.800842
11844,P,294.599457
11845,P,294.599457
11846,P,-133.628708
11847,P,-133.628708
11848,P,-155.981049
11849,P,-155.981049
11850,P,-148.808105
11851,P,-148.808105
11852,P,360.186646
11853,P,360.186646
11854,P,304.590454
11855,P,304.590454
11856,P,-161.33606
11857,P,-161.33606
11858,P,-137.774887
11859,P,-137.774887
11860,P,1014.25415
11861,P,1014.25415
11862,P,-145.808533
11863,P,-145.808533
11864,P,300.477173
11865,P,300.477173
11866,P,-160.574432
11867,P,-160.574432
11868,P,354.697327
11869,P,354.697327
11870,P,-93.8608398
11871,P,-93.8608398
11872,P,415.021149
11873,P,415.021149
11874,P,343.075165
11875,P,343.075165
11876,P,-107.913757
11877,P,-107.913757
11878,P,1075.51721
11879,P,1075.51721
11880,P,-114.627136
11881,P,-114.627136
11882,P,339.036255
11883,P,339.036255
11884,P,394.232147
11885,P,394.232147
11886,P,-142.438583
11887,P,-142.438583
11888,P,364.32019
11889,P,364.32019
11890,P,315.146729
11891,P,315.146729
11892,P,-126.732735
11893,P,-126.732735
11894,P,1067.63721
11895,P,1067.63721
11896,P,-141.001495
11897,P,-141.001495
11898,P,319.532043
11899,P,319.532043
11900,P,385.974915
11901,P,385.974915
11902,P,-120.207619
11903,P,-120.207619
11904,P,1008.51282
11905,P,1008.51282
11906,P,345.286224
11907,P,345.286224
11908,P,289.319397
11909,P,289.319397
11910,P,-131.977875
11911,P,-131.977875
11912,P,-150.495331
11913,P,-150.495331
11914,P,-129.749344
11915,P,-129.749344
11916,P,345.135101
11917,P,345.135101
11918,P,289.629944
11919,P,289.629944
11920,P,-143.149246
11921,P,-143.149246
11922,P,-108.348679
11923,P,-108.348679
11924,P,345.664581
11925,P,345.664581
11926,P,290.047943
11927,P,290.047943
11928,P,-134.32785
11929,P,-134.32785
11930,P,-116.867393
11931,P,-116.867393
11932,P,1007.18744
11933,P,1007.18744
11934,P,290.3591
11935,P,290.3591
11936,P,-116.97963
11937,P,-116.97963
11938,P,-136.109848
11939,P,-136.109848
11940,P,343.891998
11941,P,343.891998
11942,P,-102.429382
11943,P,-102.429382
11944,P,334.853516
11945,P,334.853516
11946,P,282.830505
11947,P,282.830505
11948,P,-97.1698914
11949,P,-97.1698914
11950,P,982.567505
11951,P,982.567505
11952,P,-104.210518
11953,P,-104.210518
11954,P,284.762543
11955,P,284.762543
11956,P,336.774109
11957,P,336.774109
11958,P,346.880859
11959,P,346.880859
11960,P,-121.36969
11961,P,-121.36969
11962,P,287.017761
11963,P,287.017761
11964,P,-109.841446
11965,P,-109.841446
11966,P,1008.21936
11967,P,1008.21936
11968,P,-115.755623
11969,P,-115.755623
11970,P,285.992218
11971,P,285.992218
11972,P,341.562378
11973,P,341.562378
11974,P,158.814819
11975,P,158.814819
11976,P,1130.74878
11977,P,1130.74878
11978,P,122.426872
11979,P,122.426872
11980,P,420.279663
11981,P,420.279663
11982,P,397.325867
11983,P,397.325867
11984,P,81.6974869
11985,P,81.6974869
11986,P,433.005127
11987,P,433.005127
11988,P,379.129272
11989,P,379.129272
11990,P,152.920105
11991,P,152.920105
11992,P,98.5903549
11993,P,98.5903549
11994,P,243.623642
11995,P,243.623642
11996,P,445.78244
11997,P,445.78244
11998,P,372.723572
11999,P,372.723572
12000,P,137.88974
12001,P,137.88974
12002,P,242.754883
12003,P,242.754883
12004,P,1135.30042
12005,P,1135.30042
12006,P,225.419205
12007,P,225.419205
12008,P,375.022339
12009,P,375.022339
12010,P,130.355988
12011,P,130.355988
12012,P,430.294739
12013,P,430.294739
12014,P,35.3414955
12015,P,35.3414955
12016,P,426.418762
12017,P,426.418762
12018,P,362.290985
12019,P,362.290985
12020,P,89.5870056
12021,P,89.5870056
12022,P,1182.34363
12023,P,1182.34363
12024,P,94.9765549
12025,P,94.9765549
12026,P,366.681274
12027,P,366.681274
12028,P,444.978302
12029,P,444.978302
12030,P,252.54628
12031,P,252.54628
12032,P,447.640747
12033,P,447.640747
12034,P,378.074036
12035,P,378.074036
12036,P,240.903778
12037,P,240.903778
12038,P,1180.07214
12039,P,1180.07214
12040,P,238.777588
12041,P,238.777588
12042,P,377.075714
12043,P,377.075714
12044,P,447.847107
12045,P,447.847107
12046,P,-463.842865
12047,P,-463.842865
12048,P,967.557312
12049,P,967.557312
12050,P,323.198669
12051,P,323.198669
12052,P,383.684601
12053,P,383.684601
12054,P,-383.378082
12055,P,-383.378082
12056,P,-269.698975
12057,P,-269.698975
12058,P,-359.699524
12059,P,-359.699524
12060,P,366.283447
12061,P,366.283447
12062,P,397.192352
12063,P,397.192352
12064,P,-259.567627
12065,P,-259.567627
12066,P,-331.941101
12067,P,-331.941101
12068,P,388.807373
12069,P,388.807373
12070,P,457.949341
12071,P,457.949341
12072,P,-252.571732
12073,P,-252.571732
12074,P,-428.58313
12075,P,-428.58313
12076,P,994.309326
12077,P,994.309326
12078,P,418.551239
12079,P,418.551239
12080,P,-346.802002
12081,P,-346.802002
12082,P,-260.073914
12083,P,-260.073914
12084,P,380.299957
12085,P,380.299957
12086,P,-280.539429
12087,P,-280.539429
12088,P,442.114044
12089,P,442.114044
12090,P,500.936523
12091,P,500.936523
12092,P,-318.768341
12093,P,-318.768341
12094,P,1072.10925
12095,P,1072.10925
12096,P,-284.864624
12097,P,-284.864624
12098,P,484.852356
12099,P,484.852356
12100,P,433.07077
12101,P,433.07077
12102,P,410.001251
12103,P,410.001251
12104,P,-317.411224
12105,P,-317.411224
12106,P,484.211609
12107,P,484.211609
12108,P,-357.522491
12109,P,-357.522491
12110,P,1059.88696
12111,P,1059.88696
12112,P,-307.526093
12113,P,-307.526093
12114,P,493.317383
12115,P,493.317383
12116,P,421.132324
12117,P,421.132324
12118,P,-384.844788
12119,P,-384.844788
12120,P,320.480591
12121,P,320.480591
12122,P,382.933075
12123,P,382.933075
12124,P,-276.299316
12125,P,-276.299316
12126,P,-467.456421
12127,P,-467.456421
12128,P,968.052368
12129,P,968.052368
12130,P,391.598907
12131,P,391.598907
12132,P,-359.365601
12133,P,-359.365601
12134,P,-271.282623
12135,P,-271.282623
12136,P,355.77536
12137,P,355.77536
12138,P,-329.927887
12139,P,-329.927887
12140,P,380.681213
12141,P,380.681213
12142,P,455.906647
12143,P,455.906647
12144,P,-249.193329
12145,P,-249.193329
12146,P,-418.333466
12147,P,-418.333466
12148,P,986.765198
12149,P,986.765198
12150,P,-342.878113
12151,P,-342.878113
12152,P,418.084381
12153,P,418.084381
12154,P,-260.491394
12155,P,-260.491394
12156,P,375.834534
12157,P,375.834534
12158,P,-277.120758
12159,P,-277.120758
12160,P,441.881012
12161,P,441.881012
12162,P,507.713806
12163,P,507.713806
12164,P,-314.562714
12165,P,-314.562714
12166,P,1047.62915
12167,P,1047.62915
12168,P,-287.835205
12169,P,-287.835205
12170,P,494.737122
12171,P,494.737122
12172,P,433.034363
12173,P,433.034363
12174,P,-303.922516
12175,P,-303.922516
12176,P,403.973633
12177,P,403.973633
12178,P,480.105103
12179,P,480.105103
12180,P,-356.77475
12181,P,-356.77475
12182,P,1037.66431
12183,P,1037.66431
12184,P,-303.645752
12185,P,-303.645752
12186,P,493.093414
12187,P,493.093414
12188,P,421.180542
12189,P,421.180542
12190,P,149.854233
12191,P,149.854233
12192,P,424.49527
12193,P,424.49527
12194,P,401.099854
12195,P,401.099854
12196,P,95.5442276
12197,P,95.5442276
12198,P,188.119446
12199,P,188.119446
12200,P,1135.05872
12201,P,1135.05872
12202,P,178.158234
12203,P,178.158234
12204,P,383.071442
12205,P,383.071442
12206,P,114.21666
12207,P,114.21666
12208,P,437.27243
12209,P,437.27243
12210,P,278.353424
12211,P,278.353424
12212,P,451.923798
12213,P,451.923798
12214,P,378.18454
12215,P,378.18454
12216,P,157.8293
12217,P,157.8293
12218,P,274.343842
12219,P,274.343842
12220,P,1136.32642
12221,P,1136.32642
12222,P,380.086548
12223,P,380.086548
12224,P,256.247284
12225,P,256.247284
12226,P,150.69516
12227,P,150.69516
12228,P,435.118561
12229,P,435.118561
12230,P,8.27841282
12231,P,8.27841282
12232,P,422.619415
12233,P,422.619415
12234,P,360.001343
12235,P,360.001343
12236,P,61.5816498
12237,P,61.5816498
12238,P,1181.46387
12239,P,1181.46387
12240,P,62.0204735
12241,P,62.0204735
12242,P,368.690521
12243,P,368.690521
12244,P,445.361725
12245,P,445.361725
12246,P,452.960815
12247,P,452.960815
12248,P,266.094116
12249,P,266.094116
12250,P,381.818848
12251,P,381.818848
12252,P,236.867096
12253,P,236.867096
12254,P,1187.17908
12255,P,1187.17908
12256,P,235.82605
12257,P,235.82605
12258,P,380.245636
12259,P,380.245636
12260,P,449.896149
12261,P,449.896149
12262,P,-124.777771
12263,P,-124.777771
12264,P,345.897705
12265,P,345.897705
12266,P,294.638275
12267,P,294.638275
12268,P,-147.051941
12269,P,-147.051941
12270,P,-113.738922
12271,P,-113.738922
12272,P,1022.32281
12273,P,1022.32281
12274,P,291.958191
12275,P,291.958191
12276,P,-123.169533
12277,P,-123.169533
12278,P,-145.229599
12279,P,-145.229599
12280,P,347.888672
12281,P,347.888672
12282,P,-115.074066
12283,P,-115.074066
12284,P,347.645905
12285,P,347.645905
12286,P,290.535919
12287,P,290.535919
12288,P,-135.884094
12289,P,-135.884094
12290,P,-106.844147
12291,P,-106.844147
12292,P,1017.94977
12293,P,1017.94977
12294,P,-117.231644
12295,P,-117.231644
12296,P,290.153076
12297,P,290.153076
12298,P,-136.326538
12299,P,-136.326538
12300,P,346.715698
12301,P,346.715698
12302,P,-96.163681
12303,P,-96.163681
12304,P,335.609924
12305,P,335.609924
12306,P,283.184387
12307,P,283.184387
12308,P,-99.5343094
12309,P,-99.5343094
12310,P,985.871277
12311,P,985.871277
12312,P,-102.47966
12313,P,-102.47966
12314,P,282.67688
12315,P,282.67688
12316,P,334.853882
12317,P,334.853882
12318,P,-111.019501
12319,P,-111.019501
12320,P,346.604645
12321,P,346.604645
12322,P,288.111237
12323,P,288.111237
12324,P,-103.619751
12325,P,-103.619751
12326,P,1008.4021
12327,P,1008.4021
12328,P,-108.688072
12329,P,-108.688072
12330,P,284.449982
12331,P,284.449982
12332,P,340.596222
12333,P,340.596222
12334,P,-136.561737
12335,P,-136.561737
12336,P,344.315094
12337,P,344.315094
12338,P,293.107422
12339,P,293.107422
12340,P,-156.304123
12341,P,-156.304123
12342,P,-133.307617
12343,P,-133.307617
12344,P,1007.57227
12345,P,1007.57227
12346,P,-139.229019
12347,P,-139.229019
12348,P,295.82666
12349,P,295.82666
12350,P,-158.798828
12351,P,-158.798828
12352,P,349.446228
12353,P,349.446228
12354,P,-148.617996
12355,P,-148.617996
12356,P,362.516754
12357,P,362.516754
12358,P,304.484833
12359,P,304.484833
12360,P,-159.736145
12361,P,-159.736145
12362,P,-141.352417
12363,P,-141.352417
12364,P,1008.77875
12365,P,1008.77875
12366,P,301.225922
12367,P,301.225922
12368,P,-147.9077
12369,P,-147.9077
12370,P,-158.493301
12371,P,-158.493301
12372,P,352.512817
12373,P,352.512817
12374,P,-77.09758
12375,P,-77.09758
12376,P,418.157562
12377,P,418.157562
12378,P,346.937317
12379,P,346.937317
12380,P,-94.7620392
12381,P,-94.7620392
12382,P,1088.04651
12383,P,1088.04651
12384,P,-100.722816
12385,P,-100.722816
12386,P,337.950684
12387,P,337.950684
12388,P,396.457245
12389,P,396.457245
12390,P,368.287109
12391,P,368.287109
12392,P,-142.847656
12393,P,-142.847656
12394,P,318.101807
12395,P,318.101807
12396,P,-124.505814
12397,P,-124.505814
12398,P,1074.14526
12399,P,1074.14526
12400,P,-139.011475
12401,P,-139.011475
12402,P,321.704987
12403,P,321.704987
12404,P,390.044647
12405,P,390.044647
12406,P,38.7708969
12407,P,38.7708969
12408,P,438.209167
12409,P,438.209167
12410,P,458.193878
12411,P,458.193878
12412,P,27.9868774
12413,P,27.9868774
12414,P,13.436594
12415,P,13.436594
12416,P,953.751343
12417,P,953.751343
12418,P,515.270325
12419,P,515.270325
12420,P,20.4799156
12421,P,20.4799156
12422,P,10.4223337
12423,P,10.4223337
12424,P,486.836273
12425,P,486.836273
12426,P,-65.3664246
12427,P,-65.3664246
12428,P,461.849274
12429,P,461.849274
12430,P,532.668091
12431,P,532.668091
12432,P,-49.9493866
12433,P,-49.9493866
12434,P,-72.6712112
12435,P,-72.6712112
12436,P,1062.11011
12437,P,1062.11011
12438,P,-40.1435585
12439,P,-40.1435585
12440,P,558.042603
12441,P,558.042603
12442,P,-38.3372116
12443,P,-38.3372116
12444,P,474.792023
12445,P,474.792023
12446,P,-221.255356
12447,P,-221.255356
12448,P,426.317688
12449,P,426.317688
12450,P,441.287323
12451,P,441.287323
12452,P,-246.911301
12453,P,-246.911301
12454,P,1083.4613
12455,P,1083.4613
12456,P,-214.878433
12457,P,-214.878433
12458,P,485.046967
12459,P,485.046967
12460,P,427.60141
12461,P,427.60141
12462,P,-126.202354
12463,P,-126.202354
12464,P,442.285217
12465,P,442.285217
12466,P,472.631561
12467,P,472.631561
12468,P,-194.875885
12469,P,-194.875885
12470,P,1149.18225
12471,P,1149.18225
12472,P,-152.199387
12473,P,-152.199387
12474,P,481.9198
12475,P,481.9198
12476,P,412.820587
12477,P,412.820587
12478,P,-403.114746
12479,P,-403.114746
12480,P,329.872711
12481,P,329.872711
12482,P,362.020081
12483,P,362.020081
12484,P,-264.542114
12485,P,-264.542114
12486,P,-517.250061
12487,P,-517.250061
12488,P,849.601196
12489,P,849.601196
12490,P,-410.165375
12491,P,-410.165375
12492,P,362.285919
12493,P,362.285919
12494,P,-259.082397
12495,P,-259.082397
12496,P,332.455841
12497,P,332.455841
12498,P,-393.65274
12499,P,-393.65274
12500,P,321.723907
12501,P,321.723907
12502,P,397.6073
12503,P,397.6073
12504,P,-202.250366
12505,P,-202.250366
12506,P,-516.340698
12507,P,-516.340698
12508,P,822.612915
12509,P,822.612915
12510,P,374.717163
12511,P,374.717163
12512,P,-401.133789
12513,P,-401.133789
12514,P,-218.795364
12515,P,-218.795364
12516,P,348.851257
12517,P,348.851257
12518,P,-127.09697
12519,P,-127.09697
12520,P,272.216003
12521,P,272.216003
12522,P,295.922211
12523,P,295.922211
12524,P,-321.50769
12525,P,-321.50769
12526,P,796.914551
12527,P,796.914551
12528,P,-187.922913
12529,P,-187.922913
12530,P,302.400635
12531,P,302.400635
12532,P,297.897736
12533,P,297.897736
12534,P,315.723236
12535,P,315.723236
12536,P,-335.073364
12537,P,-335.073364
12538,P,345.536652
12539,P,345.536652
12540,P,-439.941101
12541,P,-439.941101
12542,P,778.838745
12543,P,778.838745
12544,P,-317.409485
12545,P,-317.409485
12546,P,342.283264
12547,P,342.283264
12548,P,294.531677
12549,P,294.531677
12550,P,875.078735
12551,P,875.078735
12552,P,-126.227158
12553,P,-126.227158
12554,P,862.210571
12555,P,862.210571
12556,P,-101.182297
12557,P,-101.182297
12558,P,240.078537
12559,P,240.078537
12560,P,53.3314362
12561,P,53.3314362
12562,P,260.639679
12563,P,260.639679
12564,P,-70.4584732
12565,P,-70.4584732
12566,P,474.856812
12567,P,474.856812
12568,P,127.973335
12569,P,127.973335
12570,P,317.047638
12571,P,317.047638
12572,P,27.6402683
12573,P,27.6402683
12574,P,49.4204445
12575,P,49.4204445
12576,P,75.3955078
12577,P,75.3955078
12578,P,272.014008
12579,P,272.014008
12580,P,920.758972
12581,P,920.758972
12582,P,236.619431
12583,P,236.619431
12584,P,76.2415848
12585,P,76.2415848
12586,P,268.752563
12587,P,268.752563
12588,P,-43.0794411
12589,P,-43.0794411
12590,P,470.603668
12591,P,470.603668
12592,P,152.024658
12593,P,152.024658
12594,P,271.784546
12595,P,271.784546
12596,P,106.580025
12597,P,106.580025
12598,P,-32.6670494
12599,P,-32.6670494
12600,P,234.446671
12601,P,234.446671
12602,P,317.005219
12603,P,317.005219
12604,P,302.603394
12605,P,302.603394
12606,P,258.917847
12607,P,258.917847
12608,P,389.445404
12609,P,389.445404
12610,P,-136.529678
12611,P,-136.529678
12612,P,394.001801
12613,P,394.001801
12614,P,-144.94957
12615,P,-144.94957
12616,P,278.007416
12617,P,278.007416
12618,P,253.769943
12619,P,253.769943
12620,P,415.908722
12621,P,415.908722
12622,P,-160.426529
12623,P,-160.426529
12624,P,263.818207
12625,P,263.818207
12626,P,383.008972
12627,P,383.008972
12628,P,-177.300156
12629,P,-177.300156
12630,P,59.0151749
12631,P,59.0151749
12632,P,219.205811
12633,P,219.205811
12634,P,246.170914
12635,P,246.170914
12636,P,356.85498
12637,P,356.85498
12638,P,237.785736
12639,P,237.785736
12640,P,347.7453
12641,P,347.7453
12642,P,210.968414
12643,P,210.968414
12644,P,297.99649
12645,P,297.99649
12646,P,236.95108
12647,P,236.95108
12648,P,316.225677
12649,P,316.225677
12650,P,-41.9675903
12651,P,-41.9675903
12652,P,-96.8824005
12653,P,-96.8824005
12654,P,-71.4437943
12655,P,-71.4437943
12656,P,257.121246
12657,P,257.121246
12658,P,646.40509
12659,P,646.40509
12660,P,661.407104
12661,P,661.407104
12662,P,-25.7984047
12663,P,-25.7984047
12664,P,471.38739
12665,P,471.38739
12666,P,345.811829
12667,P,345.811829
12668,P,564.970032
12669,P,564.970032
12670,P,33.929657
12671,P,33.929657
12672,P,538.053528
12673,P,538.053528
12674,P,648.19751
12675,P,648.19751
12676,P,15.764246
12677,P,15.764246
12678,P,-27.3623829
12679,P,-27.3623829
12680,P,-45.8681259
12681,P,-45.8681259
12682,P,-60.7107201
12683,P,-60.7107201
12684,P,-63.4701576
12685,P,-63.4701576
12686,P,208.934753
12687,P,208.934753
12688,P,524.84491
12689,P,524.84491
12690,P,170.0923
12691,P,170.0923
12692,P,515.237732
12693,P,515.237732
12694,P,170.936218
12695,P,170.936218
12696,P,480.879486
12697,P,480.879486
12698,P,178.958084
12699,P,178.958084
12700,P,517.075256
12701,P,517.075256
12702,P,215.785629
12703,P,215.785629
12704,P,257.540131
12705,P,257.540131
12706,P,-176.588364
12707,P,-176.588364
12708,P,254.168274
12709,P,254.168274
12710,P,-168.416656
12711,P,-168.416656
12712,P,210.922516
12713,P,210.922516
12714,P,207.102737
12715,P,207.102737
12716,P,249.618378
12717,P,249.618378
12718,P,-157.538147
12719,P,-157.538147
12720,P,212.210587
12721,P,212.210587
12722,P,250.447906
12723,P,250.447906
12724,P,-158.123184
12725,P,-158.123184
12726,P,-163.611526
12727,P,-163.611526
12728,P,219.984039
12729,P,219.984039
12730,P,268.143158
12731,P,268.143158
12732,P,229.619431
12733,P,229.619431
12734,P,271.158295
12735,P,271.158295
12736,P,248.741699
12737,P,248.741699
12738,P,287.957886
12739,P,287.957886
12740,P,236.500397
12741,P,236.500397
12742,P,285.853455
12743,P,285.853455
12744,P,-175.446167
12745,P,-175.446167
12746,P,-164.608109
12747,P,-164.608109
12748,P,-140.51268
12749,P,-140.51268
12750,P,-160.80722
12751,P,-160.80722
12752,P,198.673325
12753,P,198.673325
12754,P,240.993271
12755,P,240.993271
12756,P,242.664017
12757,P,242.664017
12758,P,-136.626114
12759,P,-136.626114
12760,P,198.617569
12761,P,198.617569
12762,P,205.624069
12763,P,205.624069
12764,P,244.632416
12765,P,244.632416
12766,P,-147.43396
12767,P,-147.43396
12768,P,202.34137
12769,P,202.34137
12770,P,245.396179
12771,P,245.396179
12772,P,-143.65123
12773,P,-143.65123
12774,P,-134.742401
12775,P,-134.742401
12776,P,-128.163177
12777,P,-128.163177
12778,P,-122.401955
12779,P,-122.401955
12780,P,-122.364342
12781,P,-122.364342
12782,P,200.344803
12783,P,200.344803
12784,P,240.12175
12785,P,240.12175
12786,P,199.775223
12787,P,199.775223
12788,P,239.747711
12789,P,239.747711
12790,P,202.267181
12791,P,202.267181
12792,P,235.627502
12793,P,235.627502
12794,P,201.067352
12795,P,201.067352
12796,P,238.32283
12797,P,238.32283
12798,P,-135.591949
12799,P,-135.591949
12800,P,241.080368
12801,P,241.080368
12802,P,306.20282
12803,P,306.20282
12804,P,96.4446411
12805,P,96.4446411
12806,P,310.375366
12807,P,310.375366
12808,P,93.1300583
12809,P,93.1300583
12810,P,222.875214
12811,P,222.875214
12812,P,285.283295
12813,P,285.283295
12814,P,373.939667
12815,P,373.939667
12816,P,62.1910439
12817,P,62.1910439
12818,P,226.076324
12819,P,226.076324
12820,P,334.25235
12821,P,334.25235
12822,P,73.5987778
12823,P,73.5987778
12824,P,-23.7294788
12825,P,-23.7294788
12826,P,-136.213196
12827,P,-136.213196
12828,P,244.753433
12829,P,244.753433
12830,P,308.566498
12831,P,308.566498
12832,P,249.913788
12833,P,249.913788
12834,P,308.038086
12835,P,308.038086
12836,P,245.173538
12837,P,245.173538
12838,P,303.386292
12839,P,303.386292
12840,P,249.859314
12841,P,249.859314
12842,P,304.551636
12843,P,304.551636
12844,P,43.1407166
12845,P,43.1407166
12846,P,38.0058098
12847,P,38.0058098
12848,P,47.9738159
12849,P,47.9738159
12850,P,196.547119
12851,P,196.547119
12852,P,448.619049
12853,P,448.619049
12854,P,427.965332
12855,P,427.965332
12856,P,-181.176926
12857,P,-181.176926
12858,P,229.907257
12859,P,229.907257
12860,P,233.735458
12861,P,233.735458
12862,P,415.029572
12863,P,415.029572
12864,P,-200.105515
12865,P,-200.105515
12866,P,235.449768
12867,P,235.449768
12868,P,419.71109
12869,P,419.71109
12870,P,-174.946503
12871,P,-174.946503
12872,P,-72.2838974
12873,P,-72.2838974
12874,P,-73.8552094
12875,P,-73.8552094
12876,P,-58.0960312
12877,P,-58.0960312
12878,P,-76.7944794
12879,P,-76.7944794
12880,P,196.691086
12881,P,196.691086
12882,P,467.929321
12883,P,467.929321
12884,P,185.296295
12885,P,185.296295
12886,P,475.754517
12887,P,475.754517
12888,P,183.594971
12889,P,183.594971
12890,P,505.756958
12891,P,505.756958
12892,P,181.287552
12893,P,181.287552
12894,P,483.156586
12895,P,483.156586
12896,P,188.409088
12897,P,188.409088
12898,P,445.489258
12899,P,445.489258
12900,P,224.117523
12901,P,224.117523
12902,P,427.773376
12903,P,427.773376
12904,P,230.757126
12905,P,230.757126
12906,P,417.716431
12907,P,417.716431
12908,P,-199.838226
12909,P,-199.838226
12910,P,227.40979
12911,P,227.40979
12912,P,421.060852
12913,P,421.060852
12914,P,-164.53096
12915,P,-164.53096
12916,P,-57.7142143
12917,P,-57.7142143
12918,P,-59.3042183
12919,P,-59.3042183
12920,P,-67.125824
12921,P,-67.125824
12922,P,-83.3974915
12923,P,-83.3974915
12924,P,-75.4281693
12925,P,-75.4281693
12926,P,191.158264
12927,P,191.158264
12928,P,465.497711
12929,P,465.497711
12930,P,186.600845
12931,P,186.600845
12932,P,475.198334
12933,P,475.198334
12934,P,191.445984
12935,P,191.445984
12936,P,508.837891
12937,P,508.837891
12938,P,185.580444
12939,P,185.580444
12940,P,490.537903
12941,P,490.537903
12942,P,245.240982
12943,P,245.240982
12944,P,310.534546
12945,P,310.534546
12946,P,228.882721
12947,P,228.882721
12948,P,314.727936
12949,P,314.727936
12950,P,111.479134
12951,P,111.479134
12952,P,285.021576
12953,P,285.021576
12954,P,377.648773
12955,P,377.648773
12956,P,229.365799
12957,P,229.365799
12958,P,337.414764
12959,P,337.414764
12960,P,42.6838188
12961,P,42.6838188
12962,P,-145.234421
12963,P,-145.234421
12964,P,-65.6641006
12965,P,-65.6641006
12966,P,60.1148491
12967,P,60.1148491
12968,P,247.075607
12969,P,247.075607
12970,P,311.878143
12971,P,311.878143
12972,P,249.99881
12973,P,249.99881
12974,P,311.286102
12975,P,311.286102
12976,P,248.068237
12977,P,248.068237
12978,P,299.214935
12979,P,299.214935
12980,P,248.96698
12981,P,248.96698
12982,P,305.712067
12983,P,305.712067
12984,P,201.669815
12985,P,201.669815
12986,P,241.13266
12987,P,241.13266
12988,P,207.178299
12989,P,207.178299
12990,P,239.558426
12991,P,239.558426
12992,P,207.055481
12993,P,207.055481
12994,P,247.813522
12995,P,247.813522
12996,P,-149.299866
12997,P,-149.299866
12998,P,207.889175
12999,P,207.889175
13000,P,241.892426
13001,P,241.892426
13002,P,-145.429932
13003,P,-145.429932
13004,P,-129.645737
13005,P,-129.645737
13006,P,-129.977325
13007,P,-129.977325
13008,P,-138.828506
13009,P,-138.828506
13010,P,-137.591599
13011,P,-137.591599
13012,P,-133.454514
13013,P,-133.454514
13014,P,204.092697
13015,P,204.092697
13016,P,239.087662
13017,P,239.087662
13018,P,206.259369
13019,P,206.259369
13020,P,235.63942
13021,P,235.63942
13022,P,203.341339
13023,P,203.341339
13024,P,235.575638
13025,P,235.575638
13026,P,204.943268
13027,P,204.943268
13028,P,233.973602
13029,P,233.973602
13030,P,219.554565
13031,P,219.554565
13032,P,258.070465
13033,P,258.070465
13034,P,214.1091
13035,P,214.1091
13036,P,255.023743
13037,P,255.023743
13038,P,-163.077911
13039,P,-163.077911
13040,P,207.362228
13041,P,207.362228
13042,P,246.956238
13043,P,246.956238
13044,P,210.193893
13045,P,210.193893
13046,P,247.700455
13047,P,247.700455
13048,P,-171.85318
13049,P,-171.85318
13050,P,-184.145065
13051,P,-184.145065
13052,P,-158.633545
13053,P,-158.633545
13054,P,224.34404
13055,P,224.34404
13056,P,269.804138
13057,P,269.804138
13058,P,235.374298
13059,P,235.374298
13060,P,271.994141
13061,P,271.994141
13062,P,242.210648
13063,P,242.210648
13064,P,292.382874
13065,P,292.382874
13066,P,236.711212
13067,P,236.711212
13068,P,285.023407
13069,P,285.023407
13070,P,262.85495
13071,P,262.85495
13072,P,650.175049
13073,P,650.175049
13074,P,482.198975
13075,P,482.198975
13076,P,664.875366
13077,P,664.875366
13078,P,349.354095
13079,P,349.354095
13080,P,563.432434
13081,P,563.432434
13082,P,21.675293
13083,P,21.675293
13084,P,552.315125
13085,P,552.315125
13086,P,644.537964
13087,P,644.537964
13088,P,5.50700712
13089,P,5.50700712
13090,P,-48.6571426
13091,P,-48.6571426
13092,P,-50.4775085
13093,P,-50.4775085
13094,P,-39.8384132
13095,P,-39.8384132
13096,P,-12.245491
13097,P,-12.245491
13098,P,18.7246113
13099,P,18.7246113
13100,P,210.456329
13101,P,210.456329
13102,P,525.897217
13103,P,525.897217
13104,P,178.085861
13105,P,178.085861
13106,P,518.042542
13107,P,518.042542
13108,P,170.539948
13109,P,170.539948
13110,P,485.230957
13111,P,485.230957
13112,P,193.617584
13113,P,193.617584
13114,P,522.78717
13115,P,522.78717
13116,P,256.773376
13117,P,256.773376
13118,P,390.576172
13119,P,390.576172
13120,P,279.220245
13121,P,279.220245
13122,P,393.258118
13123,P,393.258118
13124,P,-150.741455
13125,P,-150.741455
13126,P,254.936264
13127,P,254.936264
13128,P,415.881958
13129,P,415.881958
13130,P,264.186676
13131,P,264.186676
13132,P,381.417267
13133,P,381.417267
13134,P,-34.5945015
13135,P,-34.5945015
13136,P,249.145279
13137,P,249.145279
13138,P,88.0084534
13139,P,88.0084534
13140,P,-94.6297684
13141,P,-94.6297684
13142,P,243.087219
13143,P,243.087219
13144,P,359.875977
13145,P,359.875977
13146,P,228.436539
13147,P,228.436539
13148,P,347.062744
13149,P,347.062744
13150,P,196.156769
13151,P,196.156769
13152,P,285.273773
13153,P,285.273773
13154,P,223.557175
13155,P,223.557175
13156,P,304.411835
13157,P,304.411835
13158,P,355.416687
13159,P,355.416687
13160,P,793.333801
13161,P,793.333801
13162,P,1306.91406
13163,P,1306.91406
13164,P,177.550659
13165,P,177.550659
13166,P,248.670486
13167,P,248.670486
13168,P,236.043579
13169,P,236.043579
13170,P,206.552277
13171,P,206.552277
13172,P,222.67598
13173,P,222.67598
13174,P,296.165924
13175,P,296.165924
13176,P,1372.8645
13177,P,1372.8645
13178,P,192.746246
13179,P,192.746246
13180,P,270.982544
13181,P,270.982544
13182,P,239.454086
13183,P,239.454086
13184,P,278.58374
13185,P,278.58374
13186,P,298.107971
13187,P,298.107971
13188,P,581.105652
13189,P,581.105652
13190,P,1393.42273
13191,P,1393.42273
13192,P,1451.20239
13193,P,1451.20239
13194,P,1414.82263
13195,P,1414.82263
13196,P,1414.82263
13197,P,1628.72803
13198,P,1628.72803
13199,P,1169.22559
13200,P,1169.22559
13201,P,1552.55176
13202,P,1552.55176
13203,P,1134.12305
13204,P,1134.12305
13205,P,1394.20374
13206,P,1394.20374
13207,P,1388.0907
13208,P,1388.0907
13209,P,1431.10962
13210,P,1431.10962
13211,P,1431.10962
13212,P,1684.06458
13213,P,1684.06458
13214,P,1172.4353
13215,P,1172.4353
13216,P,1634.59253
13217,P,1634.59253
13218,P,1153.15039
13219,P,1153.15039
13220,P,-315.398956
13221,P,-315.398956
13222,P,-315.398956
13223,P,1443.13721
13224,P,1443.13721
13225,P,1439.83594
13226,P,1439.83594
13227,P,1054.96936
13228,P,1054.96936
13229,P,1096.42236
13230,P,1096.42236
13231,P,899.499329
13232,P,899.499329
13233,P,1203.66614
13234,P,1203.66614
13235,P,953.536011
13236,P,953.536011
13237,P,1453.79675
13238,P,1453.79675
13239,P,492.515747
13240,P,492.515747
13241,P,359.981354
13242,P,359.981354
13243,P,911.451355
13244,P,911.451355
13245,P,954.877808
13246,P,954.877808
13247,P,772.32019
13248,P,772.32019
13249,P,1076.50134
13250,P,1076.50134
13251,P,828.402649
13252,P,828.402649
13253,P,1623.70483
13254,P,1623.70483
13255,P,1623.70483
13256,P,582.527771
13257,P,582.527771
13258,P,839.151611
13259,P,839.151611
13260,P,385.628082
13261,P,385.628082
13262,P,385.628082
13263,P,835.427124
13264,P,835.427124
13265,P,1624.4519
13266,P,1624.4519
13267,P,1624.4519
13268,P,836.847107
13269,P,836.847107
13270,P,396.08728
13271,P,396.08728
13272,P,396.08728
13273,P,799.58551
13274,P,799.58551
13275,P,-371.810394
13276,P,-371.810394
13277,P,1873.35046
13278,P,1873.35046
13279,P,1873.35046
13280,P,1873.35046
13281,P,-610.626648
13282,P,-610.626648
13283,P,-610.626648
13284,P,-610.626648
13285,P,765.125916
13286,P,765.125916
13287,P,-682.166687
13288,P,-682.166687
13289,P,-682.166687
13290,P,-682.166687
13291,P,-371.810394
13292,P,-371.810394
13293,P,-371.810394
13294,P,-371.810394
13295,P,-476.11441
13296,P,-476.11441
13297,P,-476.11441
13298,P,-476.11441
*BOUNDARY
MOUNT, 1, 6
*END STEP
