*HEADING
Wing shell from CFD pressure
*NODE
1,0.0705259964,-0.000146785998,-0.362361014
2,0.0705344975,-0.000321711996,0.362361014
3,0.0751926005,0.000103703002,-0.341966987
4,0.075202398,-8.3005099e-05,0.341966987
5,0.0753670037,0.000113064998,-0.3125
6,0.0753670037,0.000113064998,-0.28125
7,0.0753670037,0.000113064998,-0.25
8,0.0753670037,0.000113064998,-0.21875
9,0.0753727034,1.09622e-05,-4.8855e-07
10,0.0753768012,-7.4084201e-05,-0.1875
11,0.0753768012,-7.4084201e-05,-0.15625
12,0.0753768012,-7.4084201e-05,-0.125
13,0.0753768012,-7.4084201e-05,-0.09375
14,0.0753768012,-7.4084201e-05,-0.0625
15,0.0753768012,-7.4084201e-05,-0.03125
16,0.0753768012,-7.4084201e-05,0.03125
17,0.0753768012,-7.4084201e-05,0.0625
18,0.0753768012,-7.4084201e-05,0.09375
19,0.0753768012,-7.4084201e-05,0.125
20,0.0753768012,-7.4084201e-05,0.15625
21,0.0753768012,-7.4084201e-05,0.1875
22,0.0753768012,-7.4084201e-05,0.21875
23,0.0753768012,-7.4084201e-05,0.25
24,0.0753768012,-7.4084201e-05,0.28125
25,0.0753768012,-7.4084201e-05,0.3125
26,0.102954999,0.00159391004,-0.359369993
27,0.102972001,0.00133710995,0.359369993
28,0.103283003,0.0167602003,-0.341601998
29,0.103283003,0.0167602003,0.341601998
30,0.103336997,-0.0138211995,-0.341733009
31,0.103336997,-0.0138211995,0.341733009
32,0.103344999,0.0193687007,-0.28125
33,0.103344999,0.0193687007,-0.25
34,0.103344999,0.0193687007,-0.21875
35,0.103344999,0.0193687007,-0.1875
36,0.103344999,0.0193687007,-0.15625
37,0.103344999,0.0193687007,-0.125
38,0.103344999,0.0193687007,-0.09375
39,0.103344999,0.0193687007,-0.0625
40,0.103344999,0.0193687007,-0.03125
41,0.103344999,0.0193687007,-0
42,0.103344999,0.0193687007,0.03125
43,0.103344999,0.0193687007,0.0625
44,0.103344999,0.0193687007,0.09375
45,0.103344999,0.0193687007,0.125
46,0.103344999,0.0193687007,0.15625
47,0.103344999,0.0193687007,0.1875
48,0.103344999,0.0193687007,0.21875
49,0.103344999,0.0193687007,0.25
50,0.103344999,0.0193687007,0.28125
51,0.103347003,-0.0164330006,-0.3125
52,0.103347003,-0.0164330006,-0.28125
53,0.103347003,-0.0164330006,-0.25
54,0.103347003,-0.0164330006,-0.21875
55,0.103347003,-0.0164330006,-0.1875
56,0.103347003,-0.0164330006,-0.15625
57,0.103347003,-0.0164330006,-0.125
58,0.103347003,-0.0164330006,-0.09375
59,0.103347003,-0.0164330006,-0.0625
60,0.103347003,-0.0164330006,-0.03125
61,0.103347003,-0.0164330006,-1e-12
62,0.103347003,-0.0164330006,0.03125
63,0.103347003,-0.0164330006,0.0625
64,0.103347003,-0.0164330006,0.09375
65,0.103347003,-0.0164330006,0.125
66,0.103347003,-0.0164330006,0.15625
67,0.103347003,-0.0164330006,0.1875
68,0.103347003,-0.0164330006,0.21875
69,0.103347003,-0.0164330006,0.25
70,0.103347003,-0.0164330006,0.28125
71,0.103347003,-0.0164330006,0.3125
72,0.103474997,0.0154716,-0.312584996
73,0.103474997,0.0154716,0.312584996
74,0.148913994,-0.0121437004,-0.3125
75,0.148913994,-0.0121437004,-0.28125
76,0.148913994,-0.0121437004,-0.25
77,0.148913994,-0.0121437004,-0.21875
78,0.148913994,-0.0121437004,-0.1875
79,0.148913994,-0.0121437004,-0.15625
80,0.148913994,-0.0121437004,-0.125
81,0.148913994,-0.0121437004,-0.09375
82,0.148913994,-0.0121437004,-0.0625
83,0.148913994,-0.0121437004,-0.03125
84,0.148913994,-0.0121437004,0
85,0.148913994,-0.0121437004,0.03125
86,0.148913994,-0.0121437004,0.0625
87,0.148913994,-0.0121437004,0.09375
88,0.148913994,-0.0121437004,0.125
89,0.148913994,-0.0121437004,0.15625
90,0.148913994,-0.0121437004,0.1875
91,0.148913994,-0.0121437004,0.21875
92,0.148913994,-0.0121437004,0.25
93,0.148913994,-0.0121437004,0.28125
94,0.148913994,-0.0121437004,0.3125
95,0.149390996,-0.0120889004,-0.341618001
96,0.149390996,-0.0120889004,0.341618001
97,0.149780005,0.00410730997,-0.359142005
98,0.149809003,0.00373228989,0.359142005
99,0.149978995,0.0197749007,-0.3125
100,0.149978995,0.0197749007,-0.28125
101,0.149978995,0.0197749007,-0.25
102,0.149978995,0.0197749007,-0.21875
103,0.149978995,0.0197749007,-0.1875
104,0.149978995,0.0197749007,-0.15625
105,0.149978995,0.0197749007,-0.125
106,0.149978995,0.0197749007,-0.09375
107,0.149978995,0.0197749007,-0.0625
108,0.149978995,0.0197749007,-0.03125
109,0.149978995,0.0197749007,0
110,0.149978995,0.0197749007,0.03125
111,0.149978995,0.0197749007,0.0625
112,0.149978995,0.0197749007,0.09375
113,0.149978995,0.0197749007,0.125
114,0.149978995,0.0197749007,0.15625
115,0.149978995,0.0197749007,0.1875
116,0.149978995,0.0197749007,0.21875
117,0.149978995,0.0197749007,0.25
118,0.149978995,0.0197749007,0.28125
119,0.149978995,0.0197749007,0.3125
120,0.150001004,0.0174844004,-0.341614008
121,0.150001004,0.0174844004,0.341614008
122,0.194991007,-0.00617056014,-0.3125
123,0.194991007,-0.00617056014,-0.28125
124,0.194991007,-0.00617056014,-0.25
125,0.194991007,-0.00617056014,-0.21875
126,0.194991007,-0.00617056014,-0.1875
127,0.194991007,-0.00617056014,-0.15625
128,0.194991007,-0.00617056014,-0.125
129,0.194991007,-0.00617056014,-0.09375
130,0.194991007,-0.00617056014,-0.0625
131,0.194991007,-0.00617056014,-0.03125
132,0.194991007,-0.00617056014,1e-12
133,0.194991007,-0.00617056014,0.03125
134,0.194991007,-0.00617056014,0.0625
135,0.194991007,-0.00617056014,0.09375
136,0.194991007,-0.00617056014,0.125
137,0.194991007,-0.00617056014,0.15625
138,0.194991007,-0.00617056014,0.1875
139,0.194991007,-0.00617056014,0.21875
140,0.194991007,-0.00617056014,0.25
141,0.194991007,-0.00617056014,0.28125
142,0.194991007,-0.00617056014,0.3125
143,0.195472002,-0.0061019198,-0.341713995
144,0.195472002,-0.0061019198,0.341713995
145,0.196633995,0.0185675994,-0.3125
146,0.196633995,0.0185675994,-0.28125
147,0.196633995,0.0185675994,-0.25
148,0.196633995,0.0185675994,-0.21875
149,0.196633995,0.0185675994,-0.1875
150,0.196633995,0.0185675994,-0.15625
151,0.196633995,0.0185675994,-0.125
152,0.196633995,0.0185675994,-0.09375
153,0.196633995,0.0185675994,-0.0625
154,0.196633995,0.0185675994,-0.03125
155,0.196633995,0.0185675994,0
156,0.196633995,0.0185675994,0.03125
157,0.196633995,0.0185675994,0.0625
158,0.196633995,0.0185675994,0.09375
159,0.196633995,0.0185675994,0.125
160,0.196633995,0.0185675994,0.15625
161,0.196633995,0.0185675994,0.1875
162,0.196633995,0.0185675994,0.21875
163,0.196633995,0.0185675994,0.25
164,0.196633995,0.0185675994,0.28125
165,0.196633995,0.0185675994,0.3125
166,0.196730003,0.0167941004,-0.341636986
167,0.196730003,0.0167941004,0.341636986
168,0.197610006,-0.0045231902,-0.359228998
169,0.197610006,-0.0045231902,0.359228998
170,0.224445,0.00116044004,-0.281278014
171,0.224445,0.00116044004,0.281278014
172,0.224562004,0.000413138012,-0.312510014
173,0.224562004,0.000413138012,0.312510014
174,0.224842995,-0.000264778006,-0.341960996
175,0.224842995,-0.000264778006,0.341960996
176,0.224889994,-0.00168027997,-0.25
177,0.224889994,-0.00168027997,-0.21875
178,0.224889994,-0.00168027997,-0.1875
179,0.224889994,-0.00168027997,-0.15625
180,0.224889994,-0.00168027997,-0.125
181,0.224889994,-0.00168027997,-0.09375
182,0.224889994,-0.00168027997,-0.0625
183,0.224889994,-0.00168027997,-0.03125
184,0.224889994,-0.00168027997,-0
185,0.224889994,-0.00168027997,0.03125
186,0.224889994,-0.00168027997,0.0625
187,0.224889994,-0.00168027997,0.09375
188,0.224889994,-0.00168027997,0.125
189,0.224889994,-0.00168027997,0.15625
190,0.224889994,-0.00168027997,0.1875
191,0.224889994,-0.00168027997,0.21875
192,0.224889994,-0.00168027997,0.25
193,0.229494005,-7.8077501e-05,-0.362358987
194,0.229494005,-7.8077501e-05,0.362358987
*ELEMENT, TYPE=S3, ELSET=ALL_SHELL
1,174,166,168
2,168,193,174
3,147,176,177
4,177,148,147
5,151,180,181
6,181,152,151
7,155,184,185
8,185,156,155
9,159,188,189
10,189,160,159
11,171,164,163
12,163,192,171
13,143,168,97
14,97,95,143
15,124,123,75
16,75,76,124
17,124,76,77
18,77,125,124
19,128,127,79
20,79,80,128
21,128,80,81
22,81,129,128
23,84,132,131
24,131,83,84
25,132,84,85
26,85,133,132
27,136,135,87
28,87,88,136
29,136,88,89
30,89,137,136
31,140,139,91
32,91,92,140
33,140,92,93
34,93,141,140
35,144,96,98
36,98,169,144
37,123,124,176
38,176,170,123
39,3,1,26
40,26,28,3
41,72,5,3
42,3,28,72
43,128,180,179
44,179,127,128
45,33,34,8
46,8,7,33
47,8,34,35
48,35,10,8
49,184,183,131
50,131,132,184
51,37,38,13
52,13,12,37
53,39,14,13
54,13,38,39
55,136,188,187
56,187,135,136
57,9,41,42
58,42,16,9
59,43,17,16
60,16,42,43
61,140,192,191
62,191,139,140
63,45,46,20
64,20,19,45
65,47,21,20
66,20,46,47
67,175,144,169
68,169,194,175
69,49,50,24
70,24,23,49
71,73,25,24
72,24,50,73
73,95,97,26
74,26,30,95
75,95,74,122
76,122,143,95
77,74,95,30
78,30,51,74
79,53,52,6
80,6,7,53
81,51,5,6
82,6,52,51
83,122,74,75
84,75,123,122
85,53,76,75
86,75,52,53
87,51,52,75
88,75,74,51
89,53,54,77
90,77,76,53
91,126,125,77
92,77,78,126
93,55,78,77
94,77,54,55
95,57,56,11
96,11,12,57
97,55,10,11
98,11,56,55
99,126,78,79
100,79,127,126
101,57,80,79
102,79,56,57
103,55,56,79
104,79,78,55
105,57,58,81
106,81,80,57
107,130,129,81
108,81,82,130
109,59,82,81
110,81,58,59
111,15,9,61
112,61,60,15
113,59,14,15
114,15,60,59
115,130,82,83
116,83,131,130
117,61,84,83
118,83,60,61
119,59,60,83
120,83,82,59
121,84,61,62
122,62,85,84
123,134,133,85
124,85,86,134
125,63,86,85
126,85,62,63
127,65,64,18
128,18,19,65
129,63,17,18
130,18,64,63
131,134,86,87
132,87,135,134
133,65,88,87
134,87,64,65
135,63,64,87
136,87,86,63
137,65,66,89
138,89,88,65
139,138,137,89
140,89,90,138
141,67,90,89
142,89,66,67
143,69,68,22
144,22,23,69
145,67,21,22
146,22,68,67
147,138,90,91
148,91,139,138
149,69,92,91
150,91,68,69
151,67,68,91
152,91,90,67
153,69,70,93
154,93,92,69
155,142,141,93
156,93,94,142
157,71,94,93
158,93,70,71
159,4,2,27
160,27,31,4
161,31,71,25
162,25,4,31
163,96,144,142
164,142,94,96
165,96,31,27
166,27,98,96
167,94,71,31
168,31,96,94
169,166,174,172
170,172,145,166
171,149,148,177
172,177,178,149
173,153,152,181
174,181,182,153
175,157,156,185
176,185,186,157
177,161,160,189
178,189,190,161
179,171,173,165
180,165,164,171
181,172,122,123
182,123,170,172
183,126,127,179
184,179,178,126
185,130,131,183
186,183,182,130
187,134,135,187
188,187,186,134
189,138,139,191
190,191,190,138
191,144,175,173
192,173,142,144
193,174,193,168
194,168,143,174
195,124,125,177
196,177,176,124
197,128,129,181
198,181,180,128
199,132,133,185
200,185,184,132
201,136,137,189
202,189,188,136
203,141,171,192
204,192,140,141
205,97,168,166
206,166,120,97
207,147,101,100
208,100,146,147
209,147,148,102
210,102,101,147
211,151,105,104
212,104,150,151
213,151,152,106
214,106,105,151
215,109,108,154
216,154,155,109
217,155,156,110
218,110,109,155
219,159,113,112
220,112,158,159
221,159,160,114
222,114,113,159
223,163,117,116
224,116,162,163
225,163,164,118
226,118,117,163
227,98,121,167
228,167,169,98
229,170,176,147
230,147,146,170
231,3,30,26
232,26,1,3
233,30,3,5
234,5,51,30
235,151,150,179
236,179,180,151
237,53,7,8
238,8,54,53
239,10,55,54
240,54,8,10
241,184,155,154
242,154,183,184
243,57,12,13
244,13,58,57
245,59,58,13
246,13,14,59
247,159,158,187
248,187,188,159
249,16,62,61
250,61,9,16
251,63,62,16
252,16,17,63
253,163,162,191
254,191,192,163
255,65,19,20
256,20,66,65
257,67,66,20
258,20,21,67
259,175,194,169
260,169,167,175
261,69,23,24
262,24,70,69
263,71,70,24
264,24,25,71
265,97,120,28
266,28,26,97
267,145,99,120
268,120,166,145
269,72,28,120
270,120,99,72
271,33,7,6
272,6,32,33
273,72,32,6
274,6,5,72
275,145,146,100
276,100,99,145
277,33,32,100
278,100,101,33
279,99,100,32
280,32,72,99
281,33,101,102
282,102,34,33
283,149,103,102
284,102,148,149
285,35,34,102
286,102,103,35
287,37,12,11
288,11,36,37
289,35,36,11
290,11,10,35
291,149,150,104
292,104,103,149
293,37,36,104
294,104,105,37
295,35,103,104
296,104,36,35
297,37,105,106
298,106,38,37
299,153,107,106
300,106,152,153
301,39,38,106
302,106,107,39
303,9,15,40
304,40,41,9
305,39,40,15
306,15,14,39
307,153,154,108
308,108,107,153
309,41,40,108
310,108,109,41
311,39,107,108
312,108,40,39
313,109,110,42
314,42,41,109
315,157,111,110
316,110,156,157
317,43,42,110
318,110,111,43
319,45,19,18
320,18,44,45
321,43,44,18
322,18,17,43
323,157,158,112
324,112,111,157
325,45,44,112
326,112,113,45
327,43,111,112
328,112,44,43
329,45,113,114
330,114,46,45
331,161,115,114
332,114,160,161
333,47,46,114
334,114,115,47
335,49,23,22
336,22,48,49
337,47,48,22
338,22,21,47
339,161,162,116
340,116,115,161
341,49,48,116
342,116,117,49
343,47,115,116
344,116,48,47
345,49,117,118
346,118,50,49
347,165,119,118
348,118,164,165
349,119,73,50
350,50,118,119
351,4,29,27
352,27,2,4
353,73,29,4
354,4,25,73
355,165,167,121
356,121,119,165
357,98,27,29
358,29,121,98
359,73,119,121
360,121,29,73
361,143,122,172
362,172,174,143
363,126,178,177
364,177,125,126
365,130,182,181
366,181,129,130
367,134,186,185
368,185,133,134
369,138,190,189
370,189,137,138
371,173,171,141
372,141,142,173
373,170,146,145
374,145,172,170
375,149,178,179
376,179,150,149
377,153,182,183
378,183,154,153
379,157,186,187
380,187,158,157
381,161,190,191
382,191,162,161
383,167,165,173
384,173,175,167
*MATERIAL, NAME=CFRP
*ELASTIC
7e+10,0.3
*DENSITY
1600
*SHELL SECTION, ELSET=ALL_SHELL, MATERIAL=CFRP
0.0025
*NSET, NSET=ALLNODES, GENERATE
1,194,1
*NSET, NSET=MOUNT
1,2
*STEP
*STATIC
*NODE PRINT, NSET=ALLNODES
U
*EL PRINT, ELSET=ALL_SHELL
S
*NODE FILE, NSET=ALLNODES
U
*EL FILE, ELSET=ALL_SHELL
S
*DLOAD
1,P,391.899963
2,P,391.899963
3,P,1025.86938
4,P,1025.86938
5,P,1086.59998
6,P,1086.59998
7,P,1096.04004
8,P,1096.04004
9,P,1079.38013
10,P,1079.38013
11,P,975.769531
12,P,975.769531
13,P,264.492249
14,P,264.492249
15,P,672.52655
16,P,672.52655
17,P,695.626343
18,P,695.626343
19,P,717.618408
20,P,717.618408
21,P,720.076599
22,P,720.076599
23,P,723.358093
24,P,723.358093
25,P,723.385803
26,P,723.385803
27,P,720.150024
28,P,720.150024
29,P,717.612
30,P,717.612
31,P,693.48822
32,P,693.48822
33,P,670.18988
34,P,670.18988
35,P,266.190887
36,P,266.190887
37,P,208.227493
38,P,208.227493
39,P,-219.718002
40,P,-219.718002
41,P,-505.236206
42,P,-505.236206
43,P,185.559875
44,P,185.559875
45,P,-702.140259
46,P,-702.140259
47,P,-708.397766
48,P,-708.397766
49,P,191.970245
50,P,191.970245
51,P,-708.255432
52,P,-708.255432
53,P,-707.244568
54,P,-707.244568
55,P,187.962051
56,P,187.962051
57,P,-704.646057
58,P,-704.646057
59,P,-706.164551
60,P,-706.164551
61,P,181.894409
62,P,181.894409
63,P,-710.497009
64,P,-710.497009
65,P,-711.748596
66,P,-711.748596
67,P,175.356583
68,P,175.356583
69,P,-695.93866
70,P,-695.93866
71,P,-625.181885
72,P,-625.181885
73,P,294.723267
74,P,294.723267
75,P,518.588806
76,P,518.588806
77,P,512.234192
78,P,512.234192
79,P,-625.455505
80,P,-625.455505
81,P,-595.78418
82,P,-595.78418
83,P,628.321411
84,P,628.321411
85,P,731.134155
86,P,731.134155
87,P,680.748779
88,P,680.748779
89,P,748.921692
90,P,748.921692
91,P,707.410706
92,P,707.410706
93,P,755.92395
94,P,755.92395
95,P,-634.075073
96,P,-634.075073
97,P,-633.783142
98,P,-633.783142
99,P,713.625671
100,P,713.625671
101,P,759.738586
102,P,759.738586
103,P,758.486755
104,P,758.486755
105,P,760.158875
106,P,760.158875
107,P,721.639526
108,P,721.639526
109,P,760.068359
110,P,760.068359
111,P,-635.013489
112,P,-635.013489
113,P,-634.372009
114,P,-634.372009
115,P,722.664795
116,P,722.664795
117,P,759.90271
118,P,759.90271
119,P,759.919678
120,P,759.919678
121,P,759.975647
122,P,759.975647
123,P,722.732849
124,P,722.732849
125,P,760.133179
126,P,760.133179
127,P,-633.651123
128,P,-633.651123
129,P,-634.097046
130,P,-634.097046
131,P,721.742126
132,P,721.742126
133,P,760.739746
134,P,760.739746
135,P,760.448425
136,P,760.448425
137,P,760.608765
138,P,760.608765
139,P,713.280762
140,P,713.280762
141,P,759.369141
142,P,759.369141
143,P,-626.876465
144,P,-626.876465
145,P,-630.739868
146,P,-630.739868
147,P,706.168945
148,P,706.168945
149,P,748.168884
150,P,748.168884
151,P,756.10553
152,P,756.10553
153,P,729.913208
154,P,729.913208
155,P,626.195007
156,P,626.195007
157,P,679.173401
158,P,679.173401
159,P,-185.376877
160,P,-185.376877
161,P,-479.785095
162,P,-479.785095
163,P,517.458313
164,P,517.458313
165,P,293.238556
166,P,293.238556
167,P,510.685089
168,P,510.685089
169,P,799.17572
170,P,799.17572
171,P,1051.79211
172,P,1051.79211
173,P,1091.68762
174,P,1091.68762
175,P,1094.78943
176,P,1094.78943
177,P,1068.42712
178,P,1068.42712
179,P,916.848145
180,P,916.848145
181,P,226.259933
182,P,226.259933
183,P,182.676208
184,P,182.676208
185,P,191.204697
186,P,191.204697
187,P,189.892548
188,P,189.892548
189,P,180.078705
190,P,180.078705
191,P,226.257828
192,P,226.257828
193,P,176.139572
194,P,176.139572
195,P,182.940338
196,P,182.940338
197,P,188.044907
198,P,188.044907
199,P,191.971558
200,P,191.971558
201,P,185.395172
202,P,185.395172
203,P,207.186249
204,P,207.186249
205,P,470.954742
206,P,470.954742
207,P,914.889343
208,P,914.889343
209,P,963.63031
210,P,963.63031
211,P,1037.05371
212,P,1037.05371
213,P,1046.91589
214,P,1046.91589
215,P,1058.29639
216,P,1058.29639
217,P,1058.27881
218,P,1058.27881
219,P,1046.88989
220,P,1046.88989
221,P,1037.1156
222,P,1037.1156
223,P,965.775574
224,P,965.775574
225,P,917.219666
226,P,917.219666
227,P,468.549835
228,P,468.549835
229,P,975.256287
230,P,975.256287
231,P,-187.590546
232,P,-187.590546
233,P,-486.224854
234,P,-486.224854
235,P,1079.26489
236,P,1079.26489
237,P,-633.771179
238,P,-633.771179
239,P,-634.86499
240,P,-634.86499
241,P,1096.03064
242,P,1096.03064
243,P,-634.009277
244,P,-634.009277
245,P,-634.293213
246,P,-634.293213
247,P,1086.68396
248,P,1086.68396
249,P,-634.986084
250,P,-634.986084
251,P,-634.276855
252,P,-634.276855
253,P,1026.37207
254,P,1026.37207
255,P,-633.381104
256,P,-633.381104
257,P,-632.369568
258,P,-632.369568
259,P,392.51593
260,P,392.51593
261,P,-617.876831
262,P,-617.876831
263,P,-588.304749
264,P,-588.304749
265,P,296.180969
266,P,296.180969
267,P,680.816101
268,P,680.816101
269,P,439.51535
270,P,439.51535
271,P,-688.284424
272,P,-688.284424
273,P,-617.448792
274,P,-617.448792
275,P,841.026001
276,P,841.026001
277,P,701.153748
278,P,701.153748
279,P,574.841125
280,P,574.841125
281,P,750.473633
282,P,750.473633
283,P,998.61438
284,P,998.61438
285,P,774.670471
286,P,774.670471
287,P,-709.794128
288,P,-709.794128
289,P,-710.314331
290,P,-710.314331
291,P,1022.30414
292,P,1022.30414
293,P,799.612366
294,P,799.612366
295,P,790.213928
296,P,790.213928
297,P,805.986145
298,P,805.986145
299,P,1053.0459
300,P,1053.0459
301,P,809.9198
302,P,809.9198
303,P,-704.616638
304,P,-704.616638
305,P,-706.07196
306,P,-706.07196
307,P,1056.84033
308,P,1056.84033
309,P,813.010315
310,P,813.010315
311,P,812.304932
312,P,812.304932
313,P,812.936646
314,P,812.936646
315,P,1056.79712
316,P,1056.79712
317,P,812.091736
318,P,812.091736
319,P,-708.615479
320,P,-708.615479
321,P,-707.438477
322,P,-707.438477
323,P,1052.97937
324,P,1052.97937
325,P,805.407776
326,P,805.407776
327,P,809.540344
328,P,809.540344
329,P,798.751465
330,P,798.751465
331,P,1022.70526
332,P,1022.70526
333,P,789.357361
334,P,789.357361
335,P,-709.072449
336,P,-709.072449
337,P,-712.538696
338,P,-712.538696
339,P,999.891174
340,P,999.891174
341,P,751.295715
342,P,751.295715
343,P,774.527588
344,P,774.527588
345,P,702.507324
346,P,702.507324
347,P,843.156799
348,P,843.156799
349,P,576.586731
350,P,576.586731
351,P,-221.857803
352,P,-221.857803
353,P,-511.89801
354,P,-511.89801
355,P,681.832764
356,P,681.832764
357,P,298.163544
358,P,298.163544
359,P,441.171204
360,P,441.171204
361,P,227.361862
362,P,227.361862
363,P,180.766815
364,P,180.766815
365,P,189.913223
366,P,189.913223
367,P,191.194611
368,P,191.194611
369,P,182.363495
370,P,182.363495
371,P,225.267044
372,P,225.267044
373,P,916.261658
374,P,916.261658
375,P,1068.24036
376,P,1068.24036
377,P,1094.75696
378,P,1094.75696
379,P,1091.72522
380,P,1091.72522
381,P,1052.14478
382,P,1052.14478
383,P,800.06842
384,P,800.06842
*BOUNDARY
MOUNT, 1, 6
*END STEP
