*HEADING
Wing shell from CFD pressure
*NODE
1,0.0119045004,-0.0105491998,-0.395574987
2,0.0119045004,-0.0105491998,0.395574987
3,0.0132277003,-0.0283189006,-0.373659015
4,0.0132277003,-0.0283189006,-0.34375
5,0.0132277003,-0.0283189006,-0.3125
6,0.0132277003,-0.0283189006,-0.28125
7,0.0132277003,-0.0283189006,-0.25
8,0.0132277003,-0.0283189006,-0.21875
9,0.0132277003,-0.0283189006,-0.1875
10,0.0132277003,-0.0283189006,-0.15625
11,0.0132277003,-0.0283189006,-0.125
12,0.0132277003,-0.0283189006,-0.09375
13,0.0132277003,-0.0283189006,-0.0625
14,0.0132277003,-0.0283189006,-0.03125
15,0.0132277003,-0.0283189006,0
16,0.0132277003,-0.0283189006,0.03125
17,0.0132277003,-0.0283189006,0.0625
18,0.0132277003,-0.0283189006,0.09375
19,0.0132277003,-0.0283189006,0.125
20,0.0132277003,-0.0283189006,0.15625
21,0.0132277003,-0.0283189006,0.1875
22,0.0132277003,-0.0283189006,0.21875
23,0.0132277003,-0.0283189006,0.25
24,0.0132277003,-0.0283189006,0.28125
25,0.0132277003,-0.0283189006,0.3125
26,0.0132277003,-0.0283189006,0.34375
27,0.0132277003,-0.0283189006,0.373659015
28,0.0133298002,-0.0101902997,-0.373086005
29,0.0133298002,-0.0101902997,0.373086005
30,0.0142678004,-0.00866901968,-0.343493998
31,0.0142678004,-0.00866901968,0.343493998
32,0.0143799996,-0.0284304004,-0.395999014
33,0.0143799996,-0.0284304004,0.395999014
34,0.0146666998,-0.00838174019,-0.3125
35,0.0146666998,-0.00838174019,-0.28125
36,0.0146666998,-0.00838174019,-0.25
37,0.0146666998,-0.00838174019,-0.21875
38,0.0146666998,-0.00838174019,-0.1875
39,0.0146666998,-0.00838174019,-0.15625
40,0.0146666998,-0.00838174019,-0.125
41,0.0146666998,-0.00838174019,-0.09375
42,0.0146666998,-0.00838174019,-0.0625
43,0.0146666998,-0.00838174019,-0.03125
44,0.0146666998,-0.00838174019,0
45,0.0146666998,-0.00838174019,0.03125
46,0.0146666998,-0.00838174019,0.0625
47,0.0146666998,-0.00838174019,0.09375
48,0.0146666998,-0.00838174019,0.125
49,0.0146666998,-0.00838174019,0.15625
50,0.0146666998,-0.00838174019,0.1875
51,0.0146666998,-0.00838174019,0.21875
52,0.0146666998,-0.00838174019,0.25
53,0.0146666998,-0.00838174019,0.28125
54,0.0146666998,-0.00838174019,0.3125
55,0.0357774012,-0.0273742992,-0.395682007
56,0.0357774012,-0.0273742992,0.395682007
57,0.0375922993,-0.0121088,-0.395123988
58,0.0376212001,-0.0121908002,0.395123988
59,0.0383818001,-0.0269815996,-0.37322101
60,0.0383818001,-0.0269815996,0.37322101
61,0.0404466987,-0.0266430993,-0.343582004
62,0.0404466987,-0.0266430993,0.343582004
63,0.0412095003,-0.0265148003,-0.3125
64,0.0412095003,-0.0265148003,-0.28125
65,0.0412095003,-0.0265148003,-0.25
66,0.0412095003,-0.0265148003,-0.21875
67,0.0412095003,-0.0265148003,-0.1875
68,0.0412095003,-0.0265148003,-0.15625
69,0.0412095003,-0.0265148003,-0.125
70,0.0412095003,-0.0265148003,-0.09375
71,0.0412095003,-0.0265148003,-0.0625
72,0.0412095003,-0.0265148003,-0.03125
73,0.0412095003,-0.0265148003,-1e-12
74,0.0412095003,-0.0265148003,0.03125
75,0.0412095003,-0.0265148003,0.0625
76,0.0412095003,-0.0265148003,0.09375
77,0.0412095003,-0.0265148003,0.125
78,0.0412095003,-0.0265148003,0.15625
79,0.0412095003,-0.0265148003,0.1875
80,0.0412095003,-0.0265148003,0.21875
81,0.0412095003,-0.0265148003,0.25
82,0.0412095003,-0.0265148003,0.28125
83,0.0412095003,-0.0265148003,0.3125
84,0.0495911986,0.00940722972,-0.34334299
85,0.0495911986,0.00940722972,0.34334299
86,0.0498131998,0.00949805044,-0.3125
87,0.0498131998,0.00949805044,-0.28125
88,0.0498131998,0.00949805044,-0.25
89,0.0498131998,0.00949805044,-0.21875
90,0.0498131998,0.00949805044,-0.1875
91,0.0498131998,0.00949805044,-0.15625
92,0.0498131998,0.00949805044,-0.125
93,0.0498131998,0.00949805044,-0.09375
94,0.0498131998,0.00949805044,-0.0625
95,0.0498131998,0.00949805044,-0.03125
96,0.0498131998,0.00949805044,-0
97,0.0498131998,0.00949805044,0.03125
98,0.0498131998,0.00949805044,0.0625
99,0.0498131998,0.00949805044,0.09375
100,0.0498131998,0.00949805044,0.125
101,0.0498131998,0.00949805044,0.15625
102,0.0498131998,0.00949805044,0.1875
103,0.0498131998,0.00949805044,0.21875
104,0.0498131998,0.00949805044,0.25
105,0.0498131998,0.00949805044,0.28125
106,0.0498131998,0.00949805044,0.3125
107,0.051220499,-0.00766162993,-0.368672013
108,0.0512580983,-0.00777899986,0.368672013
109,0.0994483978,0.00807605963,-0.368782997
110,0.0995299965,0.00783799961,0.368782997
111,0.101767004,-0.0101929996,-0.343398988
112,0.101767004,-0.0101929996,0.343398988
113,0.101806998,-0.0101794004,-0.3125
114,0.101806998,-0.0101794004,-0.28125
115,0.101806998,-0.0101794004,-0.25
116,0.101806998,-0.0101794004,-0.21875
117,0.101806998,-0.0101794004,-0.1875
118,0.101806998,-0.0101794004,-0.15625
119,0.101806998,-0.0101794004,-0.125
120,0.101806998,-0.0101794004,-0.09375
121,0.101806998,-0.0101794004,-0.0625
122,0.101806998,-0.0101794004,-0.03125
123,0.101806998,-0.0101794004,-1e-12
124,0.101806998,-0.0101794004,0.03125
125,0.101806998,-0.0101794004,0.0625
126,0.101806998,-0.0101794004,0.09375
127,0.101806998,-0.0101794004,0.125
128,0.101806998,-0.0101794004,0.15625
129,0.101806998,-0.0101794004,0.1875
130,0.101806998,-0.0101794004,0.21875
131,0.101806998,-0.0101794004,0.25
132,0.101806998,-0.0101794004,0.28125
133,0.101806998,-0.0101794004,0.3125
134,0.111465,0.0301906001,-0.3125
135,0.111465,0.0301906001,-0.28125
136,0.111465,0.0301906001,-0.25
137,0.111465,0.0301906001,-0.21875
138,0.111465,0.0301906001,-0.1875
139,0.111465,0.0301906001,-0.15625
140,0.111465,0.0301906001,-0.125
141,0.111465,0.0301906001,-0.09375
142,0.111465,0.0301906001,-0.0625
143,0.111465,0.0301906001,-0.03125
144,0.111465,0.0301906001,-0
145,0.111465,0.0301906001,0.03125
146,0.111465,0.0301906001,0.0625
147,0.111465,0.0301906001,0.09375
148,0.111465,0.0301906001,0.125
149,0.111465,0.0301906001,0.15625
150,0.111465,0.0301906001,0.1875
151,0.111465,0.0301906001,0.21875
152,0.111465,0.0301906001,0.25
153,0.111465,0.0301906001,0.28125
154,0.111465,0.0301906001,0.3125
155,0.112099998,0.0303719006,-0.343582004
156,0.112099998,0.0303719006,0.343582004
157,0.114033997,0.0309199002,-0.373306006
158,0.114033997,0.0309199002,0.373306006
159,0.114327997,0.0129316999,-0.395393014
160,0.114419997,0.0126550999,0.395393014
161,0.116843998,0.0317093991,-0.395927995
162,0.116843998,0.0317093991,0.395927995
163,0.144042,0.00524519989,-0.3125
164,0.144042,0.00524519989,-0.28125
165,0.144042,0.00524519989,-0.25
166,0.144042,0.00524519989,-0.21875
167,0.144042,0.00524519989,-0.1875
168,0.144042,0.00524519989,-0.15625
169,0.144042,0.00524519989,-0.125
170,0.144042,0.00524519989,-0.09375
171,0.144042,0.00524519989,-0.0625
172,0.144042,0.00524519989,-0.03125
173,0.144042,0.00524519989,-1e-12
174,0.144042,0.00524519989,0.03125
175,0.144042,0.00524519989,0.0625
176,0.144042,0.00524519989,0.09375
177,0.144042,0.00524519989,0.125
178,0.144042,0.00524519989,0.15625
179,0.144042,0.00524519989,0.1875
180,0.144042,0.00524519989,0.21875
181,0.144042,0.00524519989,0.25
182,0.144042,0.00524519989,0.28125
183,0.144042,0.00524519989,0.3125
184,0.144287005,0.00534042017,-0.343531013
185,0.144287005,0.00534042017,0.343531013
186,0.145833001,0.0059446902,-0.373261988
187,0.145833001,0.0059446902,0.373261988
188,0.150150999,0.0403750017,-0.397044986
189,0.150150999,0.0403750017,0.397044986
190,0.150705993,0.00799220987,-0.396968991
191,0.150705993,0.00799220987,0.396968991
192,0.153868005,0.041414801,-0.373261988
193,0.153868005,0.041414801,0.373261988
194,0.154990003,0.0416916013,-0.343531013
195,0.154990003,0.0416916013,0.343531013
196,0.155104995,0.0417198986,-0.3125
197,0.155104995,0.0417198986,-0.28125
198,0.155104995,0.0417198986,-0.25
199,0.155104995,0.0417198986,-0.21875
200,0.155104995,0.0417198986,-0.1875
201,0.155104995,0.0417198986,-0.15625
202,0.155104995,0.0417198986,-0.125
203,0.155104995,0.0417198986,-0.09375
204,0.155104995,0.0417198986,-0.0625
205,0.155104995,0.0417198986,-0.03125
206,0.155104995,0.0417198986,1e-12
207,0.155104995,0.0417198986,0.03125
208,0.155104995,0.0417198986,0.0625
209,0.155104995,0.0417198986,0.09375
210,0.155104995,0.0417198986,0.125
211,0.155104995,0.0417198986,0.15625
212,0.155104995,0.0417198986,0.1875
213,0.155104995,0.0417198986,0.21875
214,0.155104995,0.0417198986,0.25
215,0.155104995,0.0417198986,0.28125
216,0.155104995,0.0417198986,0.3125
217,0.181433007,0.0204079002,-0.395969987
218,0.181433007,0.0204079002,0.395969987
219,0.183716998,0.0213686004,-0.373286009
220,0.183716998,0.0213686004,0.373286009
221,0.185305998,0.0220395997,-0.343582004
222,0.185305998,0.0220395997,0.343582004
223,0.185542002,0.0361699983,-0.395586014
224,0.185686007,0.0357114002,0.395586014
225,0.185791999,0.0222447999,-0.3125
226,0.185791999,0.0222447999,-0.28125
227,0.185791999,0.0222447999,-0.25
228,0.185791999,0.0222447999,-0.21875
229,0.185791999,0.0222447999,-0.1875
230,0.185791999,0.0222447999,-0.15625
231,0.185791999,0.0222447999,-0.125
232,0.185791999,0.0222447999,-0.09375
233,0.185791999,0.0222447999,-0.0625
234,0.185791999,0.0222447999,-0.03125
235,0.185791999,0.0222447999,1e-12
236,0.185791999,0.0222447999,0.03125
237,0.185791999,0.0222447999,0.0625
238,0.185791999,0.0222447999,0.09375
239,0.185791999,0.0222447999,0.125
240,0.185791999,0.0222447999,0.15625
241,0.185791999,0.0222447999,0.1875
242,0.185791999,0.0222447999,0.21875
243,0.185791999,0.0222447999,0.25
244,0.185791999,0.0222447999,0.28125
245,0.185791999,0.0222447999,0.3125
246,0.198684007,0.0518806987,-0.342934012
247,0.198684007,0.0518806987,0.342934012
248,0.199084997,0.0405892991,-0.368247986
249,0.199122995,0.0519778989,-0.3125
250,0.199122995,0.0519778989,-0.28125
251,0.199122995,0.0519778989,-0.25
252,0.199122995,0.0519778989,-0.21875
253,0.199122995,0.0519778989,-0.1875
254,0.199122995,0.0519778989,-0.15625
255,0.199122995,0.0519778989,-0.125
256,0.199122995,0.0519778989,-0.09375
257,0.199122995,0.0519778989,-0.0625
258,0.199122995,0.0519778989,-0.03125
259,0.199122995,0.0519778989,0
260,0.199122995,0.0519778989,0.03125
261,0.199122995,0.0519778989,0.0625
262,0.199122995,0.0519778989,0.09375
263,0.199122995,0.0519778989,0.125
264,0.199122995,0.0519778989,0.15625
265,0.199122995,0.0519778989,0.1875
266,0.199122995,0.0519778989,0.21875
267,0.199122995,0.0519778989,0.25
268,0.199122995,0.0519778989,0.28125
269,0.199122995,0.0519778989,0.3125
270,0.199237004,0.0400954001,0.368247986
271,0.227394,0.0498270988,-0.342698991
272,0.227577001,0.0492639989,0.342698991
273,0.228341997,0.0501363985,-0.3125
274,0.228341997,0.0501363985,-0.28125
275,0.228341997,0.0501363985,-0.25
276,0.228525996,0.0495707989,-0.21875
277,0.228525996,0.0495707989,-0.1875
278,0.228525996,0.0495707989,-0.15625
279,0.228525996,0.0495707989,-0.125
280,0.228525996,0.0495707989,-0.09375
281,0.228525996,0.0495707989,-0.0625
282,0.228525996,0.0495707989,-0.03125
283,0.228525996,0.0495707989,0
284,0.228525996,0.0495707989,0.03125
285,0.228525996,0.0495707989,0.0625
286,0.228525996,0.0495707989,0.09375
287,0.228525996,0.0495707989,0.125
288,0.228525996,0.0495707989,0.15625
289,0.228525996,0.0495707989,0.1875
290,0.228525996,0.0495707989,0.21875
291,0.228525996,0.0495707989,0.25
292,0.228525996,0.0495707989,0.28125
293,0.228525996,0.0495707989,0.3125
294,0.230132997,0.0507211015,-0.363629997
295,0.230322003,0.050152,0.363629997
*ELEMENT, TYPE=S3, ELSET=ALL_SHELL
1,107,84,30
2,30,28,107
3,248,219,221
4,248,221,271
5,271,294,248
6,36,88,89
7,89,37,36
8,276,275,227
9,227,228,276
10,40,92,93
11,93,41,40
12,231,232,280
13,280,279,231
14,44,96,97
15,97,45,44
16,235,236,284
17,284,283,235
18,48,100,101
19,101,49,48
20,239,240,288
21,288,287,239
22,52,104,105
23,105,53,52
24,243,244,292
25,292,291,243
26,58,2,29
27,29,108,58
28,220,218,224
29,224,270,220
30,219,186,184
31,184,221,219
32,227,226,164
33,164,165,227
34,227,165,166
35,166,228,227
36,231,230,168
37,168,169,231
38,231,169,170
39,170,232,231
40,173,235,234
41,234,172,173
42,235,173,174
43,174,236,235
44,239,238,176
45,176,177,239
46,239,177,178
47,178,240,239
48,243,242,180
49,180,181,243
50,243,181,182
51,182,244,243
52,220,222,185
53,185,187,220
54,190,186,219
55,219,217,190
56,109,157,155
57,109,155,84
58,84,107,109
59,34,30,84
60,84,86,34
61,134,86,84
62,84,155,134
63,89,88,136
64,136,137,89
65,38,37,89
66,89,90,38
67,90,89,137
68,137,138,90
69,93,92,140
70,140,141,93
71,42,41,93
72,93,94,42
73,94,93,141
74,141,142,94
75,283,282,234
76,234,235,283
77,96,144,145
78,145,97,96
79,46,45,97
80,97,98,46
81,145,146,98
82,98,97,145
83,287,286,238
84,238,239,287
85,101,100,148
86,148,149,101
87,50,49,101
88,101,102,50
89,102,101,149
90,149,150,102
91,105,104,152
92,152,153,105
93,54,53,105
94,105,106,54
95,106,105,153
96,153,154,106
97,191,218,220
98,220,187,191
99,184,186,109
100,109,111,184
101,221,184,163
102,163,225,221
103,163,184,111
104,111,113,163
105,115,114,64
106,64,65,115
107,113,63,64
108,64,114,113
109,225,163,164
110,164,226,225
111,115,165,164
112,164,114,115
113,113,114,164
114,164,163,113
115,155,194,196
116,196,134,155
117,196,197,135
118,135,134,196
119,115,116,166
120,166,165,115
121,229,228,166
122,166,167,229
123,117,167,166
124,166,116,117
125,229,167,168
126,168,230,229
127,119,169,168
128,168,118,119
129,117,118,168
130,168,167,117
131,137,199,200
132,200,138,137
133,139,140,92
134,92,91,139
135,200,201,139
136,139,138,200
137,119,120,170
138,170,169,119
139,233,232,170
140,170,171,233
141,121,171,170
142,170,120,121
143,123,122,72
144,72,73,123
145,233,171,172
146,172,234,233
147,123,173,172
148,172,122,123
149,121,122,172
150,172,171,121
151,141,203,204
152,204,142,141
153,144,96,95
154,95,143,144
155,142,143,95
156,95,94,142
157,204,205,143
158,143,142,204
159,173,123,124
160,124,174,173
161,237,236,174
162,174,175,237
163,125,175,174
164,174,124,125
165,237,175,176
166,176,238,237
167,127,177,176
168,176,126,127
169,125,126,176
170,176,175,125
171,145,207,208
172,208,146,145
173,147,148,100
174,100,99,147
175,146,147,99
176,99,98,146
177,208,209,147
178,147,146,208
179,127,128,178
180,178,177,127
181,241,240,178
182,178,179,241
183,129,179,178
184,178,128,129
185,131,130,80
186,80,81,131
187,241,179,180
188,180,242,241
189,131,181,180
190,180,130,131
191,129,130,180
192,180,179,129
193,149,211,212
194,212,150,149
195,151,152,104
196,104,103,151
197,150,151,103
198,103,102,150
199,212,213,151
200,151,150,212
201,131,132,182
202,182,181,131
203,245,244,182
204,182,183,245
205,133,183,182
206,182,132,133
207,222,245,183
208,183,185,222
209,185,112,110
210,110,187,185
211,183,133,112
212,112,185,183
213,153,215,216
214,216,154,153
215,156,154,216
216,216,195,156
217,277,276,228
218,228,229,277
219,281,280,232
220,232,233,281
221,293,292,244
222,244,245,293
223,274,273,225
224,225,226,274
225,286,285,237
226,237,238,286
227,290,289,241
228,241,242,290
229,271,246,248
230,248,294,271
231,275,276,252
232,252,251,275
233,256,255,279
234,279,280,256
235,259,283,284
236,284,260,259
237,264,263,287
238,287,288,264
239,268,267,291
240,291,292,268
241,28,30,4
242,4,3,28
243,59,3,4
244,4,61,59
245,36,35,87
246,87,88,36
247,36,7,6
248,6,35,36
249,65,64,6
250,6,7,65
251,248,246,194
252,194,192,248
253,227,275,274
254,274,226,227
255,198,197,250
256,250,251,198
257,36,37,8
258,8,7,36
259,8,66,65
260,65,7,8
261,65,66,116
262,116,115,65
263,40,39,91
264,91,92,40
265,40,11,10
266,10,39,40
267,69,68,10
268,10,11,69
269,68,69,119
270,119,118,68
271,252,199,198
272,198,251,252
273,231,279,278
274,278,230,231
275,202,201,254
276,254,255,202
277,40,41,12
278,12,11,40
279,12,70,69
280,69,11,12
281,96,44,43
282,43,95,96
283,44,15,14
284,14,43,44
285,73,72,14
286,14,15,73
287,256,203,202
288,202,255,256
289,259,206,205
290,205,258,259
291,44,45,16
292,16,15,44
293,15,16,74
294,74,73,15
295,73,74,124
296,124,123,73
297,48,47,99
298,99,100,48
299,48,19,18
300,18,47,48
301,77,76,18
302,18,19,77
303,76,77,127
304,127,126,76
305,206,259,260
306,260,207,206
307,210,209,262
308,262,263,210
309,48,49,20
310,20,19,48
311,20,78,77
312,77,19,20
313,77,78,128
314,128,127,77
315,52,51,103
316,103,104,52
317,52,23,22
318,22,51,52
319,81,80,22
320,22,23,81
321,264,211,210
322,210,263,264
323,243,291,290
324,290,242,243
325,214,213,266
326,266,267,214
327,52,53,24
328,24,23,52
329,24,82,81
330,81,23,24
331,108,29,31
332,31,85,108
333,29,27,26
334,26,31,29
335,60,62,26
336,26,27,60
337,108,110,112
338,108,112,62
339,62,60,108
340,268,215,214
341,214,267,268
342,270,295,272
343,270,272,222
344,222,220,270
345,270,193,195
346,195,247,270
347,57,107,28
348,28,1,57
349,3,32,1
350,1,28,3
351,55,32,3
352,3,59,55
353,59,107,57
354,57,55,59
355,219,248,223
356,223,217,219
357,223,248,192
358,192,188,223
359,107,59,61
360,107,61,111
361,111,109,107
362,250,274,275
363,275,251,250
364,254,278,279
365,279,255,254
366,119,69,70
367,70,120,119
368,283,259,258
369,258,282,283
370,125,124,74
371,74,75,125
372,262,286,287
373,287,263,262
374,129,128,78
375,78,79,129
376,266,290,291
377,291,267,266
378,131,81,82
379,82,132,131
380,133,132,82
381,82,83,133
382,272,295,270
383,270,247,272
384,27,29,2
385,2,33,27
386,56,60,27
387,27,33,56
388,60,56,58
389,58,108,60
390,224,189,193
391,193,270,224
392,61,4,5
393,5,63,61
394,63,113,111
395,111,61,63
396,30,34,5
397,5,4,30
398,6,64,63
399,63,5,6
400,34,86,87
401,87,35,34
402,34,35,6
403,6,5,34
404,88,87,135
405,135,136,88
406,87,86,134
407,134,135,87
408,157,192,194
409,194,155,157
410,246,249,196
411,196,194,246
412,271,221,225
413,225,273,271
414,196,249,250
415,250,197,196
416,198,136,135
417,135,197,198
418,67,66,8
419,8,9,67
420,67,117,116
421,116,66,67
422,38,9,8
423,8,37,38
424,10,68,67
425,67,9,10
426,67,68,118
427,118,117,67
428,38,90,91
429,91,39,38
430,38,39,10
431,10,9,38
432,91,90,138
433,138,139,91
434,137,136,198
435,198,199,137
436,200,199,252
437,252,253,200
438,200,253,254
439,254,201,200
440,229,230,278
441,278,277,229
442,202,140,139
443,139,201,202
444,71,70,12
445,12,13,71
446,71,121,120
447,120,70,71
448,42,13,12
449,12,41,42
450,14,72,71
451,71,13,14
452,71,72,122
453,122,121,71
454,42,94,95
455,95,43,42
456,42,43,14
457,14,13,42
458,141,140,202
459,202,203,141
460,204,203,256
461,256,257,204
462,204,257,258
463,258,205,204
464,233,234,282
465,282,281,233
466,144,143,205
467,205,206,144
468,75,74,16
469,16,17,75
470,46,17,16
471,16,45,46
472,18,76,75
473,75,17,18
474,75,76,126
475,126,125,75
476,46,98,99
477,99,47,46
478,46,47,18
479,18,17,46
480,206,207,145
481,145,144,206
482,208,207,260
483,260,261,208
484,237,285,284
485,284,236,237
486,208,261,262
487,262,209,208
488,210,148,147
489,147,209,210
490,79,78,20
491,20,21,79
492,50,21,20
493,20,49,50
494,22,80,79
495,79,21,22
496,79,80,130
497,130,129,79
498,50,102,103
499,103,51,50
500,50,51,22
501,22,21,50
502,149,148,210
503,210,211,149
504,212,211,264
505,264,265,212
506,241,289,288
507,288,240,241
508,212,265,266
509,266,213,212
510,214,152,151
511,151,213,214
512,83,82,24
513,24,25,83
514,54,25,24
515,24,53,54
516,62,83,25
517,25,26,62
518,83,62,112
519,112,133,83
520,54,106,85
521,85,31,54
522,31,26,25
523,25,54,31
524,110,108,85
525,110,85,156
526,156,158,110
527,154,156,85
528,85,106,154
529,153,152,214
530,214,215,153
531,216,215,268
532,268,269,216
533,247,195,216
534,216,269,247
535,272,293,245
536,245,222,272
537,158,156,195
538,195,193,158
539,271,273,249
540,249,246,271
541,252,276,277
542,277,253,252
543,256,280,281
544,281,257,256
545,260,284,285
546,285,261,260
547,264,288,289
548,289,265,264
549,268,292,293
550,293,269,268
551,161,188,192
552,192,157,161
553,159,109,186
554,186,190,159
555,157,109,159
556,159,161,157
557,250,249,273
558,273,274,250
559,254,253,277
560,277,278,254
561,258,257,281
562,281,282,258
563,262,261,285
564,285,286,262
565,266,265,289
566,289,290,266
567,272,247,269
568,269,293,272
569,162,158,193
570,193,189,162
571,158,162,160
572,160,110,158
573,160,191,187
574,187,110,160
575,55,57,1
576,1,32,55
577,217,223,188
578,188,190,217
579,56,33,2
580,2,58,56
581,218,191,189
582,189,224,218
583,161,159,190
584,190,188,161
585,162,189,191
586,191,160,162
*MATERIAL, NAME=CFRP
*ELASTIC
7e+10,0.3
*DENSITY
1600
*SHELL SECTION, ELSET=ALL_SHELL, MATERIAL=CFRP
0.0025
*NSET, NSET=ALLNODES, GENERATE
1,295,1
*NSET, NSET=MOUNT
1,2,3,4,5,6,7,8,9,10,11,12,13,14,15,16
17,18,19,20,21,22,23,24,25,26,27,28,29
*STEP
*STATIC
*NODE PRINT, NSET=ALLNODES
U
*EL PRINT, ELSET=ALL_SHELL
S
*NODE FILE, NSET=ALLNODES
U
*EL FILE, ELSET=ALL_SHELL
S
*DLOAD
1,P,-500.964417
2,P,-500.964417
3,P,1223.24072
4,P,1223.24072
5,P,1223.24072
6,P,-1178.82617
7,P,-1178.82617
8,P,707.630188
9,P,707.630188
10,P,-1356.00928
11,P,-1356.00928
12,P,666.158264
13,P,666.158264
14,P,-1473.10669
15,P,-1473.10669
16,P,685.844116
17,P,685.844116
18,P,-1552.2865
19,P,-1552.2865
20,P,719.526489
21,P,719.526489
22,P,-1533.60791
23,P,-1533.60791
24,P,878.877869
25,P,878.877869
26,P,-388.72049
27,P,-388.72049
28,P,1327.82446
29,P,1327.82446
30,P,1043.84692
31,P,1043.84692
32,P,871.654053
33,P,871.654053
34,P,881.932495
35,P,881.932495
36,P,937.440735
37,P,937.440735
38,P,957.75824
39,P,957.75824
40,P,1004.86688
41,P,1004.86688
42,P,1017.58069
43,P,1017.58069
44,P,1032.41113
45,P,1032.41113
46,P,1033.1864
47,P,1033.1864
48,P,1016.49554
49,P,1016.49554
50,P,1018.32477
51,P,1018.32477
52,P,1297.40857
53,P,1297.40857
54,P,983.811218
55,P,983.811218
56,P,-402.843048
57,P,-402.843048
58,P,-402.843048
59,P,-860.492065
60,P,-860.492065
61,P,-704.457031
62,P,-704.457031
63,P,-978.241699
64,P,-978.241699
65,P,-1228.78943
66,P,-1228.78943
67,P,-1027.47327
68,P,-1027.47327
69,P,-1162.1991
70,P,-1162.1991
71,P,-1385.30359
72,P,-1385.30359
73,P,-1188.95813
74,P,-1188.95813
75,P,670.367004
76,P,670.367004
77,P,-1277.03357
78,P,-1277.03357
79,P,-1493.04529
80,P,-1493.04529
81,P,-1289.2616
82,P,-1289.2616
83,P,694.303589
84,P,694.303589
85,P,-1327.4303
86,P,-1327.4303
87,P,-1560.32959
88,P,-1560.32959
89,P,-1320.36963
90,P,-1320.36963
91,P,-1264.56213
92,P,-1264.56213
93,P,-1462.18445
94,P,-1462.18445
95,P,-1195.35925
96,P,-1195.35925
97,P,1260.26819
98,P,1260.26819
99,P,1152.98914
100,P,1152.98914
101,P,926.523804
102,P,926.523804
103,P,1296.56262
104,P,1296.56262
105,P,2595.89819
106,P,2595.89819
107,P,2437.51343
108,P,2437.51343
109,P,875.44397
110,P,875.44397
111,P,1428.68799
112,P,1428.68799
113,P,1362.84985
114,P,1362.84985
115,P,-102.549484
116,P,-102.549484
117,P,-112.437157
118,P,-112.437157
119,P,1496.97571
120,P,1496.97571
121,P,898.309998
122,P,898.309998
123,P,1558.49927
124,P,1558.49927
125,P,918.447449
126,P,918.447449
127,P,1660.22449
128,P,1660.22449
129,P,1613.59656
130,P,1613.59656
131,P,-184.507294
132,P,-184.507294
133,P,-1105.55835
134,P,-1105.55835
135,P,-205.055084
136,P,-205.055084
137,P,1708.53723
138,P,1708.53723
139,P,975.287415
140,P,975.287415
141,P,1747.92676
142,P,1747.92676
143,P,3335.76172
144,P,3335.76172
145,P,992.240417
146,P,992.240417
147,P,1810.33081
148,P,1810.33081
149,P,1782.75464
150,P,1782.75464
151,P,-254.030594
152,P,-254.030594
153,P,-1233.50403
154,P,-1233.50403
155,P,-1214.83923
156,P,-1214.83923
157,P,-265.625977
158,P,-265.625977
159,P,1840.9624
160,P,1840.9624
161,P,1025.28076
162,P,1025.28076
163,P,1861.2915
164,P,1861.2915
165,P,1031.58325
166,P,1031.58325
167,P,1883.2959
168,P,1883.2959
169,P,1876.53271
170,P,1876.53271
171,P,-285.104034
172,P,-285.104034
173,P,-1303.09851
174,P,-1303.09851
175,P,-1300.81702
176,P,-1300.81702
177,P,-287.39566
178,P,-287.39566
179,P,1891.11316
180,P,1891.11316
181,P,1027.53284
182,P,1027.53284
183,P,1881.96716
184,P,1881.96716
185,P,3413.62012
186,P,3413.62012
187,P,1022.33099
188,P,1022.33099
189,P,1828.15515
190,P,1828.15515
191,P,1861.93408
192,P,1861.93408
193,P,-272.445831
194,P,-272.445831
195,P,-1278.18384
196,P,-1278.18384
197,P,-1307.59021
198,P,-1307.59021
199,P,-260.875549
200,P,-260.875549
201,P,1784.16479
202,P,1784.16479
203,P,1034.08691
204,P,1034.08691
205,P,1719.04175
206,P,1719.04175
207,P,1108.86072
208,P,1108.86072
209,P,1460.74695
210,P,1460.74695
211,P,1633.69055
212,P,1633.69055
213,P,-209.126511
214,P,-209.126511
215,P,-208.282608
216,P,-208.282608
217,P,683.094849
218,P,683.094849
219,P,669.681885
220,P,669.681885
221,P,988.259827
222,P,988.259827
223,P,832.067078
224,P,832.067078
225,P,693.374573
226,P,693.374573
227,P,756.594177
228,P,756.594177
229,P,243.547775
230,P,243.547775
231,P,178.634674
232,P,178.634674
233,P,146.243835
234,P,146.243835
235,P,134.622528
236,P,134.622528
237,P,142.739532
238,P,142.739532
239,P,216.171555
240,P,216.171555
241,P,-450.615509
242,P,-450.615509
243,P,810.857971
244,P,810.857971
245,P,-1098.526
246,P,-1098.526
247,P,-583.454163
248,P,-583.454163
249,P,1323.67603
250,P,1323.67603
251,P,244.843674
252,P,244.843674
253,P,752.15802
254,P,752.15802
255,P,5.25837374
256,P,5.25837374
257,P,-619.447266
258,P,-619.447266
259,P,1428.03101
260,P,1428.03101
261,P,2755.1582
262,P,2755.1582
263,P,-1304.89185
264,P,-1304.89185
265,P,-670.955383
266,P,-670.955383
267,P,1639.88855
268,P,1639.88855
269,P,3056.97827
270,P,3056.97827
271,P,-18.9397926
272,P,-18.9397926
273,P,659.240234
274,P,659.240234
275,P,-61.2216911
276,P,-61.2216911
277,P,-699.222107
278,P,-699.222107
279,P,1694.31262
280,P,1694.31262
281,P,-1433.12927
282,P,-1433.12927
283,P,-744.55719
284,P,-744.55719
285,P,1803.54346
286,P,1803.54346
287,P,-73.9921265
288,P,-73.9921265
289,P,-92.3515701
290,P,-92.3515701
291,P,-771.098083
292,P,-771.098083
293,P,1829.84338
294,P,1829.84338
295,P,3404.5166
296,P,3404.5166
297,P,-1523.4231
298,P,-1523.4231
299,P,-812.338379
300,P,-812.338379
301,P,1855.90796
302,P,1855.90796
303,P,3478.06763
304,P,3478.06763
305,P,-98.7256851
306,P,-98.7256851
307,P,-98.1135101
308,P,-98.1135101
309,P,-837.34436
310,P,-837.34436
311,P,1848.68359
312,P,1848.68359
313,P,3505.93311
314,P,3505.93311
315,P,-1545.22559
316,P,-1545.22559
317,P,-866.888
318,P,-866.888
319,P,1733.62195
320,P,1733.62195
321,P,-96.708725
322,P,-96.708725
323,P,797.064636
324,P,797.064636
325,P,-63.3500862
326,P,-63.3500862
327,P,-887.923401
328,P,-887.923401
329,P,1649.66553
330,P,1649.66553
331,P,-803.074829
332,P,-803.074829
333,P,-775.598206
334,P,-775.598206
335,P,1060.16797
336,P,1060.16797
337,P,3012.3042
338,P,3012.3042
339,P,3012.3042
340,P,-45.7776947
341,P,-45.7776947
342,P,1529.93884
343,P,1529.93884
344,P,1529.93884
345,P,277.717072
346,P,277.717072
347,P,-192.024628
348,P,-192.024628
349,P,-301.121552
350,P,-301.121552
351,P,547.408569
352,P,547.408569
353,P,1510.81506
354,P,1510.81506
355,P,1058.66272
356,P,1058.66272
357,P,297.151581
358,P,297.151581
359,P,2188.10645
360,P,2188.10645
361,P,2188.10645
362,P,199.89856
363,P,199.89856
364,P,148.913712
365,P,148.913712
366,P,3159.00415
367,P,3159.00415
368,P,133.055954
369,P,133.055954
370,P,3441.2522
371,P,3441.2522
372,P,133.967834
373,P,133.967834
374,P,3495.59961
375,P,3495.59961
376,P,182.166519
377,P,182.166519
378,P,3347.13208
379,P,3347.13208
380,P,3214.50391
381,P,3214.50391
382,P,245.486084
383,P,245.486084
384,P,-601.832336
385,P,-601.832336
386,P,689.098328
387,P,689.098328
388,P,2071.54395
389,P,2071.54395
390,P,349.511566
391,P,349.511566
392,P,1036.11279
393,P,1036.11279
394,P,2265.11719
395,P,2265.11719
396,P,-523.658936
397,P,-523.658936
398,P,1201.3064
399,P,1201.3064
400,P,-1009.72229
401,P,-1009.72229
402,P,-558.675049
403,P,-558.675049
404,P,-896.408447
405,P,-896.408447
406,P,-815.990417
407,P,-815.990417
408,P,-100.580589
409,P,-100.580589
410,P,93.6674118
411,P,93.6674118
412,P,987.261841
413,P,987.261841
414,P,39.6360435
415,P,39.6360435
416,P,-134.987122
417,P,-134.987122
418,P,1511.37952
419,P,1511.37952
420,P,2874.12183
421,P,2874.12183
422,P,-640.031128
423,P,-640.031128
424,P,1581.86963
425,P,1581.86963
426,P,2973.91895
427,P,2973.91895
428,P,-1268.61609
429,P,-1268.61609
430,P,-655.98114
431,P,-655.98114
432,P,-1069.65564
433,P,-1069.65564
434,P,-160.781464
435,P,-160.781464
436,P,-36.3096504
437,P,-36.3096504
438,P,-50.7376137
439,P,-50.7376137
440,P,668.702393
441,P,668.702393
442,P,-221.944305
443,P,-221.944305
444,P,1737.66248
445,P,1737.66248
446,P,3228.771
447,P,3228.771
448,P,-716.150696
449,P,-716.150696
450,P,1774.20288
451,P,1774.20288
452,P,3287.15283
453,P,3287.15283
454,P,-1410.30042
455,P,-1410.30042
456,P,-730.781128
457,P,-730.781128
458,P,-241.327072
459,P,-241.327072
460,P,-81.231041
461,P,-81.231041
462,P,-89.0780792
463,P,-89.0780792
464,P,670.694763
465,P,670.694763
466,P,-272.404816
467,P,-272.404816
468,P,1846.82446
469,P,1846.82446
470,P,-786.612
471,P,-786.612
472,P,1855.02405
473,P,1855.02405
474,P,3464.61084
475,P,3464.61084
476,P,-1509.86072
477,P,-1509.86072
478,P,-799.869202
479,P,-799.869202
480,P,-282.261169
481,P,-282.261169
482,P,-99.2631989
483,P,-99.2631989
484,P,690.869934
485,P,690.869934
486,P,-100.900383
487,P,-100.900383
488,P,-284.420776
489,P,-284.420776
490,P,1828.16345
491,P,1828.16345
492,P,-849.322632
493,P,-849.322632
494,P,1789.03015
495,P,1789.03015
496,P,3463.54761
497,P,3463.54761
498,P,-1559.10315
499,P,-1559.10315
500,P,-859.428589
501,P,-859.428589
502,P,-282.652893
503,P,-282.652893
504,P,-88.7185211
505,P,-88.7185211
506,P,732.076538
507,P,732.076538
508,P,-80.0873947
509,P,-80.0873947
510,P,-241.967941
511,P,-241.967941
512,P,1526.97388
513,P,1526.97388
514,P,-883.541382
515,P,-883.541382
516,P,1337.03076
517,P,1337.03076
518,P,3033.53076
519,P,3033.53076
520,P,-1289.86597
521,P,-1289.86597
522,P,-858.053162
523,P,-858.053162
524,P,-686.503296
525,P,-686.503296
526,P,-686.503296
527,P,-1073.13562
528,P,-1073.13562
529,P,-229.092606
530,P,-229.092606
531,P,-5.6411128
532,P,-5.6411128
533,P,61.895668
534,P,61.895668
535,P,1193.63611
536,P,1193.63611
537,P,-219.361176
538,P,-219.361176
539,P,276.446533
540,P,276.446533
541,P,166.275848
542,P,166.275848
543,P,141.495422
544,P,141.495422
545,P,133.580063
546,P,133.580063
547,P,151.543411
548,P,151.543411
549,P,270.369965
550,P,270.369965
551,P,-71.8478394
552,P,-71.8478394
553,P,968.975708
554,P,968.975708
555,P,29.0734234
556,P,29.0734234
557,P,241.277344
558,P,241.277344
559,P,154.774185
560,P,154.774185
561,P,135.290726
562,P,135.290726
563,P,131.735458
564,P,131.735458
565,P,161.416611
566,P,161.416611
567,P,307.05188
568,P,307.05188
569,P,-201.863556
570,P,-201.863556
571,P,-87.5020752
572,P,-87.5020752
573,P,1236.33447
574,P,1236.33447
575,P,169.915497
576,P,169.915497
577,P,529.416077
578,P,529.416077
579,P,159.459442
580,P,159.459442
581,P,663.59314
582,P,663.59314
583,P,446.619629
584,P,446.619629
585,P,553.822021
586,P,553.822021
*BOUNDARY
MOUNT, 1, 6
*END STEP
