*HEADING
Wing shell from CFD pressure
*NODE
1,0.069739297,-0.00102981995,-0.363629997
2,0.0697698966,-0.00120007002,0.363629997
3,0.0714394003,0.00063206302,-0.0312316995
4,0.0714394003,0.00063206302,0.0312316995
5,0.0717175975,-0.00060670299,-0.3125
6,0.0717175975,-0.00060670299,-0.28125
7,0.0717175975,-0.00060670299,-0.25
8,0.0717175975,-0.00060670299,-0.21875
9,0.0717175975,-0.00060670299,-0.1875
10,0.0717175975,-0.00060670299,-0.15625
11,0.0717175975,-0.00060670299,-0.125
12,0.0717175975,-0.00060670299,-0.09375
13,0.0717175975,-0.00060670299,-0.0625
14,0.0717175975,-0.00060670299,-0
15,0.0717175975,-0.00060670299,0.0625
16,0.0717175975,-0.00060670299,0.09375
17,0.0717175975,-0.00060670299,0.125
18,0.0717175975,-0.00060670299,0.15625
19,0.0717175975,-0.00060670299,0.1875
20,0.071752198,-0.00078132801,0.21875
21,0.071752198,-0.00078132801,0.25
22,0.071752198,-0.00078132801,0.28125
23,0.071752198,-0.00078132801,0.3125
24,0.0726735964,-0.000402225007,-0.342698991
25,0.0727081969,-0.000579395972,0.342698991
26,0.101957001,0.00586085021,-0.368247986
27,0.102007002,0.00560953002,0.368247986
28,0.103049003,-0.00975168031,-0.342988998
29,0.103049003,-0.00975168031,0.342988998
30,0.103165001,-0.0123466002,-0.3125
31,0.103165001,-0.0123466002,-0.28125
32,0.103165001,-0.0123466002,-0.25
33,0.103165001,-0.0123466002,-0.21875
34,0.103165001,-0.0123466002,-0.1875
35,0.103165001,-0.0123466002,-0.15625
36,0.103165001,-0.0123466002,-0.125
37,0.103165001,-0.0123466002,-0.09375
38,0.103165001,-0.0123466002,-0.0625
39,0.103165001,-0.0123466002,-0.03125
40,0.103165001,-0.0123466002,-0
41,0.103165001,-0.0123466002,0.03125
42,0.103165001,-0.0123466002,0.0625
43,0.103165001,-0.0123466002,0.09375
44,0.103165001,-0.0123466002,0.125
45,0.103165001,-0.0123466002,0.15625
46,0.103165001,-0.0123466002,0.1875
47,0.103165001,-0.0123466002,0.21875
48,0.103165001,-0.0123466002,0.25
49,0.103165001,-0.0123466002,0.28125
50,0.103165001,-0.0123466002,0.3125
51,0.110963002,0.0256021991,-0.3125
52,0.110963002,0.0256021991,-0.28125
53,0.110963002,0.0256021991,-0.25
54,0.110963002,0.0256021991,-0.21875
55,0.110963002,0.0256021991,-0.1875
56,0.110963002,0.0256021991,-0.15625
57,0.110963002,0.0256021991,-0.125
58,0.110963002,0.0256021991,-0.09375
59,0.110963002,0.0256021991,-0.0625
60,0.110963002,0.0256021991,-0.03125
61,0.110963002,0.0256021991,0
62,0.110963002,0.0256021991,0.03125
63,0.110963002,0.0256021991,0.0625
64,0.110963002,0.0256021991,0.09375
65,0.110963002,0.0256021991,0.125
66,0.110963002,0.0256021991,0.15625
67,0.110963002,0.0256021991,0.1875
68,0.110963002,0.0256021991,0.21875
69,0.110963002,0.0256021991,0.25
70,0.110963002,0.0256021991,0.28125
71,0.110963002,0.0256021991,0.3125
72,0.111714996,0.0257360991,-0.343582004
73,0.111714996,0.0257360991,0.343582004
74,0.114023998,0.0261439998,-0.373286009
75,0.114023998,0.0261439998,0.373286009
76,0.115680002,0.00879598036,-0.395586014
77,0.115731001,0.00850845966,0.395586014
78,0.117269002,0.0267076995,-0.395969987
79,0.117269002,0.0267076995,0.395969987
80,0.148055002,-0.000943806022,-0.3125
81,0.148055002,-0.000943806022,-0.28125
82,0.148055002,-0.000943806022,-0.25
83,0.148055002,-0.000943806022,-0.21875
84,0.148055002,-0.000943806022,-0.1875
85,0.148055002,-0.000943806022,-0.15625
86,0.148055002,-0.000943806022,-0.125
87,0.148055002,-0.000943806022,-0.09375
88,0.148055002,-0.000943806022,-0.0625
89,0.148055002,-0.000943806022,-0.03125
90,0.148055002,-0.000943806022,-1e-12
91,0.148055002,-0.000943806022,0.03125
92,0.148055002,-0.000943806022,0.0625
93,0.148055002,-0.000943806022,0.09375
94,0.148055002,-0.000943806022,0.125
95,0.148055002,-0.000943806022,0.15625
96,0.148055002,-0.000943806022,0.1875
97,0.148055002,-0.000943806022,0.21875
98,0.148055002,-0.000943806022,0.25
99,0.148055002,-0.000943806022,0.28125
100,0.148055002,-0.000943806022,0.3125
101,0.148203999,-0.000902633008,-0.343531013
102,0.148203999,-0.000902633008,0.343531013
103,0.149703994,-0.000487148995,-0.373362988
104,0.149703994,-0.000487148995,0.373362988
105,0.150305003,0.0162014998,-0.397318989
106,0.150398001,0.0158312991,0.397318989
107,0.153033003,0.032280799,-0.397583008
108,0.153033003,0.032280799,0.397583008
109,0.154369995,0.032469701,-0.373890013
110,0.154369995,0.032469701,0.373890013
111,0.154415995,0.0324762017,-0.34375
112,0.154415995,0.0324762017,-0.3125
113,0.154415995,0.0324762017,-0.28125
114,0.154415995,0.0324762017,-0.25
115,0.154415995,0.0324762017,-0.21875
116,0.154415995,0.0324762017,-0.1875
117,0.154415995,0.0324762017,-0.15625
118,0.154415995,0.0324762017,-0.125
119,0.154415995,0.0324762017,-0.09375
120,0.154415995,0.0324762017,-0.0625
121,0.154415995,0.0324762017,-0.03125
122,0.154415995,0.0324762017,-0
123,0.154415995,0.0324762017,0.03125
124,0.154415995,0.0324762017,0.0625
125,0.154415995,0.0324762017,0.09375
126,0.154415995,0.0324762017,0.125
127,0.154415995,0.0324762017,0.15625
128,0.154415995,0.0324762017,0.1875
129,0.154415995,0.0324762017,0.21875
130,0.154415995,0.0324762017,0.25
131,0.154415995,0.0324762017,0.28125
132,0.154415995,0.0324762017,0.3125
133,0.154415995,0.0324762017,0.34375
134,0.193832994,0.0124773998,-0.34375
135,0.193832994,0.0124773998,-0.3125
136,0.193832994,0.0124773998,-0.28125
137,0.193832994,0.0124773998,-0.25
138,0.193832994,0.0124773998,-0.21875
139,0.193832994,0.0124773998,-0.1875
140,0.193832994,0.0124773998,-0.15625
141,0.193832994,0.0124773998,-0.125
142,0.193832994,0.0124773998,-0.09375
143,0.193832994,0.0124773998,-0.0625
144,0.193832994,0.0124773998,-0.03125
145,0.193832994,0.0124773998,-1e-12
146,0.193832994,0.0124773998,0.03125
147,0.193832994,0.0124773998,0.0625
148,0.193832994,0.0124773998,0.09375
149,0.193832994,0.0124773998,0.125
150,0.193832994,0.0124773998,0.15625
151,0.193832994,0.0124773998,0.1875
152,0.193832994,0.0124773998,0.21875
153,0.193832994,0.0124773998,0.25
154,0.193832994,0.0124773998,0.28125
155,0.193832994,0.0124773998,0.3125
156,0.193832994,0.0124773998,0.34375
157,0.194129005,0.0125685995,-0.373890013
158,0.194129005,0.0125685995,0.373890013
159,0.197088003,0.0134824002,-0.397583008
160,0.197088003,0.0134824002,0.397583008
161,0.198117003,0.0380580015,-0.397583008
162,0.198117003,0.0380580015,0.397583008
163,0.199634999,0.0382339992,-0.373890013
164,0.199634999,0.0382339992,0.373890013
165,0.199994996,0.0382754989,-0.34375
166,0.199994996,0.0382754989,-0.3125
167,0.199994996,0.0382754989,-0.28125
168,0.199994996,0.0382754989,-0.25
169,0.199994996,0.0382754989,-0.21875
170,0.199994996,0.0382754989,-0.1875
171,0.199994996,0.0382754989,-0.15625
172,0.199994996,0.0382754989,-0.125
173,0.199994996,0.0382754989,-0.09375
174,0.199994996,0.0382754989,-0.0625
175,0.199994996,0.0382754989,-0.03125
176,0.199994996,0.0382754989,0
177,0.199994996,0.0382754989,0.03125
178,0.199994996,0.0382754989,0.0625
179,0.199994996,0.0382754989,0.09375
180,0.199994996,0.0382754989,0.125
181,0.199994996,0.0382754989,0.15625
182,0.199994996,0.0382754989,0.1875
183,0.199994996,0.0382754989,0.21875
184,0.199994996,0.0382754989,0.25
185,0.199994996,0.0382754989,0.28125
186,0.199994996,0.0382754989,0.3125
187,0.199994996,0.0382754989,0.34375
188,0.230315998,0.0240691993,-0.396245003
189,0.230315998,0.0240691993,0.396245003
190,0.231569007,0.0244795997,-0.373744011
191,0.231569007,0.0244795997,0.373744011
192,0.231739998,0.0245354995,-0.34375
193,0.231739998,0.0245354995,-0.3125
194,0.231739998,0.0245354995,-0.28125
195,0.231739998,0.0245354995,-0.25
196,0.231739998,0.0245354995,-0.21875
197,0.231739998,0.0245354995,-0.1875
198,0.231739998,0.0245354995,-0.15625
199,0.231739998,0.0245354995,-0.125
200,0.231739998,0.0245354995,-0.09375
201,0.231739998,0.0245354995,-0.0625
202,0.231739998,0.0245354995,-0.03125
203,0.231739998,0.0245354995,0
204,0.231739998,0.0245354995,0.03125
205,0.231739998,0.0245354995,0.0625
206,0.231739998,0.0245354995,0.09375
207,0.231739998,0.0245354995,0.125
208,0.231739998,0.0245354995,0.15625
209,0.231739998,0.0245354995,0.1875
210,0.231739998,0.0245354995,0.21875
211,0.231739998,0.0245354995,0.25
212,0.231739998,0.0245354995,0.28125
213,0.231739998,0.0245354995,0.3125
214,0.231739998,0.0245354995,0.34375
215,0.234571993,0.0342245996,-0.396245003
216,0.234688997,0.0336363986,0.396245003
217,0.235884994,0.0416157991,-0.373701006
218,0.235884994,0.0416157991,0.373701006
219,0.236258,0.0421511009,-0.15625
220,0.236258,0.0421511009,-0.125
221,0.236258,0.0421511009,-0.09375
222,0.236258,0.0421511009,-0.0625
223,0.236258,0.0421511009,-0.03125
224,0.236258,0.0421511009,-1e-12
225,0.236258,0.0421511009,0.03125
226,0.236258,0.0421511009,0.0625
227,0.236258,0.0421511009,0.09375
228,0.236258,0.0421511009,0.125
229,0.236258,0.0421511009,0.15625
230,0.236361995,0.0410948992,-0.343728006
231,0.236361995,0.0410948992,0.343728006
232,0.236420006,0.0405086018,-0.312489003
233,0.236420006,0.0405086018,0.312489003
234,0.236478001,0.0399222001,-0.28125
235,0.236478001,0.0399222001,0.28125
236,0.236535996,0.0393358991,-0.250010997
237,0.236535996,0.0393358991,0.250010997
238,0.236594006,0.0387496017,-0.218771994
239,0.236594006,0.0387496017,0.218771994
240,0.236652002,0.0381632,-0.187533006
241,0.236652002,0.0381632,0.187533006
*ELEMENT, TYPE=S3, ELSET=ALL_SHELL
1,103,101,134
2,134,157,103
3,137,136,81
4,81,82,137
5,137,82,83
6,83,138,137
7,141,140,85
8,85,86,141
9,141,86,87
10,87,142,141
11,145,144,89
12,89,90,145
13,90,91,146
14,146,145,90
15,149,148,93
16,93,94,149
17,149,94,95
18,95,150,149
19,153,152,97
20,97,98,153
21,153,98,99
22,99,154,153
23,104,158,156
24,156,102,104
25,157,159,105
26,105,103,157
27,137,195,194
28,194,136,137
29,26,74,72
30,26,72,24
31,24,1,26
32,24,72,51
33,51,5,24
34,141,199,198
35,198,140,141
36,8,7,53
37,53,54,8
38,9,8,54
39,54,55,9
40,145,203,202
41,202,144,145
42,12,11,57
43,57,58,12
44,13,12,58
45,58,59,13
46,149,207,206
47,206,148,149
48,4,14,61
49,61,62,4
50,4,62,63
51,63,15,4
52,153,211,210
53,210,152,153
54,18,17,65
55,65,66,18
56,19,18,66
57,66,67,19
58,191,214,156
59,156,158,191
60,69,70,22
61,22,21,69
62,23,22,70
63,70,71,23
64,158,104,106
65,106,160,158
66,101,103,26
67,26,28,101
68,101,80,135
69,135,134,101
70,28,30,80
71,80,101,28
72,32,31,6
73,6,7,32
74,30,5,6
75,6,31,30
76,135,80,81
77,81,136,135
78,32,82,81
79,81,31,32
80,30,31,81
81,81,80,30
82,72,111,112
83,112,51,72
84,52,53,7
85,7,6,52
86,51,52,6
87,6,5,51
88,112,113,52
89,52,51,112
90,32,33,83
91,83,82,32
92,139,138,83
93,83,84,139
94,34,84,83
95,83,33,34
96,36,35,10
97,10,11,36
98,34,9,10
99,10,35,34
100,139,84,85
101,85,140,139
102,36,86,85
103,85,35,36
104,34,35,85
105,85,84,34
106,54,115,116
107,116,55,54
108,56,57,11
109,11,10,56
110,55,56,10
111,10,9,55
112,116,117,56
113,56,55,116
114,36,37,87
115,87,86,36
116,143,142,87
117,87,88,143
118,38,88,87
119,87,37,38
120,14,40,39
121,39,3,14
122,13,3,39
123,39,38,13
124,143,88,89
125,89,144,143
126,90,89,39
127,39,40,90
128,38,39,89
129,89,88,38
130,58,119,120
131,120,59,58
132,120,121,60
133,60,59,120
134,40,41,91
135,91,90,40
136,147,146,91
137,91,92,147
138,42,92,91
139,91,41,42
140,44,43,16
141,16,17,44
142,42,15,16
143,16,43,42
144,147,92,93
145,93,148,147
146,44,94,93
147,93,43,44
148,42,43,93
149,93,92,42
150,62,123,124
151,124,63,62
152,124,125,64
153,64,63,124
154,44,45,95
155,95,94,44
156,151,150,95
157,95,96,151
158,46,96,95
159,95,45,46
160,48,47,20
161,20,21,48
162,20,47,46
163,46,19,20
164,151,96,97
165,97,152,151
166,48,98,97
167,97,47,48
168,46,47,97
169,97,96,46
170,66,127,128
171,128,67,66
172,68,69,21
173,21,20,68
174,19,67,68
175,68,20,19
176,128,129,68
177,68,67,128
178,48,49,99
179,99,98,48
180,155,154,99
181,99,100,155
182,50,100,99
183,99,49,50
184,25,2,27
185,27,29,25
186,25,29,50
187,50,23,25
188,102,156,155
189,155,100,102
190,102,29,27
191,27,104,102
192,29,102,100
193,100,50,29
194,70,131,132
195,132,71,70
196,27,2,25
197,27,25,73
198,73,75,27
199,25,23,71
200,71,73,25
201,73,71,132
202,132,133,73
203,188,159,157
204,157,190,188
205,135,136,194
206,194,193,135
207,139,140,198
208,198,197,139
209,143,144,202
210,202,201,143
211,147,148,206
212,206,205,147
213,151,152,210
214,210,209,151
215,155,156,214
216,214,213,155
217,190,157,134
218,134,192,190
219,217,230,165
220,165,163,217
221,230,217,190
222,190,192,230
223,137,138,196
224,196,195,137
225,236,238,169
226,169,168,236
227,238,236,195
228,195,196,238
229,141,142,200
230,200,199,141
231,173,172,220
232,220,221,173
233,200,221,220
234,220,199,200
235,203,145,146
236,146,204,203
237,176,224,225
238,225,177,176
239,203,204,225
240,225,224,203
241,149,150,208
242,208,207,149
243,181,180,228
244,228,229,181
245,208,229,228
246,228,207,208
247,153,154,212
248,212,211,153
249,235,185,184
250,184,237,235
251,237,211,212
252,212,235,237
253,189,191,158
254,158,160,189
255,164,218,216
256,216,162,164
257,216,218,191
258,191,189,216
259,163,165,111
260,111,109,163
261,114,113,167
262,167,168,114
263,169,115,114
264,114,168,169
265,118,117,171
266,171,172,118
267,173,119,118
268,118,172,173
269,122,121,175
270,175,176,122
271,176,177,123
272,123,122,176
273,126,125,179
274,179,180,126
275,181,127,126
276,126,180,181
277,130,129,183
278,183,184,130
279,185,131,130
280,130,184,185
281,164,110,133
282,133,187,164
283,161,163,109
284,109,107,161
285,24,28,26
286,26,1,24
287,24,5,30
288,30,28,24
289,234,236,168
290,168,167,234
291,236,234,194
292,194,195,236
293,32,7,8
294,8,33,32
295,34,33,8
296,8,9,34
297,171,219,220
298,220,172,171
299,220,219,198
300,198,199,220
301,36,11,12
302,12,37,36
303,38,37,12
304,12,13,38
305,224,176,175
306,175,223,224
307,224,223,202
308,202,203,224
309,14,4,41
310,41,40,14
311,15,42,41
312,41,4,15
313,179,227,228
314,228,180,179
315,228,227,206
316,206,207,228
317,44,17,18
318,18,45,44
319,46,45,18
320,18,19,46
321,237,184,183
322,183,239,237
323,239,210,211
324,211,237,239
325,48,21,22
326,22,49,48
327,50,49,22
328,22,23,50
329,218,164,187
330,187,231,218
331,231,214,191
332,191,218,231
333,162,108,110
334,110,164,162
335,74,109,111
336,111,72,74
337,112,111,165
338,165,166,112
339,112,166,167
340,167,113,112
341,114,53,52
342,52,113,114
343,54,53,114
344,114,115,54
345,116,115,169
346,169,170,116
347,116,170,171
348,171,117,116
349,118,57,56
350,56,117,118
351,3,60,61
352,61,14,3
353,3,13,59
354,59,60,3
355,58,57,118
356,118,119,58
357,120,119,173
358,173,174,120
359,120,174,175
360,175,121,120
361,122,61,60
362,60,121,122
363,17,16,64
364,64,65,17
365,16,15,63
366,63,64,16
367,61,122,123
368,123,62,61
369,124,123,177
370,177,178,124
371,124,178,179
372,179,125,124
373,126,65,64
374,64,125,126
375,66,65,126
376,126,127,66
377,128,127,181
378,181,182,128
379,128,182,183
380,183,129,128
381,130,69,68
382,68,129,130
383,70,69,130
384,130,131,70
385,132,131,185
386,185,186,132
387,132,186,187
388,187,133,132
389,75,73,133
390,133,110,75
391,163,161,215
392,215,217,163
393,215,188,190
394,190,217,215
395,230,232,166
396,166,165,230
397,232,230,192
398,192,193,232
399,135,193,192
400,192,134,135
401,238,240,170
402,170,169,238
403,240,238,196
404,196,197,240
405,139,197,196
406,196,138,139
407,173,221,222
408,222,174,173
409,222,221,200
410,200,201,222
411,143,201,200
412,200,142,143
413,177,225,226
414,226,178,177
415,226,225,204
416,204,205,226
417,147,205,204
418,204,146,147
419,182,181,229
420,229,241,182
421,241,229,208
422,208,209,241
423,151,209,208
424,208,150,151
425,233,186,185
426,185,235,233
427,235,212,213
428,213,233,235
429,155,213,212
430,212,154,155
431,78,107,109
432,109,74,78
433,76,26,103
434,103,105,76
435,74,26,76
436,76,78,74
437,232,234,167
438,167,166,232
439,234,232,193
440,193,194,234
441,170,240,219
442,219,171,170
443,240,197,198
444,198,219,240
445,175,174,222
446,222,223,175
447,222,201,202
448,202,223,222
449,179,178,226
450,226,227,179
451,226,205,206
452,206,227,226
453,239,183,182
454,182,241,239
455,241,209,210
456,210,239,241
457,231,187,186
458,186,233,231
459,233,213,214
460,214,231,233
461,79,75,110
462,110,108,79
463,75,79,77
464,77,27,75
465,77,106,104
466,104,27,77
467,189,160,162
468,162,216,189
469,107,105,159
470,159,161,107
471,108,162,160
472,160,106,108
473,188,215,161
474,161,159,188
475,105,107,78
476,78,76,105
477,106,77,79
478,79,108,106
*MATERIAL, NAME=CFRP
*ELASTIC
7e+10,0.3
*DENSITY
1600
*SHELL SECTION, ELSET=ALL_SHELL, MATERIAL=CFRP
0.0025
*NSET, NSET=ALLNODES, GENERATE
1,241,1
*NSET, NSET=MOUNT
1,2
*STEP
*STATIC
*NODE PRINT, NSET=ALLNODES
U
*EL PRINT, ELSET=ALL_SHELL
S
*NODE FILE, NSET=ALLNODES
U
*EL FILE, ELSET=ALL_SHELL
S
*DLOAD
1,P,1090.32141
2,P,1090.32141
3,P,1326.67712
4,P,1326.67712
5,P,1400.69775
6,P,1400.69775
7,P,1544.34607
8,P,1544.34607
9,P,1584.75061
10,P,1584.75061
11,P,1665.54468
12,P,1665.54468
13,P,1687.13452
14,P,1687.13452
15,P,1693.75916
16,P,1693.75916
17,P,1694.1283
18,P,1694.1283
19,P,1619.16028
20,P,1619.16028
21,P,1569.59912
22,P,1569.59912
23,P,1331.03955
24,P,1331.03955
25,P,780.843445
26,P,780.843445
27,P,616.541016
28,P,616.541016
29,P,-1023.57043
30,P,-1023.57043
31,P,-1023.57043
32,P,-1269.22327
33,P,-1269.22327
34,P,723.689758
35,P,723.689758
36,P,-1449.53503
37,P,-1449.53503
38,P,-1471.39294
39,P,-1471.39294
40,P,786.09021
41,P,786.09021
42,P,-1552.21753
43,P,-1552.21753
44,P,-1564.99023
45,P,-1564.99023
46,P,791.329529
47,P,791.329529
48,P,-1629.05505
49,P,-1629.05505
50,P,-1643.81299
51,P,-1643.81299
52,P,729.914307
53,P,729.914307
54,P,-1714.70312
55,P,-1714.70312
56,P,-1728.26868
57,P,-1728.26868
58,P,734.936584
59,P,734.936584
60,P,-1770.17627
61,P,-1770.17627
62,P,-1753.16968
63,P,-1753.16968
64,P,959.392517
65,P,959.392517
66,P,927.797852
67,P,927.797852
68,P,1192.84204
69,P,1192.84204
70,P,1407.4325
71,P,1407.4325
72,P,342.835205
73,P,342.835205
74,P,305.265076
75,P,305.265076
76,P,1255.79346
77,P,1255.79346
78,P,1800.63403
79,P,1800.63403
80,P,1667.46326
81,P,1667.46326
82,P,-20.1312428
83,P,-20.1312428
84,P,-1394.2644
85,P,-1394.2644
86,P,-1348.98645
87,P,-1348.98645
88,P,-22.3824062
89,P,-22.3824062
90,P,1906.93689
91,P,1906.93689
92,P,1457.48193
93,P,1457.48193
94,P,1981.68237
95,P,1981.68237
96,P,456.110535
97,P,456.110535
98,P,434.24115
99,P,434.24115
100,P,1504.84473
101,P,1504.84473
102,P,2089.52832
103,P,2089.52832
104,P,2039.99316
105,P,2039.99316
106,P,-70.8484879
107,P,-70.8484879
108,P,-1508.21875
109,P,-1508.21875
110,P,-1489.00903
111,P,-1489.00903
112,P,-90.8555222
113,P,-90.8555222
114,P,2142.55371
115,P,2142.55371
116,P,1617.62793
117,P,1617.62793
118,P,2183.92969
119,P,2183.92969
120,P,466.437317
121,P,466.437317
122,P,461.476013
123,P,461.476013
124,P,1643.66992
125,P,1643.66992
126,P,2243.24463
127,P,2243.24463
128,P,2213.57959
129,P,2213.57959
130,P,-137.249969
131,P,-137.249969
132,P,-148.772156
133,P,-148.772156
134,P,2274.50366
135,P,2274.50366
136,P,1695.11438
137,P,1695.11438
138,P,2286.6687
139,P,2286.6687
140,P,487.651917
141,P,487.651917
142,P,489.553467
143,P,489.553467
144,P,1697.54163
145,P,1697.54163
146,P,2289.36865
147,P,2289.36865
148,P,2291.38843
149,P,2291.38843
150,P,-157.939163
151,P,-157.939163
152,P,-154.066452
153,P,-154.066452
154,P,2294.12915
155,P,2294.12915
156,P,1679.93872
157,P,1679.93872
158,P,2278.91235
159,P,2278.91235
160,P,411.039154
161,P,411.039154
162,P,435.902283
163,P,435.902283
164,P,1655.01428
165,P,1655.01428
166,P,2201.51367
167,P,2201.51367
168,P,2246.21216
169,P,2246.21216
170,P,-119.378632
171,P,-119.378632
172,P,-1742.03809
173,P,-1742.03809
174,P,-1738.0647
175,P,-1738.0647
176,P,-102.977684
177,P,-102.977684
178,P,2137.32397
179,P,2137.32397
180,P,1502.79041
181,P,1502.79041
182,P,2009.46997
183,P,2009.46997
184,P,443.250153
185,P,443.250153
186,P,313.29892
187,P,313.29892
188,P,1439.51526
189,P,1439.51526
190,P,1134.96802
191,P,1134.96802
192,P,1710.58691
193,P,1710.58691
194,P,-57.2668266
195,P,-57.2668266
196,P,-1379.73413
197,P,-1379.73413
198,P,-1379.73413
199,P,-1676.44324
200,P,-1676.44324
201,P,-61.1945534
202,P,-61.1945534
203,P,605.208008
204,P,605.208008
205,P,593.197205
206,P,593.197205
207,P,700.538025
208,P,700.538025
209,P,775.924377
210,P,775.924377
211,P,797.207092
212,P,797.207092
213,P,751.367065
214,P,751.367065
215,P,682.75293
216,P,682.75293
217,P,628.377808
218,P,628.377808
219,P,189.786484
220,P,189.786484
221,P,608.92334
222,P,608.92334
223,P,646.129761
224,P,646.129761
225,P,189.627319
226,P,189.627319
227,P,464.108246
228,P,464.108246
229,P,744.707397
230,P,744.707397
231,P,85.4225006
232,P,85.4225006
233,P,547.224487
234,P,547.224487
235,P,794.590271
236,P,794.590271
237,P,69.305603
238,P,69.305603
239,P,571.984924
240,P,571.984924
241,P,785.156006
242,P,785.156006
243,P,97.2166824
244,P,97.2166824
245,P,562.725037
246,P,562.725037
247,P,705.376587
248,P,705.376587
249,P,192.839905
250,P,192.839905
251,P,534.218689
252,P,534.218689
253,P,717.925964
254,P,717.925964
255,P,229.124771
256,P,229.124771
257,P,680.694824
258,P,680.694824
259,P,78.4067535
260,P,78.4067535
261,P,84.055481
262,P,84.055481
263,P,76.6474304
264,P,76.6474304
265,P,28.4690647
266,P,28.4690647
267,P,13.249011
268,P,13.249011
269,P,-9.11184216
270,P,-9.11184216
271,P,-11.1971807
272,P,-11.1971807
273,P,4.60605621
274,P,4.60605621
275,P,16.8864956
276,P,16.8864956
277,P,67.9534683
278,P,67.9534683
279,P,73.1606064
280,P,73.1606064
281,P,59.883358
282,P,59.883358
283,P,63.4450035
284,P,63.4450035
285,P,386.665314
286,P,386.665314
287,P,292.188904
288,P,292.188904
289,P,184.61084
290,P,184.61084
291,P,473.102997
292,P,473.102997
293,P,372.914642
294,P,372.914642
295,P,405.507416
296,P,405.507416
297,P,101.635757
298,P,101.635757
299,P,530.541748
300,P,530.541748
301,P,463.805511
302,P,463.805511
303,P,475.294128
304,P,475.294128
305,P,70.0405426
306,P,70.0405426
307,P,563.553772
308,P,563.553772
309,P,461.606567
310,P,461.606567
311,P,465.103607
312,P,465.103607
313,P,81.3128586
314,P,81.3128586
315,P,565.640137
316,P,565.640137
317,P,469.780151
318,P,469.780151
319,P,455.256897
320,P,455.256897
321,P,197.327652
322,P,197.327652
323,P,507.431458
324,P,507.431458
325,P,362.410919
326,P,362.410919
327,P,321.393616
328,P,321.393616
329,P,201.104111
330,P,201.104111
331,P,717.038269
332,P,717.038269
333,P,33.9415092
334,P,33.9415092
335,P,-39.4187088
336,P,-39.4187088
337,P,86.6421814
338,P,86.6421814
339,P,86.6161652
340,P,86.6161652
341,P,-34.2951622
342,P,-34.2951622
343,P,-51.8969955
344,P,-51.8969955
345,P,65.5023575
346,P,65.5023575
347,P,47.1574631
348,P,47.1574631
349,P,-108.047249
350,P,-108.047249
351,P,-1588
352,P,-1588
353,P,-1573.72766
354,P,-1573.72766
355,P,-124.599297
356,P,-124.599297
357,P,3.13994908
358,P,3.13994908
359,P,-5.41372252
360,P,-5.41372252
361,P,-154.775345
362,P,-154.775345
363,P,-1674.08411
364,P,-1674.08411
365,P,-1661.23792
366,P,-1661.23792
367,P,-158.740494
368,P,-158.740494
369,P,-9.1749649
370,P,-9.1749649
371,P,-4.48834181
372,P,-4.48834181
373,P,-145.903458
374,P,-145.903458
375,P,-135.696259
376,P,-135.696259
377,P,37.840786
378,P,37.840786
379,P,55.6148491
380,P,55.6148491
381,P,-84.5208588
382,P,-84.5208588
383,P,-70.1678619
384,P,-70.1678619
385,P,76.1062393
386,P,76.1062393
387,P,72.2492905
388,P,72.2492905
389,P,-92.7431564
390,P,-92.7431564
391,P,207.055969
392,P,207.055969
393,P,573.018127
394,P,573.018127
395,P,182.691742
396,P,182.691742
397,P,549.868591
398,P,549.868591
399,P,590.824829
400,P,590.824829
401,P,188.11113
402,P,188.11113
403,P,468.844177
404,P,468.844177
405,P,672.91333
406,P,672.91333
407,P,77.3609695
408,P,77.3609695
409,P,555.578369
410,P,555.578369
411,P,762.071106
412,P,762.071106
413,P,70.5334167
414,P,70.5334167
415,P,572.761169
416,P,572.761169
417,P,796.732422
418,P,796.732422
419,P,153.010483
420,P,153.010483
421,P,535.237061
422,P,535.237061
423,P,770.191101
424,P,770.191101
425,P,189.584351
426,P,189.584351
427,P,571.874268
428,P,571.874268
429,P,681.350525
430,P,681.350525
431,P,-49.9780045
432,P,-49.9780045
433,P,666.756104
434,P,666.756104
435,P,-433.414276
436,P,-433.414276
437,P,180.801376
438,P,180.801376
439,P,501.046417
440,P,501.046417
441,P,150.10788
442,P,150.10788
443,P,502.196411
444,P,502.196411
445,P,71.915863
446,P,71.915863
447,P,559.938416
448,P,559.938416
449,P,73.3596954
450,P,73.3596954
451,P,570.986206
452,P,570.986206
453,P,194.944901
454,P,194.944901
455,P,506.061859
456,P,506.061859
457,P,189.965866
458,P,189.965866
459,P,636.325378
460,P,636.325378
461,P,-118.917145
462,P,-118.917145
463,P,-647.553711
464,P,-647.553711
465,P,810.990662
466,P,810.990662
467,P,370.681152
468,P,370.681152
469,P,359.857666
470,P,359.857666
471,P,430.054901
472,P,430.054901
473,P,319.615784
474,P,319.615784
475,P,235.391495
476,P,235.391495
477,P,265.283295
478,P,265.283295
*BOUNDARY
MOUNT, 1, 6
*END STEP
