*HEADING
Wing shell from CFD pressure
*NODE
1,0.0705259964,-0.000146785998,-0.362361014
2,0.0705344975,-0.000321711996,0.362361014
3,0.0751926005,0.000103703002,-0.341966987
4,0.075202398,-8.3005099e-05,0.341966987
5,0.0753670037,0.000113064998,-0.3125
6,0.0753670037,0.000113064998,-0.28125
7,0.0753670037,0.000113064998,-0.25
8,0.0753670037,0.000113064998,-0.21875
9,0.0753727034,1.09622e-05,-4.8855e-07
10,0.0753768012,-7.4084201e-05,-0.1875
11,0.0753768012,-7.4084201e-05,-0.15625
12,0.0753768012,-7.4084201e-05,-0.125
13,0.0753768012,-7.4084201e-05,-0.09375
14,0.0753768012,-7.4084201e-05,-0.0625
15,0.0753768012,-7.4084201e-05,-0.03125
16,0.0753768012,-7.4084201e-05,0.03125
17,0.0753768012,-7.4084201e-05,0.0625
18,0.0753768012,-7.4084201e-05,0.09375
19,0.0753768012,-7.4084201e-05,0.125
20,0.0753768012,-7.4084201e-05,0.15625
21,0.0753768012,-7.4084201e-05,0.1875
22,0.0753768012,-7.4084201e-05,0.21875
23,0.0753768012,-7.4084201e-05,0.25
24,0.0753768012,-7.4084201e-05,0.28125
25,0.0753768012,-7.4084201e-05,0.3125
26,0.102954999,0.00159391004,-0.359369993
27,0.102972001,0.00133710995,0.359369993
28,0.103283003,0.0167602003,-0.341601998
29,0.103283003,0.0167602003,0.341601998
30,0.103336997,-0.0138211995,-0.341733009
31,0.103336997,-0.0138211995,0.341733009
32,0.103344999,0.0193687007,-0.28125
33,0.103344999,0.0193687007,-0.25
34,0.103344999,0.0193687007,-0.21875
35,0.103344999,0.0193687007,-0.1875
36,0.103344999,0.0193687007,-0.15625
37,0.103344999,0.0193687007,-0.125
38,0.103344999,0.0193687007,-0.09375
39,0.103344999,0.0193687007,-0.0625
40,0.103344999,0.0193687007,-0.03125
41,0.103344999,0.0193687007,-0
42,0.103344999,0.0193687007,0.03125
43,0.103344999,0.0193687007,0.0625
44,0.103344999,0.0193687007,0.09375
45,0.103344999,0.0193687007,0.125
46,0.103344999,0.0193687007,0.15625
47,0.103344999,0.0193687007,0.1875
48,0.103344999,0.0193687007,0.21875
49,0.103344999,0.0193687007,0.25
50,0.103344999,0.0193687007,0.28125
51,0.103347003,-0.0164330006,-0.3125
52,0.103347003,-0.0164330006,-0.28125
53,0.103347003,-0.0164330006,-0.25
54,0.103347003,-0.0164330006,-0.21875
55,0.103347003,-0.0164330006,-0.1875
56,0.103347003,-0.0164330006,-0.15625
57,0.103347003,-0.0164330006,-0.125
58,0.103347003,-0.0164330006,-0.09375
59,0.103347003,-0.0164330006,-0.0625
60,0.103347003,-0.0164330006,-0.03125
61,0.103347003,-0.0164330006,-1e-12
62,0.103347003,-0.0164330006,0.03125
63,0.103347003,-0.0164330006,0.0625
64,0.103347003,-0.0164330006,0.09375
65,0.103347003,-0.0164330006,0.125
66,0.103347003,-0.0164330006,0.15625
67,0.103347003,-0.0164330006,0.1875
68,0.103347003,-0.0164330006,0.21875
69,0.103347003,-0.0164330006,0.25
70,0.103347003,-0.0164330006,0.28125
71,0.103347003,-0.0164330006,0.3125
72,0.103474997,0.0154716,-0.312584996
73,0.103474997,0.0154716,0.312584996
74,0.148913994,-0.0121437004,-0.3125
75,0.148913994,-0.0121437004,-0.28125
76,0.148913994,-0.0121437004,-0.25
77,0.148913994,-0.0121437004,-0.21875
78,0.148913994,-0.0121437004,-0.1875
79,0.148913994,-0.0121437004,-0.15625
80,0.148913994,-0.0121437004,-0.125
81,0.148913994,-0.0121437004,-0.09375
82,0.148913994,-0.0121437004,-0.0625
83,0.148913994,-0.0121437004,-0.03125
84,0.148913994,-0.0121437004,0
85,0.148913994,-0.0121437004,0.03125
86,0.148913994,-0.0121437004,0.0625
87,0.148913994,-0.0121437004,0.09375
88,0.148913994,-0.0121437004,0.125
89,0.148913994,-0.0121437004,0.15625
90,0.148913994,-0.0121437004,0.1875
91,0.148913994,-0.0121437004,0.21875
92,0.148913994,-0.0121437004,0.25
93,0.148913994,-0.0121437004,0.28125
94,0.148913994,-0.0121437004,0.3125
95,0.149390996,-0.0120889004,-0.341618001
96,0.149390996,-0.0120889004,0.341618001
97,0.149780005,0.00410730997,-0.359142005
98,0.149809003,0.00373228989,0.359142005
99,0.149978995,0.0197749007,-0.3125
100,0.149978995,0.0197749007,-0.28125
101,0.149978995,0.0197749007,-0.25
102,0.149978995,0.0197749007,-0.21875
103,0.149978995,0.0197749007,-0.1875
104,0.149978995,0.0197749007,-0.15625
105,0.149978995,0.0197749007,-0.125
106,0.149978995,0.0197749007,-0.09375
107,0.149978995,0.0197749007,-0.0625
108,0.149978995,0.0197749007,-0.03125
109,0.149978995,0.0197749007,0
110,0.149978995,0.0197749007,0.03125
111,0.149978995,0.0197749007,0.0625
112,0.149978995,0.0197749007,0.09375
113,0.149978995,0.0197749007,0.125
114,0.149978995,0.0197749007,0.15625
115,0.149978995,0.0197749007,0.1875
116,0.149978995,0.0197749007,0.21875
117,0.149978995,0.0197749007,0.25
118,0.149978995,0.0197749007,0.28125
119,0.149978995,0.0197749007,0.3125
120,0.150001004,0.0174844004,-0.341614008
121,0.150001004,0.0174844004,0.341614008
122,0.194991007,-0.00617056014,-0.3125
123,0.194991007,-0.00617056014,-0.28125
124,0.194991007,-0.00617056014,-0.25
125,0.194991007,-0.00617056014,-0.21875
126,0.194991007,-0.00617056014,-0.1875
127,0.194991007,-0.00617056014,-0.15625
128,0.194991007,-0.00617056014,-0.125
129,0.194991007,-0.00617056014,-0.09375
130,0.194991007,-0.00617056014,-0.0625
131,0.194991007,-0.00617056014,-0.03125
132,0.194991007,-0.00617056014,1e-12
133,0.194991007,-0.00617056014,0.03125
134,0.194991007,-0.00617056014,0.0625
135,0.194991007,-0.00617056014,0.09375
136,0.194991007,-0.00617056014,0.125
137,0.194991007,-0.00617056014,0.15625
138,0.194991007,-0.00617056014,0.1875
139,0.194991007,-0.00617056014,0.21875
140,0.194991007,-0.00617056014,0.25
141,0.194991007,-0.00617056014,0.28125
142,0.194991007,-0.00617056014,0.3125
143,0.195472002,-0.0061019198,-0.341713995
144,0.195472002,-0.0061019198,0.341713995
145,0.196633995,0.0185675994,-0.3125
146,0.196633995,0.0185675994,-0.28125
147,0.196633995,0.0185675994,-0.25
148,0.196633995,0.0185675994,-0.21875
149,0.196633995,0.0185675994,-0.1875
150,0.196633995,0.0185675994,-0.15625
151,0.196633995,0.0185675994,-0.125
152,0.196633995,0.0185675994,-0.09375
153,0.196633995,0.0185675994,-0.0625
154,0.196633995,0.0185675994,-0.03125
155,0.196633995,0.0185675994,0
156,0.196633995,0.0185675994,0.03125
157,0.196633995,0.0185675994,0.0625
158,0.196633995,0.0185675994,0.09375
159,0.196633995,0.0185675994,0.125
160,0.196633995,0.0185675994,0.15625
161,0.196633995,0.0185675994,0.1875
162,0.196633995,0.0185675994,0.21875
163,0.196633995,0.0185675994,0.25
164,0.196633995,0.0185675994,0.28125
165,0.196633995,0.0185675994,0.3125
166,0.196730003,0.0167941004,-0.341636986
167,0.196730003,0.0167941004,0.341636986
168,0.197610006,-0.0045231902,-0.359228998
169,0.197610006,-0.0045231902,0.359228998
170,0.224445,0.00116044004,-0.281278014
171,0.224445,0.00116044004,0.281278014
172,0.224562004,0.000413138012,-0.312510014
173,0.224562004,0.000413138012,0.312510014
174,0.224842995,-0.000264778006,-0.341960996
175,0.224842995,-0.000264778006,0.341960996
176,0.224889994,-0.00168027997,-0.25
177,0.224889994,-0.00168027997,-0.21875
178,0.224889994,-0.00168027997,-0.1875
179,0.224889994,-0.00168027997,-0.15625
180,0.224889994,-0.00168027997,-0.125
181,0.224889994,-0.00168027997,-0.09375
182,0.224889994,-0.00168027997,-0.0625
183,0.224889994,-0.00168027997,-0.03125
184,0.224889994,-0.00168027997,-0
185,0.224889994,-0.00168027997,0.03125
186,0.224889994,-0.00168027997,0.0625
187,0.224889994,-0.00168027997,0.09375
188,0.224889994,-0.00168027997,0.125
189,0.224889994,-0.00168027997,0.15625
190,0.224889994,-0.00168027997,0.1875
191,0.224889994,-0.00168027997,0.21875
192,0.224889994,-0.00168027997,0.25
193,0.229494005,-7.8077501e-05,-0.362358987
194,0.229494005,-7.8077501e-05,0.362358987
*ELEMENT, TYPE=S3, ELSET=ALL_SHELL
1,174,166,168
2,168,193,174
3,147,176,177
4,177,148,147
5,151,180,181
6,181,152,151
7,155,184,185
8,185,156,155
9,159,188,189
10,189,160,159
11,171,164,163
12,163,192,171
13,143,168,97
14,97,95,143
15,124,123,75
16,75,76,124
17,124,76,77
18,77,125,124
19,128,127,79
20,79,80,128
21,128,80,81
22,81,129,128
23,84,132,131
24,131,83,84
25,132,84,85
26,85,133,132
27,136,135,87
28,87,88,136
29,136,88,89
30,89,137,136
31,140,139,91
32,91,92,140
33,140,92,93
34,93,141,140
35,144,96,98
36,98,169,144
37,123,124,176
38,176,170,123
39,3,1,26
40,26,28,3
41,72,5,3
42,3,28,72
43,128,180,179
44,179,127,128
45,33,34,8
46,8,7,33
47,8,34,35
48,35,10,8
49,184,183,131
50,131,132,184
51,37,38,13
52,13,12,37
53,39,14,13
54,13,38,39
55,136,188,187
56,187,135,136
57,9,41,42
58,42,16,9
59,43,17,16
60,16,42,43
61,140,192,191
62,191,139,140
63,45,46,20
64,20,19,45
65,47,21,20
66,20,46,47
67,175,144,169
68,169,194,175
69,49,50,24
70,24,23,49
71,73,25,24
72,24,50,73
73,95,97,26
74,26,30,95
75,95,74,122
76,122,143,95
77,74,95,30
78,30,51,74
79,53,52,6
80,6,7,53
81,51,5,6
82,6,52,51
83,122,74,75
84,75,123,122
85,53,76,75
86,75,52,53
87,51,52,75
88,75,74,51
89,53,54,77
90,77,76,53
91,126,125,77
92,77,78,126
93,55,78,77
94,77,54,55
95,57,56,11
96,11,12,57
97,55,10,11
98,11,56,55
99,126,78,79
100,79,127,126
101,57,80,79
102,79,56,57
103,55,56,79
104,79,78,55
105,57,58,81
106,81,80,57
107,130,129,81
108,81,82,130
109,59,82,81
110,81,58,59
111,15,9,61
112,61,60,15
113,59,14,15
114,15,60,59
115,130,82,83
116,83,131,130
117,61,84,83
118,83,60,61
119,59,60,83
120,83,82,59
121,84,61,62
122,62,85,84
123,134,133,85
124,85,86,134
125,63,86,85
126,85,62,63
127,65,64,18
128,18,19,65
129,63,17,18
130,18,64,63
131,134,86,87
132,87,135,134
133,65,88,87
134,87,64,65
135,63,64,87
136,87,86,63
137,65,66,89
138,89,88,65
139,138,137,89
140,89,90,138
141,67,90,89
142,89,66,67
143,69,68,22
144,22,23,69
145,67,21,22
146,22,68,67
147,138,90,91
148,91,139,138
149,69,92,91
150,91,68,69
151,67,68,91
152,91,90,67
153,69,70,93
154,93,92,69
155,142,141,93
156,93,94,142
157,71,94,93
158,93,70,71
159,4,2,27
160,27,31,4
161,31,71,25
162,25,4,31
163,96,144,142
164,142,94,96
165,96,31,27
166,27,98,96
167,94,71,31
168,31,96,94
169,166,174,172
170,172,145,166
171,149,148,177
172,177,178,149
173,153,152,181
174,181,182,153
175,157,156,185
176,185,186,157
177,161,160,189
178,189,190,161
179,171,173,165
180,165,164,171
181,172,122,123
182,123,170,172
183,126,127,179
184,179,178,126
185,130,131,183
186,183,182,130
187,134,135,187
188,187,186,134
189,138,139,191
190,191,190,138
191,144,175,173
192,173,142,144
193,174,193,168
194,168,143,174
195,124,125,177
196,177,176,124
197,128,129,181
198,181,180,128
199,132,133,185
200,185,184,132
201,136,137,189
202,189,188,136
203,141,171,192
204,192,140,141
205,97,168,166
206,166,120,97
207,147,101,100
208,100,146,147
209,147,148,102
210,102,101,147
211,151,105,104
212,104,150,151
213,151,152,106
214,106,105,151
215,109,108,154
216,154,155,109
217,155,156,110
218,110,109,155
219,159,113,112
220,112,158,159
221,159,160,114
222,114,113,159
223,163,117,116
224,116,162,163
225,163,164,118
226,118,117,163
227,98,121,167
228,167,169,98
229,170,176,147
230,147,146,170
231,3,30,26
232,26,1,3
233,30,3,5
234,5,51,30
235,151,150,179
236,179,180,151
237,53,7,8
238,8,54,53
239,10,55,54
240,54,8,10
241,184,155,154
242,154,183,184
243,57,12,13
244,13,58,57
245,59,58,13
246,13,14,59
247,159,158,187
248,187,188,159
249,16,62,61
250,61,9,16
251,63,62,16
252,16,17,63
253,163,162,191
254,191,192,163
255,65,19,20
256,20,66,65
257,67,66,20
258,20,21,67
259,175,194,169
260,169,167,175
261,69,23,24
262,24,70,69
263,71,70,24
264,24,25,71
265,97,120,28
266,28,26,97
267,145,99,120
268,120,166,145
269,72,28,120
270,120,99,72
271,33,7,6
272,6,32,33
273,72,32,6
274,6,5,72
275,145,146,100
276,100,99,145
277,33,32,100
278,100,101,33
279,99,100,32
280,32,72,99
281,33,101,102
282,102,34,33
283,149,103,102
284,102,148,149
285,35,34,102
286,102,103,35
287,37,12,11
288,11,36,37
289,35,36,11
290,11,10,35
291,149,150,104
292,104,103,149
293,37,36,104
294,104,105,37
295,35,103,104
296,104,36,35
297,37,105,106
298,106,38,37
299,153,107,106
300,106,152,153
301,39,38,106
302,106,107,39
303,9,15,40
304,40,41,9
305,39,40,15
306,15,14,39
307,153,154,108
308,108,107,153
309,41,40,108
310,108,109,41
311,39,107,108
312,108,40,39
313,109,110,42
314,42,41,109
315,157,111,110
316,110,156,157
317,43,42,110
318,110,111,43
319,45,19,18
320,18,44,45
321,43,44,18
322,18,17,43
323,157,158,112
324,112,111,157
325,45,44,112
326,112,113,45
327,43,111,112
328,112,44,43
329,45,113,114
330,114,46,45
331,161,115,114
332,114,160,161
333,47,46,114
334,114,115,47
335,49,23,22
336,22,48,49
337,47,48,22
338,22,21,47
339,161,162,116
340,116,115,161
341,49,48,116
342,116,117,49
343,47,115,116
344,116,48,47
345,49,117,118
346,118,50,49
347,165,119,118
348,118,164,165
349,119,73,50
350,50,118,119
351,4,29,27
352,27,2,4
353,73,29,4
354,4,25,73
355,165,167,121
356,121,119,165
357,98,27,29
358,29,121,98
359,73,119,121
360,121,29,73
361,143,122,172
362,172,174,143
363,126,178,177
364,177,125,126
365,130,182,181
366,181,129,130
367,134,186,185
368,185,133,134
369,138,190,189
370,189,137,138
371,173,171,141
372,141,142,173
373,170,146,145
374,145,172,170
375,149,178,179
376,179,150,149
377,153,182,183
378,183,154,153
379,157,186,187
380,187,158,157
381,161,190,191
382,191,162,161
383,167,165,173
384,173,175,167
*MATERIAL, NAME=CFRP
*ELASTIC
7e+10,0.3
*DENSITY
1600
*SHELL SECTION, ELSET=ALL_SHELL, MATERIAL=CFRP
0.002
*NSET, NSET=ALLNODES, GENERATE
1,194,1
*NSET, NSET=MOUNT
1,2
*STEP
*STATIC
*NODE PRINT, NSET=ALLNODES
U
*EL PRINT, ELSET=ALL_SHELL
S
*NODE FILE, NSET=ALLNODES
U
*EL FILE, ELSET=ALL_SHELL
S
*DLOAD
1,P,750.86908
2,P,750.86908
3,P,1973.4386
4,P,1973.4386
5,P,2100.18872
6,P,2100.18872
7,P,2120.05957
8,P,2120.05957
9,P,2084.40039
10,P,2084.40039
11,P,1878.06287
12,P,1878.06287
13,P,392.001648
14,P,392.001648
15,P,1150.59839
16,P,1150.59839
17,P,1182.39917
18,P,1182.39917
19,P,1201.90942
20,P,1201.90942
21,P,1202.37744
22,P,1202.37744
23,P,1203.22986
24,P,1203.22986
25,P,1203.28149
26,P,1203.28149
27,P,1202.50464
28,P,1202.50464
29,P,1201.8667
30,P,1201.8667
31,P,1178.10962
32,P,1178.10962
33,P,1145.93274
34,P,1145.93274
35,P,395.441925
36,P,395.441925
37,P,349.50882
38,P,349.50882
39,P,-437.381775
40,P,-437.381775
41,P,-977.399658
42,P,-977.399658
43,P,283.233917
44,P,283.233917
45,P,-1337.0542
46,P,-1337.0542
47,P,-1343.71472
48,P,-1343.71472
49,P,291.782715
50,P,291.782715
51,P,-1332.13843
52,P,-1332.13843
53,P,-1328.16711
54,P,-1328.16711
55,P,285.973053
56,P,285.973053
57,P,-1320.85815
58,P,-1320.85815
59,P,-1324.71558
60,P,-1324.71558
61,P,287.105621
62,P,287.105621
63,P,-1339.78198
64,P,-1339.78198
65,P,-1346.16309
66,P,-1346.16309
67,P,267.8638
68,P,267.8638
69,P,-1335.24622
70,P,-1335.24622
71,P,-1199.88293
72,P,-1199.88293
73,P,410.133698
74,P,410.133698
75,P,868.823486
76,P,868.823486
77,P,754.527832
78,P,754.527832
79,P,-1515.70886
80,P,-1515.70886
81,P,-1444.30627
82,P,-1444.30627
83,P,1076.32385
84,P,1076.32385
85,P,1093.37061
86,P,1093.37061
87,P,1029.3324
88,P,1029.3324
89,P,1105.20996
90,P,1105.20996
91,P,1195.51941
92,P,1195.51941
93,P,1103.70178
94,P,1103.70178
95,P,-1552.89319
96,P,-1552.89319
97,P,-1549.61182
98,P,-1549.61182
99,P,1199.63025
100,P,1199.63025
101,P,1092.32214
102,P,1092.32214
103,P,1097.51306
104,P,1097.51306
105,P,1087.30981
106,P,1087.30981
107,P,1202.66211
108,P,1202.66211
109,P,1083.29541
110,P,1083.29541
111,P,-1558.87537
112,P,-1558.87537
113,P,-1557.47412
114,P,-1557.47412
115,P,1202.72144
116,P,1202.72144
117,P,1079.05676
118,P,1079.05676
119,P,1080.32483
120,P,1080.32483
121,P,1079.18945
122,P,1079.18945
123,P,1202.84473
124,P,1202.84473
125,P,1080.71265
126,P,1080.71265
127,P,-1554.08691
128,P,-1554.08691
129,P,-1556.17151
130,P,-1556.17151
131,P,1202.84875
132,P,1202.84875
133,P,1088.38245
134,P,1088.38245
135,P,1083.98853
136,P,1083.98853
137,P,1093.94299
138,P,1093.94299
139,P,1198.93518
140,P,1198.93518
141,P,1099.20496
142,P,1099.20496
143,P,-1527.1189
144,P,-1527.1189
145,P,-1539.90344
146,P,-1539.90344
147,P,1193.03784
148,P,1193.03784
149,P,1103.69653
150,P,1103.69653
151,P,1104.03516
152,P,1104.03516
153,P,1090.95361
154,P,1090.95361
155,P,1072.05847
156,P,1072.05847
157,P,1026.16138
158,P,1026.16138
159,P,-562.878296
160,P,-562.878296
161,P,-1191.75806
162,P,-1191.75806
163,P,866.610352
164,P,866.610352
165,P,406.720032
166,P,406.720032
167,P,751.299316
168,P,751.299316
169,P,1558.48572
170,P,1558.48572
171,P,2025.23853
172,P,2025.23853
173,P,2111.00952
174,P,2111.00952
175,P,2117.61475
176,P,2117.61475
177,P,2060.99243
178,P,2060.99243
179,P,1769.50317
180,P,1769.50317
181,P,390.547638
182,P,390.547638
183,P,279.94162
184,P,279.94162
185,P,290.530212
186,P,290.530212
187,P,288.734833
188,P,288.734833
189,P,278.784302
190,P,278.784302
191,P,382.666779
192,P,382.666779
193,P,269.245575
194,P,269.245575
195,P,289.172668
196,P,289.172668
197,P,286.134827
198,P,286.134827
199,P,291.785431
200,P,291.785431
201,P,282.893921
202,P,282.893921
203,P,347.490265
204,P,347.490265
205,P,956.846863
206,P,956.846863
207,P,1923.05896
208,P,1923.05896
209,P,2032.06055
210,P,2032.06055
211,P,2201.15039
212,P,2201.15039
213,P,2225.19019
214,P,2225.19019
215,P,2253.36035
216,P,2253.36035
217,P,2253.34229
218,P,2253.34229
219,P,2225.23022
220,P,2225.23022
221,P,2201.40405
222,P,2201.40405
223,P,2036.70874
224,P,2036.70874
225,P,1928.07874
226,P,1928.07874
227,P,951.043823
228,P,951.043823
229,P,1876.59485
230,P,1876.59485
231,P,-567.114441
232,P,-567.114441
233,P,-1204.13
234,P,-1204.13
235,P,2083.96484
236,P,2083.96484
237,P,-1539.90662
238,P,-1539.90662
239,P,-1547.52283
240,P,-1547.52283
241,P,2120.02466
242,P,2120.02466
243,P,-1554.73474
244,P,-1554.73474
245,P,-1556.52942
246,P,-1556.52942
247,P,2100.46826
248,P,2100.46826
249,P,-1558.81641
250,P,-1558.81641
251,P,-1557.30042
252,P,-1557.30042
253,P,1974.86304
254,P,1974.86304
255,P,-1551.60852
256,P,-1551.60852
257,P,-1546.97485
258,P,-1546.97485
259,P,752.06488
260,P,752.06488
261,P,-1501.48071
262,P,-1501.48071
263,P,-1430.13586
264,P,-1430.13586
265,P,624.604431
266,P,624.604431
267,P,1420.30005
268,P,1420.30005
269,P,1017.53931
270,P,1017.53931
271,P,-1317.98889
272,P,-1317.98889
273,P,-1182.61255
274,P,-1182.61255
275,P,1761.87927
276,P,1761.87927
277,P,1658.85327
278,P,1658.85327
279,P,1359.59595
280,P,1359.59595
281,P,1785.59875
282,P,1785.59875
283,P,2110.98828
284,P,2110.98828
285,P,1851.60608
286,P,1851.60608
287,P,-1338.12561
288,P,-1338.12561
289,P,-1342.83704
290,P,-1342.83704
291,P,2166.16699
292,P,2166.16699
293,P,1923.50195
294,P,1923.50195
295,P,1895.66211
296,P,1895.66211
297,P,1942.98926
298,P,1942.98926
299,P,2240.2356
300,P,2240.2356
301,P,1955.43909
302,P,1955.43909
303,P,-1320.78235
304,P,-1320.78235
305,P,-1324.4917
306,P,-1324.4917
307,P,2249.66602
308,P,2249.66602
309,P,1966.19714
310,P,1966.19714
311,P,1963.28003
312,P,1963.28003
313,P,1966.04602
314,P,1966.04602
315,P,2249.61914
316,P,2249.61914
317,P,1962.8468
318,P,1962.8468
319,P,-1332.974
320,P,-1332.974
321,P,-1328.61633
322,P,-1328.61633
323,P,2240.15942
324,P,2240.15942
325,P,1941.80603
326,P,1941.80603
327,P,1954.66321
328,P,1954.66321
329,P,1921.7179
330,P,1921.7179
331,P,2167.18823
332,P,2167.18823
333,P,1893.94592
334,P,1893.94592
335,P,-1352.79724
336,P,-1352.79724
337,P,-1353.18628
338,P,-1353.18628
339,P,2113.84668
340,P,2113.84668
341,P,1787.35144
342,P,1787.35144
343,P,1851.37903
344,P,1851.37903
345,P,1661.69824
346,P,1661.69824
347,P,1766.37231
348,P,1766.37231
349,P,1363.11938
350,P,1363.11938
351,P,-442.28894
352,P,-442.28894
353,P,-992.098572
354,P,-992.098572
355,P,1422.22253
356,P,1422.22253
357,P,627.99884
358,P,627.99884
359,P,1020.67224
360,P,1020.67224
361,P,384.749146
362,P,384.749146
363,P,280.146515
364,P,280.146515
365,P,288.774078
366,P,288.774078
367,P,290.510986
368,P,290.510986
369,P,279.314392
370,P,279.314392
371,P,388.656067
372,P,388.656067
373,P,1767.95654
374,P,1767.95654
375,P,2060.30859
376,P,2060.30859
377,P,2117.5127
378,P,2117.5127
379,P,2111.14575
380,P,2111.14575
381,P,2026.31506
382,P,2026.31506
383,P,1560.5769
384,P,1560.5769
*BOUNDARY
MOUNT, 1, 6
*END STEP
