*HEADING
Wing shell from CFD pressure
*NODE
1,0.069739297,-0.00102981995,-0.363629997
2,0.0697698966,-0.00120007002,0.363629997
3,0.0714394003,0.00063206302,-0.0312316995
4,0.0714394003,0.00063206302,0.0312316995
5,0.0717175975,-0.00060670299,-0.3125
6,0.0717175975,-0.00060670299,-0.28125
7,0.0717175975,-0.00060670299,-0.25
8,0.0717175975,-0.00060670299,-0.21875
9,0.0717175975,-0.00060670299,-0.1875
10,0.0717175975,-0.00060670299,-0.15625
11,0.0717175975,-0.00060670299,-0.125
12,0.0717175975,-0.00060670299,-0.09375
13,0.0717175975,-0.00060670299,-0.0625
14,0.0717175975,-0.00060670299,-0
15,0.0717175975,-0.00060670299,0.0625
16,0.0717175975,-0.00060670299,0.09375
17,0.0717175975,-0.00060670299,0.125
18,0.0717175975,-0.00060670299,0.15625
19,0.0717175975,-0.00060670299,0.1875
20,0.071752198,-0.00078132801,0.21875
21,0.071752198,-0.00078132801,0.25
22,0.071752198,-0.00078132801,0.28125
23,0.071752198,-0.00078132801,0.3125
24,0.0726735964,-0.000402225007,-0.342698991
25,0.0727081969,-0.000579395972,0.342698991
26,0.101957001,0.00586085021,-0.368247986
27,0.102007002,0.00560953002,0.368247986
28,0.103049003,-0.00975168031,-0.342988998
29,0.103049003,-0.00975168031,0.342988998
30,0.103165001,-0.0123466002,-0.3125
31,0.103165001,-0.0123466002,-0.28125
32,0.103165001,-0.0123466002,-0.25
33,0.103165001,-0.0123466002,-0.21875
34,0.103165001,-0.0123466002,-0.1875
35,0.103165001,-0.0123466002,-0.15625
36,0.103165001,-0.0123466002,-0.125
37,0.103165001,-0.0123466002,-0.09375
38,0.103165001,-0.0123466002,-0.0625
39,0.103165001,-0.0123466002,-0.03125
40,0.103165001,-0.0123466002,-0
41,0.103165001,-0.0123466002,0.03125
42,0.103165001,-0.0123466002,0.0625
43,0.103165001,-0.0123466002,0.09375
44,0.103165001,-0.0123466002,0.125
45,0.103165001,-0.0123466002,0.15625
46,0.103165001,-0.0123466002,0.1875
47,0.103165001,-0.0123466002,0.21875
48,0.103165001,-0.0123466002,0.25
49,0.103165001,-0.0123466002,0.28125
50,0.103165001,-0.0123466002,0.3125
51,0.110963002,0.0256021991,-0.3125
52,0.110963002,0.0256021991,-0.28125
53,0.110963002,0.0256021991,-0.25
54,0.110963002,0.0256021991,-0.21875
55,0.110963002,0.0256021991,-0.1875
56,0.110963002,0.0256021991,-0.15625
57,0.110963002,0.0256021991,-0.125
58,0.110963002,0.0256021991,-0.09375
59,0.110963002,0.0256021991,-0.0625
60,0.110963002,0.0256021991,-0.03125
61,0.110963002,0.0256021991,0
62,0.110963002,0.0256021991,0.03125
63,0.110963002,0.0256021991,0.0625
64,0.110963002,0.0256021991,0.09375
65,0.110963002,0.0256021991,0.125
66,0.110963002,0.0256021991,0.15625
67,0.110963002,0.0256021991,0.1875
68,0.110963002,0.0256021991,0.21875
69,0.110963002,0.0256021991,0.25
70,0.110963002,0.0256021991,0.28125
71,0.110963002,0.0256021991,0.3125
72,0.111714996,0.0257360991,-0.343582004
73,0.111714996,0.0257360991,0.343582004
74,0.114023998,0.0261439998,-0.373286009
75,0.114023998,0.0261439998,0.373286009
76,0.115680002,0.00879598036,-0.395586014
77,0.115731001,0.00850845966,0.395586014
78,0.117269002,0.0267076995,-0.395969987
79,0.117269002,0.0267076995,0.395969987
80,0.148055002,-0.000943806022,-0.3125
81,0.148055002,-0.000943806022,-0.28125
82,0.148055002,-0.000943806022,-0.25
83,0.148055002,-0.000943806022,-0.21875
84,0.148055002,-0.000943806022,-0.1875
85,0.148055002,-0.000943806022,-0.15625
86,0.148055002,-0.000943806022,-0.125
87,0.148055002,-0.000943806022,-0.09375
88,0.148055002,-0.000943806022,-0.0625
89,0.148055002,-0.000943806022,-0.03125
90,0.148055002,-0.000943806022,-1e-12
91,0.148055002,-0.000943806022,0.03125
92,0.148055002,-0.000943806022,0.0625
93,0.148055002,-0.000943806022,0.09375
94,0.148055002,-0.000943806022,0.125
95,0.148055002,-0.000943806022,0.15625
96,0.148055002,-0.000943806022,0.1875
97,0.148055002,-0.000943806022,0.21875
98,0.148055002,-0.000943806022,0.25
99,0.148055002,-0.000943806022,0.28125
100,0.148055002,-0.000943806022,0.3125
101,0.148203999,-0.000902633008,-0.343531013
102,0.148203999,-0.000902633008,0.343531013
103,0.149703994,-0.000487148995,-0.373362988
104,0.149703994,-0.000487148995,0.373362988
105,0.150305003,0.0162014998,-0.397318989
106,0.150398001,0.0158312991,0.397318989
107,0.153033003,0.032280799,-0.397583008
108,0.153033003,0.032280799,0.397583008
109,0.154369995,0.032469701,-0.373890013
110,0.154369995,0.032469701,0.373890013
111,0.154415995,0.0324762017,-0.34375
112,0.154415995,0.0324762017,-0.3125
113,0.154415995,0.0324762017,-0.28125
114,0.154415995,0.0324762017,-0.25
115,0.154415995,0.0324762017,-0.21875
116,0.154415995,0.0324762017,-0.1875
117,0.154415995,0.0324762017,-0.15625
118,0.154415995,0.0324762017,-0.125
119,0.154415995,0.0324762017,-0.09375
120,0.154415995,0.0324762017,-0.0625
121,0.154415995,0.0324762017,-0.03125
122,0.154415995,0.0324762017,-0
123,0.154415995,0.0324762017,0.03125
124,0.154415995,0.0324762017,0.0625
125,0.154415995,0.0324762017,0.09375
126,0.154415995,0.0324762017,0.125
127,0.154415995,0.0324762017,0.15625
128,0.154415995,0.0324762017,0.1875
129,0.154415995,0.0324762017,0.21875
130,0.154415995,0.0324762017,0.25
131,0.154415995,0.0324762017,0.28125
132,0.154415995,0.0324762017,0.3125
133,0.154415995,0.0324762017,0.34375
134,0.193832994,0.0124773998,-0.34375
135,0.193832994,0.0124773998,-0.3125
136,0.193832994,0.0124773998,-0.28125
137,0.193832994,0.0124773998,-0.25
138,0.193832994,0.0124773998,-0.21875
139,0.193832994,0.0124773998,-0.1875
140,0.193832994,0.0124773998,-0.15625
141,0.193832994,0.0124773998,-0.125
142,0.193832994,0.0124773998,-0.09375
143,0.193832994,0.0124773998,-0.0625
144,0.193832994,0.0124773998,-0.03125
145,0.193832994,0.0124773998,-1e-12
146,0.193832994,0.0124773998,0.03125
147,0.193832994,0.0124773998,0.0625
148,0.193832994,0.0124773998,0.09375
149,0.193832994,0.0124773998,0.125
150,0.193832994,0.0124773998,0.15625
151,0.193832994,0.0124773998,0.1875
152,0.193832994,0.0124773998,0.21875
153,0.193832994,0.0124773998,0.25
154,0.193832994,0.0124773998,0.28125
155,0.193832994,0.0124773998,0.3125
156,0.193832994,0.0124773998,0.34375
157,0.194129005,0.0125685995,-0.373890013
158,0.194129005,0.0125685995,0.373890013
159,0.197088003,0.0134824002,-0.397583008
160,0.197088003,0.0134824002,0.397583008
161,0.198117003,0.0380580015,-0.397583008
162,0.198117003,0.0380580015,0.397583008
163,0.199634999,0.0382339992,-0.373890013
164,0.199634999,0.0382339992,0.373890013
165,0.199994996,0.0382754989,-0.34375
166,0.199994996,0.0382754989,-0.3125
167,0.199994996,0.0382754989,-0.28125
168,0.199994996,0.0382754989,-0.25
169,0.199994996,0.0382754989,-0.21875
170,0.199994996,0.0382754989,-0.1875
171,0.199994996,0.0382754989,-0.15625
172,0.199994996,0.0382754989,-0.125
173,0.199994996,0.0382754989,-0.09375
174,0.199994996,0.0382754989,-0.0625
175,0.199994996,0.0382754989,-0.03125
176,0.199994996,0.0382754989,0
177,0.199994996,0.0382754989,0.03125
178,0.199994996,0.0382754989,0.0625
179,0.199994996,0.0382754989,0.09375
180,0.199994996,0.0382754989,0.125
181,0.199994996,0.0382754989,0.15625
182,0.199994996,0.0382754989,0.1875
183,0.199994996,0.0382754989,0.21875
184,0.199994996,0.0382754989,0.25
185,0.199994996,0.0382754989,0.28125
186,0.199994996,0.0382754989,0.3125
187,0.199994996,0.0382754989,0.34375
188,0.230315998,0.0240691993,-0.396245003
189,0.230315998,0.0240691993,0.396245003
190,0.231569007,0.0244795997,-0.373744011
191,0.231569007,0.0244795997,0.373744011
192,0.231739998,0.0245354995,-0.34375
193,0.231739998,0.0245354995,-0.3125
194,0.231739998,0.0245354995,-0.28125
195,0.231739998,0.0245354995,-0.25
196,0.231739998,0.0245354995,-0.21875
197,0.231739998,0.0245354995,-0.1875
198,0.231739998,0.0245354995,-0.15625
199,0.231739998,0.0245354995,-0.125
200,0.231739998,0.0245354995,-0.09375
201,0.231739998,0.0245354995,-0.0625
202,0.231739998,0.0245354995,-0.03125
203,0.231739998,0.0245354995,0
204,0.231739998,0.0245354995,0.03125
205,0.231739998,0.0245354995,0.0625
206,0.231739998,0.0245354995,0.09375
207,0.231739998,0.0245354995,0.125
208,0.231739998,0.0245354995,0.15625
209,0.231739998,0.0245354995,0.1875
210,0.231739998,0.0245354995,0.21875
211,0.231739998,0.0245354995,0.25
212,0.231739998,0.0245354995,0.28125
213,0.231739998,0.0245354995,0.3125
214,0.231739998,0.0245354995,0.34375
215,0.234571993,0.0342245996,-0.396245003
216,0.234688997,0.0336363986,0.396245003
217,0.235884994,0.0416157991,-0.373701006
218,0.235884994,0.0416157991,0.373701006
219,0.236258,0.0421511009,-0.15625
220,0.236258,0.0421511009,-0.125
221,0.236258,0.0421511009,-0.09375
222,0.236258,0.0421511009,-0.0625
223,0.236258,0.0421511009,-0.03125
224,0.236258,0.0421511009,-1e-12
225,0.236258,0.0421511009,0.03125
226,0.236258,0.0421511009,0.0625
227,0.236258,0.0421511009,0.09375
228,0.236258,0.0421511009,0.125
229,0.236258,0.0421511009,0.15625
230,0.236361995,0.0410948992,-0.343728006
231,0.236361995,0.0410948992,0.343728006
232,0.236420006,0.0405086018,-0.312489003
233,0.236420006,0.0405086018,0.312489003
234,0.236478001,0.0399222001,-0.28125
235,0.236478001,0.0399222001,0.28125
236,0.236535996,0.0393358991,-0.250010997
237,0.236535996,0.0393358991,0.250010997
238,0.236594006,0.0387496017,-0.218771994
239,0.236594006,0.0387496017,0.218771994
240,0.236652002,0.0381632,-0.187533006
241,0.236652002,0.0381632,0.187533006
*ELEMENT, TYPE=S3, ELSET=ALL_SHELL
1,103,101,134
2,134,157,103
3,137,136,81
4,81,82,137
5,137,82,83
6,83,138,137
7,141,140,85
8,85,86,141
9,141,86,87
10,87,142,141
11,145,144,89
12,89,90,145
13,90,91,146
14,146,145,90
15,149,148,93
16,93,94,149
17,149,94,95
18,95,150,149
19,153,152,97
20,97,98,153
21,153,98,99
22,99,154,153
23,104,158,156
24,156,102,104
25,157,159,105
26,105,103,157
27,137,195,194
28,194,136,137
29,26,74,72
30,26,72,24
31,24,1,26
32,24,72,51
33,51,5,24
34,141,199,198
35,198,140,141
36,8,7,53
37,53,54,8
38,9,8,54
39,54,55,9
40,145,203,202
41,202,144,145
42,12,11,57
43,57,58,12
44,13,12,58
45,58,59,13
46,149,207,206
47,206,148,149
48,4,14,61
49,61,62,4
50,4,62,63
51,63,15,4
52,153,211,210
53,210,152,153
54,18,17,65
55,65,66,18
56,19,18,66
57,66,67,19
58,191,214,156
59,156,158,191
60,69,70,22
61,22,21,69
62,23,22,70
63,70,71,23
64,158,104,106
65,106,160,158
66,101,103,26
67,26,28,101
68,101,80,135
69,135,134,101
70,28,30,80
71,80,101,28
72,32,31,6
73,6,7,32
74,30,5,6
75,6,31,30
76,135,80,81
77,81,136,135
78,32,82,81
79,81,31,32
80,30,31,81
81,81,80,30
82,72,111,112
83,112,51,72
84,52,53,7
85,7,6,52
86,51,52,6
87,6,5,51
88,112,113,52
89,52,51,112
90,32,33,83
91,83,82,32
92,139,138,83
93,83,84,139
94,34,84,83
95,83,33,34
96,36,35,10
97,10,11,36
98,34,9,10
99,10,35,34
100,139,84,85
101,85,140,139
102,36,86,85
103,85,35,36
104,34,35,85
105,85,84,34
106,54,115,116
107,116,55,54
108,56,57,11
109,11,10,56
110,55,56,10
111,10,9,55
112,116,117,56
113,56,55,116
114,36,37,87
115,87,86,36
116,143,142,87
117,87,88,143
118,38,88,87
119,87,37,38
120,14,40,39
121,39,3,14
122,13,3,39
123,39,38,13
124,143,88,89
125,89,144,143
126,90,89,39
127,39,40,90
128,38,39,89
129,89,88,38
130,58,119,120
131,120,59,58
132,120,121,60
133,60,59,120
134,40,41,91
135,91,90,40
136,147,146,91
137,91,92,147
138,42,92,91
139,91,41,42
140,44,43,16
141,16,17,44
142,42,15,16
143,16,43,42
144,147,92,93
145,93,148,147
146,44,94,93
147,93,43,44
148,42,43,93
149,93,92,42
150,62,123,124
151,124,63,62
152,124,125,64
153,64,63,124
154,44,45,95
155,95,94,44
156,151,150,95
157,95,96,151
158,46,96,95
159,95,45,46
160,48,47,20
161,20,21,48
162,20,47,46
163,46,19,20
164,151,96,97
165,97,152,151
166,48,98,97
167,97,47,48
168,46,47,97
169,97,96,46
170,66,127,128
171,128,67,66
172,68,69,21
173,21,20,68
174,19,67,68
175,68,20,19
176,128,129,68
177,68,67,128
178,48,49,99
179,99,98,48
180,155,154,99
181,99,100,155
182,50,100,99
183,99,49,50
184,25,2,27
185,27,29,25
186,25,29,50
187,50,23,25
188,102,156,155
189,155,100,102
190,102,29,27
191,27,104,102
192,29,102,100
193,100,50,29
194,70,131,132
195,132,71,70
196,27,2,25
197,27,25,73
198,73,75,27
199,25,23,71
200,71,73,25
201,73,71,132
202,132,133,73
203,188,159,157
204,157,190,188
205,135,136,194
206,194,193,135
207,139,140,198
208,198,197,139
209,143,144,202
210,202,201,143
211,147,148,206
212,206,205,147
213,151,152,210
214,210,209,151
215,155,156,214
216,214,213,155
217,190,157,134
218,134,192,190
219,217,230,165
220,165,163,217
221,230,217,190
222,190,192,230
223,137,138,196
224,196,195,137
225,236,238,169
226,169,168,236
227,238,236,195
228,195,196,238
229,141,142,200
230,200,199,141
231,173,172,220
232,220,221,173
233,200,221,220
234,220,199,200
235,203,145,146
236,146,204,203
237,176,224,225
238,225,177,176
239,203,204,225
240,225,224,203
241,149,150,208
242,208,207,149
243,181,180,228
244,228,229,181
245,208,229,228
246,228,207,208
247,153,154,212
248,212,211,153
249,235,185,184
250,184,237,235
251,237,211,212
252,212,235,237
253,189,191,158
254,158,160,189
255,164,218,216
256,216,162,164
257,216,218,191
258,191,189,216
259,163,165,111
260,111,109,163
261,114,113,167
262,167,168,114
263,169,115,114
264,114,168,169
265,118,117,171
266,171,172,118
267,173,119,118
268,118,172,173
269,122,121,175
270,175,176,122
271,176,177,123
272,123,122,176
273,126,125,179
274,179,180,126
275,181,127,126
276,126,180,181
277,130,129,183
278,183,184,130
279,185,131,130
280,130,184,185
281,164,110,133
282,133,187,164
283,161,163,109
284,109,107,161
285,24,28,26
286,26,1,24
287,24,5,30
288,30,28,24
289,234,236,168
290,168,167,234
291,236,234,194
292,194,195,236
293,32,7,8
294,8,33,32
295,34,33,8
296,8,9,34
297,171,219,220
298,220,172,171
299,220,219,198
300,198,199,220
301,36,11,12
302,12,37,36
303,38,37,12
304,12,13,38
305,224,176,175
306,175,223,224
307,224,223,202
308,202,203,224
309,14,4,41
310,41,40,14
311,15,42,41
312,41,4,15
313,179,227,228
314,228,180,179
315,228,227,206
316,206,207,228
317,44,17,18
318,18,45,44
319,46,45,18
320,18,19,46
321,237,184,183
322,183,239,237
323,239,210,211
324,211,237,239
325,48,21,22
326,22,49,48
327,50,49,22
328,22,23,50
329,218,164,187
330,187,231,218
331,231,214,191
332,191,218,231
333,162,108,110
334,110,164,162
335,74,109,111
336,111,72,74
337,112,111,165
338,165,166,112
339,112,166,167
340,167,113,112
341,114,53,52
342,52,113,114
343,54,53,114
344,114,115,54
345,116,115,169
346,169,170,116
347,116,170,171
348,171,117,116
349,118,57,56
350,56,117,118
351,3,60,61
352,61,14,3
353,3,13,59
354,59,60,3
355,58,57,118
356,118,119,58
357,120,119,173
358,173,174,120
359,120,174,175
360,175,121,120
361,122,61,60
362,60,121,122
363,17,16,64
364,64,65,17
365,16,15,63
366,63,64,16
367,61,122,123
368,123,62,61
369,124,123,177
370,177,178,124
371,124,178,179
372,179,125,124
373,126,65,64
374,64,125,126
375,66,65,126
376,126,127,66
377,128,127,181
378,181,182,128
379,128,182,183
380,183,129,128
381,130,69,68
382,68,129,130
383,70,69,130
384,130,131,70
385,132,131,185
386,185,186,132
387,132,186,187
388,187,133,132
389,75,73,133
390,133,110,75
391,163,161,215
392,215,217,163
393,215,188,190
394,190,217,215
395,230,232,166
396,166,165,230
397,232,230,192
398,192,193,232
399,135,193,192
400,192,134,135
401,238,240,170
402,170,169,238
403,240,238,196
404,196,197,240
405,139,197,196
406,196,138,139
407,173,221,222
408,222,174,173
409,222,221,200
410,200,201,222
411,143,201,200
412,200,142,143
413,177,225,226
414,226,178,177
415,226,225,204
416,204,205,226
417,147,205,204
418,204,146,147
419,182,181,229
420,229,241,182
421,241,229,208
422,208,209,241
423,151,209,208
424,208,150,151
425,233,186,185
426,185,235,233
427,235,212,213
428,213,233,235
429,155,213,212
430,212,154,155
431,78,107,109
432,109,74,78
433,76,26,103
434,103,105,76
435,74,26,76
436,76,78,74
437,232,234,167
438,167,166,232
439,234,232,193
440,193,194,234
441,170,240,219
442,219,171,170
443,240,197,198
444,198,219,240
445,175,174,222
446,222,223,175
447,222,201,202
448,202,223,222
449,179,178,226
450,226,227,179
451,226,205,206
452,206,227,226
453,239,183,182
454,182,241,239
455,241,209,210
456,210,239,241
457,231,187,186
458,186,233,231
459,233,213,214
460,214,231,233
461,79,75,110
462,110,108,79
463,75,79,77
464,77,27,75
465,77,106,104
466,104,27,77
467,189,160,162
468,162,216,189
469,107,105,159
470,159,161,107
471,108,162,160
472,160,106,108
473,188,215,161
474,161,159,188
475,105,107,78
476,78,76,105
477,106,77,79
478,79,108,106
*MATERIAL, NAME=CFRP
*ELASTIC
7e+10,0.3
*DENSITY
1600
*SHELL SECTION, ELSET=ALL_SHELL, MATERIAL=CFRP
0.0025
*NSET, NSET=ALLNODES, GENERATE
1,241,1
*NSET, NSET=MOUNT
1,2
*STEP
*STATIC
*NODE PRINT, NSET=ALLNODES
U
*EL PRINT, ELSET=ALL_SHELL
S
*NODE FILE, NSET=ALLNODES
U
*EL FILE, ELSET=ALL_SHELL
S
*DLOAD
1,P,1016.38214
2,P,1016.38214
3,P,1272.33093
4,P,1272.33093
5,P,1332.22913
6,P,1332.22913
7,P,1435.21191
8,P,1435.21191
9,P,1454.35156
10,P,1454.35156
11,P,1488.46765
12,P,1488.46765
13,P,1488.48901
14,P,1488.48901
15,P,1454.42041
16,P,1454.42041
17,P,1435.26636
18,P,1435.26636
19,P,1330.22717
20,P,1330.22717
21,P,1270.02515
22,P,1270.02515
23,P,1015.43414
24,P,1015.43414
25,P,670.290283
26,P,670.290283
27,P,570.896057
28,P,570.896057
29,P,-1210.55945
30,P,-1210.55945
31,P,-1210.55945
32,P,-1470.32568
33,P,-1470.32568
34,P,662.908569
35,P,662.908569
36,P,-1593.02734
37,P,-1593.02734
38,P,-1603.48071
39,P,-1603.48071
40,P,699.445068
41,P,699.445068
42,P,-1615.7373
43,P,-1615.7373
44,P,-1615.40918
45,P,-1615.40918
46,P,676.914307
47,P,676.914307
48,P,-1606.91199
49,P,-1606.91199
50,P,-1608.35559
51,P,-1608.35559
52,P,597.133972
53,P,597.133972
54,P,-1614.4679
55,P,-1614.4679
56,P,-1610.35046
57,P,-1610.35046
58,P,571.059082
59,P,571.059082
60,P,-1584.04529
61,P,-1584.04529
62,P,-1551.95105
63,P,-1551.95105
64,P,674.322937
65,P,674.322937
66,P,742.641846
67,P,742.641846
68,P,1136.57153
69,P,1136.57153
70,P,1251.04761
71,P,1251.04761
72,P,29.4684505
73,P,29.4684505
74,P,6.14433146
75,P,6.14433146
76,P,1203.74683
77,P,1203.74683
78,P,1642.92151
79,P,1642.92151
80,P,1520.21069
81,P,1520.21069
82,P,50.3751678
83,P,50.3751678
84,P,-1579.37244
85,P,-1579.37244
86,P,-1547.00024
87,P,-1547.00024
88,P,65.5856171
89,P,65.5856171
90,P,1720.11475
91,P,1720.11475
92,P,1375.4729
93,P,1375.4729
94,P,1771.63879
95,P,1771.63879
96,P,116.541832
97,P,116.541832
98,P,102.356163
99,P,102.356163
100,P,1409.78052
101,P,1409.78052
102,P,1838.11108
103,P,1838.11108
104,P,1810.52502
105,P,1810.52502
106,P,40.1466484
107,P,40.1466484
108,P,-1614.20166
109,P,-1614.20166
110,P,-1609.67261
111,P,-1609.67261
112,P,25.3916454
113,P,25.3916454
114,P,1858.51025
115,P,1858.51025
116,P,1470.55396
117,P,1470.55396
118,P,1876.22119
119,P,1876.22119
120,P,113.946053
121,P,113.946053
122,P,113.865089
123,P,113.865089
124,P,1481.81555
125,P,1481.81555
126,P,1894.96741
127,P,1894.96741
128,P,1887.04626
129,P,1887.04626
130,P,-10.7796659
131,P,-10.7796659
132,P,-18.4918175
133,P,-18.4918175
134,P,1895.02258
135,P,1895.02258
136,P,1481.87549
137,P,1481.87549
138,P,1887.20312
139,P,1887.20312
140,P,127.446701
141,P,127.446701
142,P,131.825699
143,P,131.825699
144,P,1470.65625
145,P,1470.65625
146,P,1858.91736
147,P,1858.91736
148,P,1876.49915
149,P,1876.49915
150,P,-18.5020924
151,P,-18.5020924
152,P,-10.7755871
153,P,-10.7755871
154,P,1838.75427
155,P,1838.75427
156,P,1409.42676
157,P,1409.42676
158,P,1810.89417
159,P,1810.89417
160,P,68.2611694
161,P,68.2611694
162,P,87.8187408
163,P,87.8187408
164,P,1374.29675
165,P,1374.29675
166,P,1719.29749
167,P,1719.29749
168,P,1771.40869
169,P,1771.40869
170,P,25.8316364
171,P,25.8316364
172,P,-1597.0575
173,P,-1597.0575
174,P,-1605.71924
175,P,-1605.71924
176,P,41.1590538
177,P,41.1590538
178,P,1641.93726
179,P,1641.93726
180,P,1201.62805
181,P,1201.62805
182,P,1519.68433
183,P,1519.68433
184,P,170.974747
185,P,170.974747
186,P,30.215086
187,P,30.215086
188,P,1134.45691
189,P,1134.45691
190,P,748.169495
191,P,748.169495
192,P,1251.73889
193,P,1251.73889
194,P,67.704361
195,P,67.704361
196,P,-1214.52734
197,P,-1214.52734
198,P,-1214.52734
199,P,-1475.255
200,P,-1475.255
201,P,52.4868889
202,P,52.4868889
203,P,531.718384
204,P,531.718384
205,P,546.123169
206,P,546.123169
207,P,644.098083
208,P,644.098083
209,P,695.265442
210,P,695.265442
211,P,688.223755
212,P,688.223755
213,P,620.753845
214,P,620.753845
215,P,540.427551
216,P,540.427551
217,P,573.280823
218,P,573.280823
219,P,143.800461
220,P,143.800461
221,P,569.279175
222,P,569.279175
223,P,597.951904
224,P,597.951904
225,P,165.456772
226,P,165.456772
227,P,420.582184
228,P,420.582184
229,P,676.946899
230,P,676.946899
231,P,65.0291901
232,P,65.0291901
233,P,497.218109
234,P,497.218109
235,P,699.45459
236,P,699.45459
237,P,52.9939384
238,P,52.9939384
239,P,505.197357
240,P,505.197357
241,P,662.858276
242,P,662.858276
243,P,79.9570389
244,P,79.9570389
245,P,487.124115
246,P,487.124115
247,P,569.926025
248,P,569.926025
249,P,157.795883
250,P,157.795883
251,P,435.31842
252,P,435.31842
253,P,529.970825
254,P,529.970825
255,P,160.055374
256,P,160.055374
257,P,522.70697
258,P,522.70697
259,P,90.9314117
260,P,90.9314117
261,P,134.646698
262,P,134.646698
263,P,134.138
264,P,134.138
265,P,94.3317719
266,P,94.3317719
267,P,82.173912
268,P,82.173912
269,P,64.7798538
270,P,64.7798538
271,P,64.794136
272,P,64.794136
273,P,82.3576813
274,P,82.3576813
275,P,94.6675491
276,P,94.6675491
277,P,135.48291
278,P,135.48291
279,P,136.230835
280,P,136.230835
281,P,92.9020462
282,P,92.9020462
283,P,45.9150772
284,P,45.9150772
285,P,166.053909
286,P,166.053909
287,P,21.5790825
288,P,21.5790825
289,P,157.134262
290,P,157.134262
291,P,435.05191
292,P,435.05191
293,P,58.9340019
294,P,58.9340019
295,P,82.1871185
296,P,82.1871185
297,P,79.7247696
298,P,79.7247696
299,P,487.081573
300,P,487.081573
301,P,126.941422
302,P,126.941422
303,P,131.540939
304,P,131.540939
305,P,52.9775085
306,P,52.9775085
307,P,505.194489
308,P,505.194489
309,P,113.992104
310,P,113.992104
311,P,114.007111
312,P,114.007111
313,P,65.1811829
314,P,65.1811829
315,P,497.238068
316,P,497.238068
317,P,117.548531
318,P,117.548531
319,P,104.220985
320,P,104.220985
321,P,166.017151
322,P,166.017151
323,P,420.85022
324,P,420.85022
325,P,39.3916702
326,P,39.3916702
327,P,15.9010382
328,P,15.9010382
329,P,145.715805
330,P,145.715805
331,P,568.714844
332,P,568.714844
333,P,47.9625893
334,P,47.9625893
335,P,1.83659446
336,P,1.83659446
337,P,116.789062
338,P,116.789062
339,P,129.478027
340,P,129.478027
341,P,62.8550072
342,P,62.8550072
343,P,53.8007088
344,P,53.8007088
345,P,126.765984
346,P,126.765984
347,P,111.922623
348,P,111.922623
349,P,10.7627306
350,P,10.7627306
351,P,-1606.91199
352,P,-1606.91199
353,P,-1608.33618
354,P,-1608.33618
355,P,-1.13685083
356,P,-1.13685083
357,P,73.5842285
358,P,73.5842285
359,P,67.4105148
360,P,67.4105148
361,P,-22.0520611
362,P,-22.0520611
363,P,-1615.85925
364,P,-1615.85925
365,P,-1615.45569
366,P,-1615.45569
367,P,-22.055254
368,P,-22.055254
369,P,67.4555511
370,P,67.4555511
371,P,73.6845398
372,P,73.6845398
373,P,-1.09616804
374,P,-1.09616804
375,P,10.9251909
376,P,10.9251909
377,P,112.488876
378,P,112.488876
379,P,127.719765
380,P,127.719765
381,P,55.4165993
382,P,55.4165993
383,P,64.8135071
384,P,64.8135071
385,P,131.226685
386,P,131.226685
387,P,118.654289
388,P,118.654289
389,P,3.7724576
390,P,3.7724576
391,P,154.357895
392,P,154.357895
393,P,526.138672
394,P,526.138672
395,P,142.841949
396,P,142.841949
397,P,509.293396
398,P,509.293396
399,P,541.76416
400,P,541.76416
401,P,166.157898
402,P,166.157898
403,P,423.308197
404,P,423.308197
405,P,621.266907
406,P,621.266907
407,P,57.8935127
408,P,57.8935127
409,P,502.609131
410,P,502.609131
411,P,688.19751
412,P,688.19751
413,P,54.258667
414,P,54.258667
415,P,504.423309
416,P,504.423309
417,P,695.282654
418,P,695.282654
419,P,129.349991
420,P,129.349991
421,P,457.2771
422,P,457.2771
423,P,643.879517
424,P,643.879517
425,P,149.275345
426,P,149.275345
427,P,462.421844
428,P,462.421844
429,P,545.166138
430,P,545.166138
431,P,-55.215168
432,P,-55.215168
433,P,483.372833
434,P,483.372833
435,P,-607.173462
436,P,-607.173462
437,P,148.450729
438,P,148.450729
439,P,462.233948
440,P,462.233948
441,P,129.035309
442,P,129.035309
443,P,457.191254
444,P,457.191254
445,P,54.208519
446,P,54.208519
447,P,504.414612
448,P,504.414612
449,P,57.9913521
450,P,57.9913521
451,P,502.632202
452,P,502.632202
453,P,166.594009
454,P,166.594009
455,P,423.498383
456,P,423.498383
457,P,144.000809
458,P,144.000809
459,P,509.260345
460,P,509.260345
461,P,-53.6297417
462,P,-53.6297417
463,P,-611.083801
464,P,-611.083801
465,P,488.950226
466,P,488.950226
467,P,243.445908
468,P,243.445908
469,P,281.562744
470,P,281.562744
471,P,283.912354
472,P,283.912354
473,P,243.608932
474,P,243.608932
475,P,143.557327
476,P,143.557327
477,P,146.094589
478,P,146.094589
*BOUNDARY
MOUNT, 1, 6
*END STEP
