*HEADING
Wing shell from CFD pressure
*NODE
1,0.0705259964,-0.000146785998,-0.362361014
2,0.0705344975,-0.000321711996,0.362361014
3,0.0751926005,0.000103703002,-0.341966987
4,0.075202398,-8.3005099e-05,0.341966987
5,0.0753670037,0.000113064998,-0.3125
6,0.0753670037,0.000113064998,-0.28125
7,0.0753670037,0.000113064998,-0.25
8,0.0753670037,0.000113064998,-0.21875
9,0.0753727034,1.09622e-05,-4.8855e-07
10,0.0753768012,-7.4084201e-05,-0.1875
11,0.0753768012,-7.4084201e-05,-0.15625
12,0.0753768012,-7.4084201e-05,-0.125
13,0.0753768012,-7.4084201e-05,-0.09375
14,0.0753768012,-7.4084201e-05,-0.0625
15,0.0753768012,-7.4084201e-05,-0.03125
16,0.0753768012,-7.4084201e-05,0.03125
17,0.0753768012,-7.4084201e-05,0.0625
18,0.0753768012,-7.4084201e-05,0.09375
19,0.0753768012,-7.4084201e-05,0.125
20,0.0753768012,-7.4084201e-05,0.15625
21,0.0753768012,-7.4084201e-05,0.1875
22,0.0753768012,-7.4084201e-05,0.21875
23,0.0753768012,-7.4084201e-05,0.25
24,0.0753768012,-7.4084201e-05,0.28125
25,0.0753768012,-7.4084201e-05,0.3125
26,0.102954999,0.00159391004,-0.359369993
27,0.102972001,0.00133710995,0.359369993
28,0.103283003,0.0167602003,-0.341601998
29,0.103283003,0.0167602003,0.341601998
30,0.103336997,-0.0138211995,-0.341733009
31,0.103336997,-0.0138211995,0.341733009
32,0.103344999,0.0193687007,-0.28125
33,0.103344999,0.0193687007,-0.25
34,0.103344999,0.0193687007,-0.21875
35,0.103344999,0.0193687007,-0.1875
36,0.103344999,0.0193687007,-0.15625
37,0.103344999,0.0193687007,-0.125
38,0.103344999,0.0193687007,-0.09375
39,0.103344999,0.0193687007,-0.0625
40,0.103344999,0.0193687007,-0.03125
41,0.103344999,0.0193687007,-0
42,0.103344999,0.0193687007,0.03125
43,0.103344999,0.0193687007,0.0625
44,0.103344999,0.0193687007,0.09375
45,0.103344999,0.0193687007,0.125
46,0.103344999,0.0193687007,0.15625
47,0.103344999,0.0193687007,0.1875
48,0.103344999,0.0193687007,0.21875
49,0.103344999,0.0193687007,0.25
50,0.103344999,0.0193687007,0.28125
51,0.103347003,-0.0164330006,-0.3125
52,0.103347003,-0.0164330006,-0.28125
53,0.103347003,-0.0164330006,-0.25
54,0.103347003,-0.0164330006,-0.21875
55,0.103347003,-0.0164330006,-0.1875
56,0.103347003,-0.0164330006,-0.15625
57,0.103347003,-0.0164330006,-0.125
58,0.103347003,-0.0164330006,-0.09375
59,0.103347003,-0.0164330006,-0.0625
60,0.103347003,-0.0164330006,-0.03125
61,0.103347003,-0.0164330006,-1e-12
62,0.103347003,-0.0164330006,0.03125
63,0.103347003,-0.0164330006,0.0625
64,0.103347003,-0.0164330006,0.09375
65,0.103347003,-0.0164330006,0.125
66,0.103347003,-0.0164330006,0.15625
67,0.103347003,-0.0164330006,0.1875
68,0.103347003,-0.0164330006,0.21875
69,0.103347003,-0.0164330006,0.25
70,0.103347003,-0.0164330006,0.28125
71,0.103347003,-0.0164330006,0.3125
72,0.103474997,0.0154716,-0.312584996
73,0.103474997,0.0154716,0.312584996
74,0.148913994,-0.0121437004,-0.3125
75,0.148913994,-0.0121437004,-0.28125
76,0.148913994,-0.0121437004,-0.25
77,0.148913994,-0.0121437004,-0.21875
78,0.148913994,-0.0121437004,-0.1875
79,0.148913994,-0.0121437004,-0.15625
80,0.148913994,-0.0121437004,-0.125
81,0.148913994,-0.0121437004,-0.09375
82,0.148913994,-0.0121437004,-0.0625
83,0.148913994,-0.0121437004,-0.03125
84,0.148913994,-0.0121437004,0
85,0.148913994,-0.0121437004,0.03125
86,0.148913994,-0.0121437004,0.0625
87,0.148913994,-0.0121437004,0.09375
88,0.148913994,-0.0121437004,0.125
89,0.148913994,-0.0121437004,0.15625
90,0.148913994,-0.0121437004,0.1875
91,0.148913994,-0.0121437004,0.21875
92,0.148913994,-0.0121437004,0.25
93,0.148913994,-0.0121437004,0.28125
94,0.148913994,-0.0121437004,0.3125
95,0.149390996,-0.0120889004,-0.341618001
96,0.149390996,-0.0120889004,0.341618001
97,0.149780005,0.00410730997,-0.359142005
98,0.149809003,0.00373228989,0.359142005
99,0.149978995,0.0197749007,-0.3125
100,0.149978995,0.0197749007,-0.28125
101,0.149978995,0.0197749007,-0.25
102,0.149978995,0.0197749007,-0.21875
103,0.149978995,0.0197749007,-0.1875
104,0.149978995,0.0197749007,-0.15625
105,0.149978995,0.0197749007,-0.125
106,0.149978995,0.0197749007,-0.09375
107,0.149978995,0.0197749007,-0.0625
108,0.149978995,0.0197749007,-0.03125
109,0.149978995,0.0197749007,0
110,0.149978995,0.0197749007,0.03125
111,0.149978995,0.0197749007,0.0625
112,0.149978995,0.0197749007,0.09375
113,0.149978995,0.0197749007,0.125
114,0.149978995,0.0197749007,0.15625
115,0.149978995,0.0197749007,0.1875
116,0.149978995,0.0197749007,0.21875
117,0.149978995,0.0197749007,0.25
118,0.149978995,0.0197749007,0.28125
119,0.149978995,0.0197749007,0.3125
120,0.150001004,0.0174844004,-0.341614008
121,0.150001004,0.0174844004,0.341614008
122,0.194991007,-0.00617056014,-0.3125
123,0.194991007,-0.00617056014,-0.28125
124,0.194991007,-0.00617056014,-0.25
125,0.194991007,-0.00617056014,-0.21875
126,0.194991007,-0.00617056014,-0.1875
127,0.194991007,-0.00617056014,-0.15625
128,0.194991007,-0.00617056014,-0.125
129,0.194991007,-0.00617056014,-0.09375
130,0.194991007,-0.00617056014,-0.0625
131,0.194991007,-0.00617056014,-0.03125
132,0.194991007,-0.00617056014,1e-12
133,0.194991007,-0.00617056014,0.03125
134,0.194991007,-0.00617056014,0.0625
135,0.194991007,-0.00617056014,0.09375
136,0.194991007,-0.00617056014,0.125
137,0.194991007,-0.00617056014,0.15625
138,0.194991007,-0.00617056014,0.1875
139,0.194991007,-0.00617056014,0.21875
140,0.194991007,-0.00617056014,0.25
141,0.194991007,-0.00617056014,0.28125
142,0.194991007,-0.00617056014,0.3125
143,0.195472002,-0.0061019198,-0.341713995
144,0.195472002,-0.0061019198,0.341713995
145,0.196633995,0.0185675994,-0.3125
146,0.196633995,0.0185675994,-0.28125
147,0.196633995,0.0185675994,-0.25
148,0.196633995,0.0185675994,-0.21875
149,0.196633995,0.0185675994,-0.1875
150,0.196633995,0.0185675994,-0.15625
151,0.196633995,0.0185675994,-0.125
152,0.196633995,0.0185675994,-0.09375
153,0.196633995,0.0185675994,-0.0625
154,0.196633995,0.0185675994,-0.03125
155,0.196633995,0.0185675994,0
156,0.196633995,0.0185675994,0.03125
157,0.196633995,0.0185675994,0.0625
158,0.196633995,0.0185675994,0.09375
159,0.196633995,0.0185675994,0.125
160,0.196633995,0.0185675994,0.15625
161,0.196633995,0.0185675994,0.1875
162,0.196633995,0.0185675994,0.21875
163,0.196633995,0.0185675994,0.25
164,0.196633995,0.0185675994,0.28125
165,0.196633995,0.0185675994,0.3125
166,0.196730003,0.0167941004,-0.341636986
167,0.196730003,0.0167941004,0.341636986
168,0.197610006,-0.0045231902,-0.359228998
169,0.197610006,-0.0045231902,0.359228998
170,0.224445,0.00116044004,-0.281278014
171,0.224445,0.00116044004,0.281278014
172,0.224562004,0.000413138012,-0.312510014
173,0.224562004,0.000413138012,0.312510014
174,0.224842995,-0.000264778006,-0.341960996
175,0.224842995,-0.000264778006,0.341960996
176,0.224889994,-0.00168027997,-0.25
177,0.224889994,-0.00168027997,-0.21875
178,0.224889994,-0.00168027997,-0.1875
179,0.224889994,-0.00168027997,-0.15625
180,0.224889994,-0.00168027997,-0.125
181,0.224889994,-0.00168027997,-0.09375
182,0.224889994,-0.00168027997,-0.0625
183,0.224889994,-0.00168027997,-0.03125
184,0.224889994,-0.00168027997,-0
185,0.224889994,-0.00168027997,0.03125
186,0.224889994,-0.00168027997,0.0625
187,0.224889994,-0.00168027997,0.09375
188,0.224889994,-0.00168027997,0.125
189,0.224889994,-0.00168027997,0.15625
190,0.224889994,-0.00168027997,0.1875
191,0.224889994,-0.00168027997,0.21875
192,0.224889994,-0.00168027997,0.25
193,0.229494005,-7.8077501e-05,-0.362358987
194,0.229494005,-7.8077501e-05,0.362358987
*ELEMENT, TYPE=S3, ELSET=ALL_SHELL
1,174,166,168
2,168,193,174
3,147,176,177
4,177,148,147
5,151,180,181
6,181,152,151
7,155,184,185
8,185,156,155
9,159,188,189
10,189,160,159
11,171,164,163
12,163,192,171
13,143,168,97
14,97,95,143
15,124,123,75
16,75,76,124
17,124,76,77
18,77,125,124
19,128,127,79
20,79,80,128
21,128,80,81
22,81,129,128
23,84,132,131
24,131,83,84
25,132,84,85
26,85,133,132
27,136,135,87
28,87,88,136
29,136,88,89
30,89,137,136
31,140,139,91
32,91,92,140
33,140,92,93
34,93,141,140
35,144,96,98
36,98,169,144
37,123,124,176
38,176,170,123
39,3,1,26
40,26,28,3
41,72,5,3
42,3,28,72
43,128,180,179
44,179,127,128
45,33,34,8
46,8,7,33
47,8,34,35
48,35,10,8
49,184,183,131
50,131,132,184
51,37,38,13
52,13,12,37
53,39,14,13
54,13,38,39
55,136,188,187
56,187,135,136
57,9,41,42
58,42,16,9
59,43,17,16
60,16,42,43
61,140,192,191
62,191,139,140
63,45,46,20
64,20,19,45
65,47,21,20
66,20,46,47
67,175,144,169
68,169,194,175
69,49,50,24
70,24,23,49
71,73,25,24
72,24,50,73
73,95,97,26
74,26,30,95
75,95,74,122
76,122,143,95
77,74,95,30
78,30,51,74
79,53,52,6
80,6,7,53
81,51,5,6
82,6,52,51
83,122,74,75
84,75,123,122
85,53,76,75
86,75,52,53
87,51,52,75
88,75,74,51
89,53,54,77
90,77,76,53
91,126,125,77
92,77,78,126
93,55,78,77
94,77,54,55
95,57,56,11
96,11,12,57
97,55,10,11
98,11,56,55
99,126,78,79
100,79,127,126
101,57,80,79
102,79,56,57
103,55,56,79
104,79,78,55
105,57,58,81
106,81,80,57
107,130,129,81
108,81,82,130
109,59,82,81
110,81,58,59
111,15,9,61
112,61,60,15
113,59,14,15
114,15,60,59
115,130,82,83
116,83,131,130
117,61,84,83
118,83,60,61
119,59,60,83
120,83,82,59
121,84,61,62
122,62,85,84
123,134,133,85
124,85,86,134
125,63,86,85
126,85,62,63
127,65,64,18
128,18,19,65
129,63,17,18
130,18,64,63
131,134,86,87
132,87,135,134
133,65,88,87
134,87,64,65
135,63,64,87
136,87,86,63
137,65,66,89
138,89,88,65
139,138,137,89
140,89,90,138
141,67,90,89
142,89,66,67
143,69,68,22
144,22,23,69
145,67,21,22
146,22,68,67
147,138,90,91
148,91,139,138
149,69,92,91
150,91,68,69
151,67,68,91
152,91,90,67
153,69,70,93
154,93,92,69
155,142,141,93
156,93,94,142
157,71,94,93
158,93,70,71
159,4,2,27
160,27,31,4
161,31,71,25
162,25,4,31
163,96,144,142
164,142,94,96
165,96,31,27
166,27,98,96
167,94,71,31
168,31,96,94
169,166,174,172
170,172,145,166
171,149,148,177
172,177,178,149
173,153,152,181
174,181,182,153
175,157,156,185
176,185,186,157
177,161,160,189
178,189,190,161
179,171,173,165
180,165,164,171
181,172,122,123
182,123,170,172
183,126,127,179
184,179,178,126
185,130,131,183
186,183,182,130
187,134,135,187
188,187,186,134
189,138,139,191
190,191,190,138
191,144,175,173
192,173,142,144
193,174,193,168
194,168,143,174
195,124,125,177
196,177,176,124
197,128,129,181
198,181,180,128
199,132,133,185
200,185,184,132
201,136,137,189
202,189,188,136
203,141,171,192
204,192,140,141
205,97,168,166
206,166,120,97
207,147,101,100
208,100,146,147
209,147,148,102
210,102,101,147
211,151,105,104
212,104,150,151
213,151,152,106
214,106,105,151
215,109,108,154
216,154,155,109
217,155,156,110
218,110,109,155
219,159,113,112
220,112,158,159
221,159,160,114
222,114,113,159
223,163,117,116
224,116,162,163
225,163,164,118
226,118,117,163
227,98,121,167
228,167,169,98
229,170,176,147
230,147,146,170
231,3,30,26
232,26,1,3
233,30,3,5
234,5,51,30
235,151,150,179
236,179,180,151
237,53,7,8
238,8,54,53
239,10,55,54
240,54,8,10
241,184,155,154
242,154,183,184
243,57,12,13
244,13,58,57
245,59,58,13
246,13,14,59
247,159,158,187
248,187,188,159
249,16,62,61
250,61,9,16
251,63,62,16
252,16,17,63
253,163,162,191
254,191,192,163
255,65,19,20
256,20,66,65
257,67,66,20
258,20,21,67
259,175,194,169
260,169,167,175
261,69,23,24
262,24,70,69
263,71,70,24
264,24,25,71
265,97,120,28
266,28,26,97
267,145,99,120
268,120,166,145
269,72,28,120
270,120,99,72
271,33,7,6
272,6,32,33
273,72,32,6
274,6,5,72
275,145,146,100
276,100,99,145
277,33,32,100
278,100,101,33
279,99,100,32
280,32,72,99
281,33,101,102
282,102,34,33
283,149,103,102
284,102,148,149
285,35,34,102
286,102,103,35
287,37,12,11
288,11,36,37
289,35,36,11
290,11,10,35
291,149,150,104
292,104,103,149
293,37,36,104
294,104,105,37
295,35,103,104
296,104,36,35
297,37,105,106
298,106,38,37
299,153,107,106
300,106,152,153
301,39,38,106
302,106,107,39
303,9,15,40
304,40,41,9
305,39,40,15
306,15,14,39
307,153,154,108
308,108,107,153
309,41,40,108
310,108,109,41
311,39,107,108
312,108,40,39
313,109,110,42
314,42,41,109
315,157,111,110
316,110,156,157
317,43,42,110
318,110,111,43
319,45,19,18
320,18,44,45
321,43,44,18
322,18,17,43
323,157,158,112
324,112,111,157
325,45,44,112
326,112,113,45
327,43,111,112
328,112,44,43
329,45,113,114
330,114,46,45
331,161,115,114
332,114,160,161
333,47,46,114
334,114,115,47
335,49,23,22
336,22,48,49
337,47,48,22
338,22,21,47
339,161,162,116
340,116,115,161
341,49,48,116
342,116,117,49
343,47,115,116
344,116,48,47
345,49,117,118
346,118,50,49
347,165,119,118
348,118,164,165
349,119,73,50
350,50,118,119
351,4,29,27
352,27,2,4
353,73,29,4
354,4,25,73
355,165,167,121
356,121,119,165
357,98,27,29
358,29,121,98
359,73,119,121
360,121,29,73
361,143,122,172
362,172,174,143
363,126,178,177
364,177,125,126
365,130,182,181
366,181,129,130
367,134,186,185
368,185,133,134
369,138,190,189
370,189,137,138
371,173,171,141
372,141,142,173
373,170,146,145
374,145,172,170
375,149,178,179
376,179,150,149
377,153,182,183
378,183,154,153
379,157,186,187
380,187,158,157
381,161,190,191
382,191,162,161
383,167,165,173
384,173,175,167
*MATERIAL, NAME=CFRP
*ELASTIC
7e+10,0.3
*DENSITY
1600
*SHELL SECTION, ELSET=ALL_SHELL, MATERIAL=CFRP
0.0025
*NSET, NSET=ALLNODES, GENERATE
1,194,1
*NSET, NSET=MOUNT
1,2
*STEP
*STATIC
*NODE PRINT, NSET=ALLNODES
U
*EL PRINT, ELSET=ALL_SHELL
S
*NODE FILE, NSET=ALLNODES
U
*EL FILE, ELSET=ALL_SHELL
S
*DLOAD
1,P,395.588043
2,P,395.588043
3,P,1038.55566
4,P,1038.55566
5,P,1099.5116
6,P,1099.5116
7,P,1108.71033
8,P,1108.71033
9,P,1092.43225
10,P,1092.43225
11,P,987.158752
12,P,987.158752
13,P,279.436249
14,P,279.436249
15,P,697.791626
16,P,697.791626
17,P,722.911072
18,P,722.911072
19,P,748.152588
20,P,748.152588
21,P,751.204651
22,P,751.204651
23,P,755.28241
24,P,755.28241
25,P,755.311218
26,P,755.311218
27,P,751.283936
28,P,751.283936
29,P,748.151855
30,P,748.151855
31,P,720.760132
32,P,720.760132
33,P,695.437439
34,P,695.437439
35,P,281.156281
36,P,281.156281
37,P,212.959579
38,P,212.959579
39,P,-226.07103
40,P,-226.07103
41,P,-516.883484
42,P,-516.883484
43,P,192.416229
44,P,192.416229
45,P,-718.56366
46,P,-718.56366
47,P,-725.473999
48,P,-725.473999
49,P,199.430481
50,P,199.430481
51,P,-726.556396
52,P,-726.556396
53,P,-725.755859
54,P,-725.755859
55,P,195.075211
56,P,195.075211
57,P,-723.380493
58,P,-723.380493
59,P,-724.812988
60,P,-724.812988
61,P,187.65538
62,P,187.65538
63,P,-728.460022
64,P,-728.460022
65,P,-729.287964
66,P,-729.287964
67,P,182.643768
68,P,182.643768
69,P,-711.14624
70,P,-711.14624
71,P,-639.430786
72,P,-639.430786
73,P,315.722809
74,P,315.722809
75,P,539.898926
76,P,539.898926
77,P,546.864258
78,P,546.864258
79,P,-600.210876
80,P,-600.210876
81,P,-572.174988
82,P,-572.174988
83,P,651.842957
84,P,651.842957
85,P,780.857178
86,P,780.857178
87,P,725.142578
88,P,725.142578
89,P,802.003723
90,P,802.003723
91,P,736.09375
92,P,736.09375
93,P,811.165161
94,P,811.165161
95,P,-605.787598
96,P,-605.787598
97,P,-605.911011
98,P,-605.911011
99,P,743.408447
100,P,743.408447
101,P,817.629517
102,P,817.629517
103,P,815.305664
104,P,815.305664
105,P,818.870789
106,P,818.870789
107,P,753.157104
108,P,753.157104
109,P,819.32135
110,P,819.32135
111,P,-606.081238
112,P,-606.081238
113,P,-605.460999
114,P,-605.460999
115,P,754.462158
116,P,754.462158
117,P,819.71521
118,P,819.71521
119,P,819.554565
120,P,819.554565
121,P,819.790833
122,P,819.790833
123,P,754.533691
124,P,754.533691
125,P,819.775391
126,P,819.775391
127,P,-605.043518
128,P,-605.043518
129,P,-605.30426
130,P,-605.30426
131,P,753.265259
132,P,753.265259
133,P,819.467773
134,P,819.467773
135,P,819.713623
136,P,819.713623
137,P,818.521667
138,P,818.521667
139,P,743.063477
140,P,743.063477
141,P,816.204224
142,P,816.204224
143,P,-600.328064
144,P,-600.328064
145,P,-603.429626
146,P,-603.429626
147,P,734.844666
148,P,734.844666
149,P,801.245789
150,P,801.245789
151,P,811.353333
152,P,811.353333
153,P,779.623047
154,P,779.623047
155,P,649.697937
156,P,649.697937
157,P,723.556946
158,P,723.556946
159,P,-167.10881
160,P,-167.10881
161,P,-458.311127
162,P,-458.311127
163,P,538.748413
164,P,538.748413
165,P,314.302704
166,P,314.302704
167,P,545.327026
168,P,545.327026
169,P,806.171753
170,P,806.171753
171,P,1064.86584
172,P,1064.86584
173,P,1104.46533
174,P,1104.46533
175,P,1107.47229
176,P,1107.47229
177,P,1081.50427
178,P,1081.50427
179,P,926.995239
180,P,926.995239
181,P,230.654678
182,P,230.654678
183,P,189.281006
184,P,189.281006
185,P,198.610901
186,P,198.610901
187,P,197.167282
188,P,197.167282
189,P,186.269608
190,P,186.269608
191,P,232.092163
192,P,232.092163
193,P,183.439056
194,P,183.439056
195,P,188.7117
196,P,188.7117
197,P,195.152344
198,P,195.152344
199,P,199.432449
200,P,199.432449
201,P,192.255371
202,P,192.255371
203,P,211.907074
204,P,211.907074
205,P,468.48526
206,P,468.48526
207,P,903.568604
208,P,903.568604
209,P,951.048462
210,P,951.048462
211,P,1022.15222
212,P,1022.15222
213,P,1031.5033
214,P,1031.5033
215,P,1042.12085
216,P,1042.12085
217,P,1042.09436
218,P,1042.09436
219,P,1031.43152
220,P,1031.43152
221,P,1022.15686
222,P,1022.15686
223,P,953.152893
224,P,953.152893
225,P,905.862671
226,P,905.862671
227,P,466.201508
228,P,466.201508
229,P,986.695312
230,P,986.695312
231,P,-169.394089
232,P,-169.394089
233,P,-464.886475
234,P,-464.886475
235,P,1092.31909
236,P,1092.31909
237,P,-607.398254
238,P,-607.398254
239,P,-607.65802
240,P,-607.65802
241,P,1108.69824
242,P,1108.69824
243,P,-605.412354
244,P,-605.412354
245,P,-605.506714
246,P,-605.506714
247,P,1099.58728
248,P,1099.58728
249,P,-606.052917
250,P,-606.052917
251,P,-605.362671
252,P,-605.362671
253,P,1039.0177
254,P,1039.0177
255,P,-605.074341
256,P,-605.074341
257,P,-604.465271
258,P,-604.465271
259,P,396.221619
260,P,396.221619
261,P,-592.455139
262,P,-592.455139
263,P,-564.534485
264,P,-564.534485
265,P,289.798431
266,P,289.798431
267,P,673.519653
268,P,673.519653
269,P,419.626251
270,P,419.626251
271,P,-703.703735
272,P,-703.703735
273,P,-631.887573
274,P,-631.887573
275,P,831.305359
276,P,831.305359
277,P,667.236328
278,P,667.236328
279,P,546.316467
280,P,546.316467
281,P,713.239624
282,P,713.239624
283,P,985.104187
284,P,985.104187
285,P,735.35144
286,P,735.35144
287,P,-727.785583
288,P,-727.785583
289,P,-727.905701
290,P,-727.905701
291,P,1007.98755
292,P,1007.98755
293,P,757.670837
294,P,757.670837
295,P,749.355103
296,P,749.355103
297,P,763.234131
298,P,763.234131
299,P,1037.26575
300,P,1037.26575
301,P,766.605347
302,P,766.605347
303,P,-723.352234
304,P,-723.352234
305,P,-724.723694
306,P,-724.723694
307,P,1040.7937
308,P,1040.7937
309,P,769.12262
310,P,769.12262
311,P,768.608154
312,P,768.608154
313,P,769.047302
314,P,769.047302
315,P,1040.72778
316,P,1040.72778
317,P,768.391235
318,P,768.391235
319,P,-726.902771
320,P,-726.902771
321,P,-725.942505
322,P,-725.942505
323,P,1037.16553
324,P,1037.16553
325,P,762.650391
326,P,762.650391
327,P,766.220886
328,P,766.220886
329,P,756.806702
330,P,756.806702
331,P,1008.32233
332,P,1008.32233
333,P,748.488098
334,P,748.488098
335,P,-725.288635
336,P,-725.288635
337,P,-729.4823
338,P,-729.4823
339,P,986.325195
340,P,986.325195
341,P,714.046936
342,P,714.046936
343,P,735.193359
344,P,735.193359
345,P,668.574219
346,P,668.574219
347,P,833.416016
348,P,833.416016
349,P,548.062866
350,P,548.062866
351,P,-228.14946
352,P,-228.14946
353,P,-523.406921
354,P,-523.406921
355,P,674.555359
356,P,674.555359
357,P,291.874817
358,P,291.874817
359,P,421.31192
360,P,421.31192
361,P,233.215759
362,P,233.215759
363,P,186.963791
364,P,186.963791
365,P,197.182861
366,P,197.182861
367,P,198.603683
368,P,198.603683
369,P,188.968185
370,P,188.968185
371,P,229.649582
372,P,229.649582
373,P,926.451904
374,P,926.451904
375,P,1081.3302
376,P,1081.3302
377,P,1107.43726
378,P,1107.43726
379,P,1104.50208
380,P,1104.50208
381,P,1065.19153
382,P,1065.19153
383,P,807.033142
384,P,807.033142
*BOUNDARY
MOUNT, 1, 6
*END STEP
