*HEADING
Wing shell from CFD pressure
*NODE
1,0.00213337992,-0.0143742003,-0.374996006
2,0.00213337992,-0.0143742003,0.374996006
3,0.00217478001,-0.0143860998,-0.367184013
4,0.00217478001,-0.0143860998,0.367184013
5,0.0022161901,-0.0143980002,-0.35937199
6,0.0022161901,-0.0143980002,0.35937199
7,0.00225758995,-0.0144100003,-0.351559013
8,0.00225758995,-0.0144100003,0.351559013
9,0.00229899003,-0.0144218998,-0.34374699
10,0.00229899003,-0.0144218998,0.34374699
11,0.00234039011,-0.0144338999,-0.335934997
12,0.00234039011,-0.0144338999,0.335934997
13,0.00238178996,-0.0144458003,-0.32812199
14,0.00238178996,-0.0144458003,0.32812199
15,0.00242319005,-0.0144578004,-0.320309997
16,0.00242319005,-0.0144578004,0.320309997
17,0.0024645899,-0.0144696999,-0.312498003
18,0.0024645899,-0.0144696999,0.312498003
19,0.00250598998,-0.0144816004,-0.30468601
20,0.00250598998,-0.0144816004,0.30468601
21,0.00254740007,-0.0144936005,-0.296873003
22,0.00254740007,-0.0144936005,0.296873003
23,0.00258879992,-0.0145055,-0.28906101
24,0.00258879992,-0.0145055,0.28906101
25,0.0026302,-0.0145175001,-0.281248987
26,0.0026302,-0.0145175001,0.281248987
27,0.00267160009,-0.0145293996,-0.273436993
28,0.00267160009,-0.0145293996,0.273436993
29,0.00271299994,-0.0145413997,-0.265623987
30,0.00271299994,-0.0145413997,0.265623987
31,0.00275440002,-0.0145533001,-0.257811993
32,0.00275440002,-0.0145533001,0.257811993
33,0.0027958001,-0.0145653002,-0.25
34,0.0027958001,-0.0145653002,0.25
35,0.00283719995,-0.0145771997,-0.242188007
36,0.00283719995,-0.0145771997,0.242188007
37,0.00287861005,-0.0145891001,-0.234375
38,0.00287861005,-0.0145891001,0.234375
39,0.00292000989,-0.0146011002,-0.226563007
40,0.00292000989,-0.0146011002,0.226563007
41,0.00296140998,-0.0146129997,-0.218750998
42,0.00296140998,-0.0146129997,0.218750998
43,0.00298084994,-0.0153080998,-0.382813007
44,0.00298084994,-0.0153080998,-0.101562001
45,0.00298084994,-0.0153080998,-0.09375
46,0.00298084994,-0.0153080998,-0.0859375
47,0.00298084994,-0.0153080998,-0.078125
48,0.00298084994,-0.0153080998,-0.0703125
49,0.00298084994,-0.0153080998,-0.0625
50,0.00298084994,-0.0153080998,-0.0546875
51,0.00298084994,-0.0153080998,-0.046875
52,0.00298084994,-0.0153080998,-0.0390625
53,0.00298084994,-0.0153080998,-0.03125
54,0.00298084994,-0.0153080998,-0.0234375
55,0.00298084994,-0.0153080998,-0.015625
56,0.00298084994,-0.0153080998,-0.0078125
57,0.00298084994,-0.0153080998,-0
58,0.00298084994,-0.0153080998,0.0078125
59,0.00298084994,-0.0153080998,0.015625
60,0.00298084994,-0.0153080998,0.0234375
61,0.00298084994,-0.0153080998,0.03125
62,0.00298084994,-0.0153080998,0.0390625
63,0.00298084994,-0.0153080998,0.046875
64,0.00298084994,-0.0153080998,0.0546875
65,0.00298084994,-0.0153080998,0.0625
66,0.00298084994,-0.0153080998,0.0703125
67,0.00298084994,-0.0153080998,0.078125
68,0.00298084994,-0.0153080998,0.0859375
69,0.00298084994,-0.0153080998,0.09375
70,0.00298084994,-0.0153080998,0.101562999
71,0.00298084994,-0.0153080998,0.382813007
72,0.00300281006,-0.0146249998,-0.210939005
73,0.00300281006,-0.0146249998,0.210939005
74,0.00304420991,-0.0146369003,-0.203125998
75,0.00304420991,-0.0146369003,0.203125998
76,0.00308560999,-0.0146489004,-0.195314005
77,0.00308560999,-0.0146489004,0.195314005
78,0.00312701007,-0.0146607999,-0.187501997
79,0.00312701007,-0.0146607999,0.187501997
80,0.00316840992,-0.0146728,-0.179689005
81,0.00316840992,-0.0146728,0.179689005
82,0.00317623001,-0.0152663002,-0.390341014
83,0.00317623001,-0.0152663002,0.390341014
84,0.00320982002,-0.0146847004,-0.171876997
85,0.00320982002,-0.0146847004,0.171876997
86,0.0032512201,-0.0146965999,-0.164065003
87,0.0032512201,-0.0146965999,0.164065003
88,0.00329261995,-0.0147086,-0.156252995
89,0.00329261995,-0.0147086,0.156252995
90,0.00333402003,-0.0147205004,-0.148440003
91,0.00333402003,-0.0147205004,0.148440003
92,0.00337542011,-0.0147324996,-0.140627995
93,0.00337542011,-0.0147324996,0.140627995
94,0.00341681996,-0.0147444,-0.132816002
95,0.00341681996,-0.0147444,0.132816002
96,0.00345822005,-0.0147564001,-0.125003994
97,0.00345822005,-0.0147564001,0.125003994
98,0.0034996199,-0.0147682996,-0.117191002
99,0.0034996199,-0.0147682996,0.117191002
100,0.00354102999,-0.0147802997,-0.109379001
101,0.00354102999,-0.0147802997,0.109379001
102,0.00384610007,-0.0151230004,-0.395981014
103,0.00384713011,-0.0151252002,0.395981014
104,0.00505841011,-0.0196563993,-0.395951986
105,0.00505841011,-0.0196563993,-0.390311003
106,0.00505841011,-0.0196563993,-0.382813007
107,0.00505841011,-0.0196563993,-0.375
108,0.00505841011,-0.0196563993,-0.367188007
109,0.00505841011,-0.0196563993,-0.359375
110,0.00505841011,-0.0196563993,-0.351561993
111,0.00505841011,-0.0196563993,-0.34375
112,0.00505841011,-0.0196563993,-0.335938007
113,0.00505841011,-0.0196563993,-0.328125
114,0.00505841011,-0.0196563993,-0.320311993
115,0.00505841011,-0.0196563993,-0.3125
116,0.00505841011,-0.0196563993,-0.304688007
117,0.00505841011,-0.0196563993,-0.296875
118,0.00505841011,-0.0196563993,-0.289063007
119,0.00505841011,-0.0196563993,-0.28125
120,0.00505841011,-0.0196563993,-0.273438007
121,0.00505841011,-0.0196563993,-0.265625
122,0.00505841011,-0.0196563993,-0.257811993
123,0.00505841011,-0.0196563993,-0.25
124,0.00505841011,-0.0196563993,-0.242188007
125,0.00505841011,-0.0196563993,-0.234375
126,0.00505841011,-0.0196563993,-0.226563007
127,0.00505841011,-0.0196563993,-0.21875
128,0.00505841011,-0.0196563993,-0.210938007
129,0.00505841011,-0.0196563993,-0.203125
130,0.00505841011,-0.0196563993,-0.195311993
131,0.00505841011,-0.0196563993,-0.1875
132,0.00505841011,-0.0196563993,-0.179688007
133,0.00505841011,-0.0196563993,-0.171875
134,0.00505841011,-0.0196563993,-0.164063007
135,0.00505841011,-0.0196563993,-0.15625
136,0.00505841011,-0.0196563993,-0.148438007
137,0.00505841011,-0.0196563993,-0.140625
138,0.00505841011,-0.0196563993,-0.132813007
139,0.00505841011,-0.0196563993,-0.125
140,0.00505841011,-0.0196563993,-0.117187999
141,0.00505841011,-0.0196563993,-0.109375
142,0.00505841011,-0.0196563993,-0.101562999
143,0.00505841011,-0.0196563993,-0.09375
144,0.00505841011,-0.0196563993,-0.0859375
145,0.00505841011,-0.0196563993,-0.078125
146,0.00505841011,-0.0196563993,-0.0703125
147,0.00505841011,-0.0196563993,-0.0625
148,0.00505841011,-0.0196563993,-0.0546875
149,0.00505841011,-0.0196563993,-0.046875
150,0.00505841011,-0.0196563993,-0.0390625
151,0.00505841011,-0.0196563993,-0.03125
152,0.00505841011,-0.0196563993,-0.0234375
153,0.00505841011,-0.0196563993,-0.015625
154,0.00505841011,-0.0196563993,-0.0078125
155,0.00505841011,-0.0196563993,0
156,0.00505841011,-0.0196563993,0.0078125
157,0.00505841011,-0.0196563993,0.015625
158,0.00505841011,-0.0196563993,0.0234375
159,0.00505841011,-0.0196563993,0.03125
160,0.00505841011,-0.0196563993,0.0390625
161,0.00505841011,-0.0196563993,0.046875
162,0.00505841011,-0.0196563993,0.0546875
163,0.00505841011,-0.0196563993,0.0625
164,0.00505841011,-0.0196563993,0.0703125
165,0.00505841011,-0.0196563993,0.078125
166,0.00505841011,-0.0196563993,0.0859375
167,0.00505841011,-0.0196563993,0.09375
168,0.00505841011,-0.0196563993,0.101562001
169,0.00505841011,-0.0196563993,0.109375
170,0.00505841011,-0.0196563993,0.117187001
171,0.00505841011,-0.0196563993,0.125
172,0.00505841011,-0.0196563993,0.132811993
173,0.00505841011,-0.0196563993,0.140625
174,0.00505841011,-0.0196563993,0.148436993
175,0.00505841011,-0.0196563993,0.15625
176,0.00505841011,-0.0196563993,0.164061993
177,0.00505841011,-0.0196563993,0.171875
178,0.00505841011,-0.0196563993,0.179686993
179,0.00505841011,-0.0196563993,0.1875
180,0.00505841011,-0.0196563993,0.195311993
181,0.00505841011,-0.0196563993,0.203125
182,0.00505841011,-0.0196563993,0.210938007
183,0.00505841011,-0.0196563993,0.21875
184,0.00505841011,-0.0196563993,0.226563007
185,0.00505841011,-0.0196563993,0.234375
186,0.00505841011,-0.0196563993,0.242188007
187,0.00505841011,-0.0196563993,0.25
188,0.00505841011,-0.0196563993,0.257813007
189,0.00505841011,-0.0196563993,0.265625
190,0.00505841011,-0.0196563993,0.273438007
191,0.00505841011,-0.0196563993,0.28125
192,0.00505841011,-0.0196563993,0.289061993
193,0.00505841011,-0.0196563993,0.296875
194,0.00505841011,-0.0196563993,0.304688007
195,0.00505841011,-0.0196563993,0.3125
196,0.00505841011,-0.0196563993,0.320311993
197,0.00505841011,-0.0196563993,0.328125
198,0.00505841011,-0.0196563993,0.335938007
199,0.00505841011,-0.0196563993,0.34375
200,0.00505841011,-0.0196563993,0.351561993
201,0.00505841011,-0.0196563993,0.359375
202,0.00505841011,-0.0196563993,0.367188007
203,0.00505841011,-0.0196563993,0.375
204,0.00505841011,-0.0196563993,0.382811993
205,0.00505841011,-0.0196563993,0.390311003
206,0.00505841011,-0.0196563993,0.395951986
207,0.0130110998,-0.0221306998,-0.396366
208,0.0130110998,-0.0221306998,0.396366
209,0.0130289001,-0.0131590003,-0.39664799
210,0.0130326003,-0.0131849004,0.39664799
211,0.0133733004,-0.0222657006,-0.390347004
212,0.0133733004,-0.0222657006,0.390347004
213,0.0133865997,-0.0222676992,-0.382811993
214,0.0133865997,-0.0222676992,-0.375
215,0.0133865997,-0.0222676992,-0.367188007
216,0.0133865997,-0.0222676992,-0.359375
217,0.0133865997,-0.0222676992,-0.351561993
218,0.0133865997,-0.0222676992,-0.34375
219,0.0133865997,-0.0222676992,-0.335938007
220,0.0133865997,-0.0222676992,-0.328125
221,0.0133865997,-0.0222676992,-0.320311993
222,0.0133865997,-0.0222676992,-0.3125
223,0.0133865997,-0.0222676992,-0.304688007
224,0.0133865997,-0.0222676992,-0.296875
225,0.0133865997,-0.0222676992,-0.289063007
226,0.0133865997,-0.0222676992,-0.28125
227,0.0133865997,-0.0222676992,-0.273438007
228,0.0133865997,-0.0222676992,-0.265625
229,0.0133865997,-0.0222676992,-0.257811993
230,0.0133865997,-0.0222676992,-0.25
231,0.0133865997,-0.0222676992,-0.242188007
232,0.0133865997,-0.0222676992,-0.234375
233,0.0133865997,-0.0222676992,-0.226563007
234,0.0133865997,-0.0222676992,-0.21875
235,0.0133865997,-0.0222676992,-0.210936993
236,0.0133865997,-0.0222676992,-0.203125
237,0.0133865997,-0.0222676992,-0.195311993
238,0.0133865997,-0.0222676992,-0.1875
239,0.0133865997,-0.0222676992,-0.179688007
240,0.0133865997,-0.0222676992,-0.171875
241,0.0133865997,-0.0222676992,-0.164061993
242,0.0133865997,-0.0222676992,-0.15625
243,0.0133865997,-0.0222676992,-0.148438007
244,0.0133865997,-0.0222676992,-0.140625
245,0.0133865997,-0.0222676992,-0.132813007
246,0.0133865997,-0.0222676992,-0.125
247,0.0133865997,-0.0222676992,-0.117187999
248,0.0133865997,-0.0222676992,-0.109375
249,0.0133865997,-0.0222676992,-0.101562999
250,0.0133865997,-0.0222676992,-0.09375
251,0.0133865997,-0.0222676992,-0.0859375
252,0.0133865997,-0.0222676992,-0.078125
253,0.0133865997,-0.0222676992,-0.0703125
254,0.0133865997,-0.0222676992,-0.0625
255,0.0133865997,-0.0222676992,-0.0546875
256,0.0133865997,-0.0222676992,-0.046875
257,0.0133865997,-0.0222676992,-0.0390625
258,0.0133865997,-0.0222676992,-0.03125
259,0.0133865997,-0.0222676992,-0.0234375
260,0.0133865997,-0.0222676992,-0.015625
261,0.0133865997,-0.0222676992,-0.0078125
262,0.0133865997,-0.0222676992,0
263,0.0133865997,-0.0222676992,0.0078125
264,0.0133865997,-0.0222676992,0.015625
265,0.0133865997,-0.0222676992,0.0234375
266,0.0133865997,-0.0222676992,0.03125
267,0.0133865997,-0.0222676992,0.0390625
268,0.0133865997,-0.0222676992,0.046875
269,0.0133865997,-0.0222676992,0.0546875
270,0.0133865997,-0.0222676992,0.0625
271,0.0133865997,-0.0222676992,0.0703125
272,0.0133865997,-0.0222676992,0.078125
273,0.0133865997,-0.0222676992,0.0859375
274,0.0133865997,-0.0222676992,0.09375
275,0.0133865997,-0.0222676992,0.101562001
276,0.0133865997,-0.0222676992,0.109375
277,0.0133865997,-0.0222676992,0.117187999
278,0.0133865997,-0.0222676992,0.125
279,0.0133865997,-0.0222676992,0.132811993
280,0.0133865997,-0.0222676992,0.140625
281,0.0133865997,-0.0222676992,0.148438007
282,0.0133865997,-0.0222676992,0.15625
283,0.0133865997,-0.0222676992,0.164061993
284,0.0133865997,-0.0222676992,0.171875
285,0.0133865997,-0.0222676992,0.179688007
286,0.0133865997,-0.0222676992,0.1875
287,0.0133865997,-0.0222676992,0.195313007
288,0.0133865997,-0.0222676992,0.203125
289,0.0133865997,-0.0222676992,0.210938007
290,0.0133865997,-0.0222676992,0.21875
291,0.0133865997,-0.0222676992,0.226563007
292,0.0133865997,-0.0222676992,0.234375
293,0.0133865997,-0.0222676992,0.242188007
294,0.0133865997,-0.0222676992,0.25
295,0.0133865997,-0.0222676992,0.257813007
296,0.0133865997,-0.0222676992,0.265625
297,0.0133865997,-0.0222676992,0.273436993
298,0.0133865997,-0.0222676992,0.28125
299,0.0133865997,-0.0222676992,0.289061993
300,0.0133865997,-0.0222676992,0.296875
301,0.0133865997,-0.0222676992,0.304688007
302,0.0133865997,-0.0222676992,0.3125
303,0.0133865997,-0.0222676992,0.320311993
304,0.0133865997,-0.0222676992,0.328125
305,0.0133865997,-0.0222676992,0.335938007
306,0.0133865997,-0.0222676992,0.34375
307,0.0133865997,-0.0222676992,0.351561993
308,0.0133865997,-0.0222676992,0.359375
309,0.0133865997,-0.0222676992,0.367186993
310,0.0133865997,-0.0222676992,0.375
311,0.0133865997,-0.0222676992,0.382813007
312,0.0146377003,-0.00175507006,-0.34375
313,0.0146377003,-0.00175507006,-0.335938007
314,0.0146377003,-0.00175507006,-0.328125
315,0.0146377003,-0.00175507006,-0.320311993
316,0.0146377003,-0.00175507006,-0.3125
317,0.0146377003,-0.00175507006,-0.304688007
318,0.0146377003,-0.00175507006,-0.296875
319,0.0146377003,-0.00175507006,-0.289063007
320,0.0146377003,-0.00175507006,-0.28125
321,0.0146377003,-0.00175507006,-0.273438007
322,0.0146377003,-0.00175507006,-0.265625
323,0.0146377003,-0.00175507006,-0.257811993
324,0.0146377003,-0.00175507006,-0.25
325,0.0146377003,-0.00175507006,-0.242188007
326,0.0146377003,-0.00175507006,-0.234375
327,0.0146377003,-0.00175507006,-0.226563007
328,0.0146377003,-0.00175507006,-0.21875
329,0.0146377003,-0.00175507006,-0.210938007
330,0.0146377003,-0.00175507006,-0.203125
331,0.0146377003,-0.00175507006,-0.195311993
332,0.0146377003,-0.00175507006,-0.1875
333,0.0146377003,-0.00175507006,-0.179688007
334,0.0146377003,-0.00175507006,-0.171875
335,0.0146377003,-0.00175507006,-0.164063007
336,0.0146377003,-0.00175507006,-0.15625
337,0.0146377003,-0.00175507006,-0.148438007
338,0.0146377003,-0.00175507006,-0.140625
339,0.0146377003,-0.00175507006,-0.132811993
340,0.0146377003,-0.00175507006,-0.125
341,0.0146377003,-0.00175507006,-0.117187001
342,0.0146377003,-0.00175507006,-0.109375
343,0.0146377003,-0.00175507006,-0.101562001
344,0.0146377003,-0.00175507006,-0.09375
345,0.0146377003,-0.00175507006,-0.0859375
346,0.0146377003,-0.00175507006,-0.078125
347,0.0146377003,-0.00175507006,-0.0703125
348,0.0146377003,-0.00175507006,-0.0625
349,0.0146377003,-0.00175507006,-0.0546875
350,0.0146377003,-0.00175507006,-0.046875
351,0.0146377003,-0.00175507006,-0.0390625
352,0.0146377003,-0.00175507006,-0.03125
353,0.0146377003,-0.00175507006,-0.0234375
354,0.0146377003,-0.00175507006,-0.015625
355,0.0146377003,-0.00175507006,-0.0078125
356,0.0146377003,-0.00175507006,0
357,0.0146377003,-0.00175507006,0.0078125
358,0.0146377003,-0.00175507006,0.015625
359,0.0146377003,-0.00175507006,0.0234375
360,0.0146377003,-0.00175507006,0.03125
361,0.0146377003,-0.00175507006,0.0390625
362,0.0146377003,-0.00175507006,0.046875
363,0.0146377003,-0.00175507006,0.0546875
364,0.0146377003,-0.00175507006,0.0625
365,0.0146377003,-0.00175507006,0.0703125
366,0.0146377003,-0.00175507006,0.078125
367,0.0146377003,-0.00175507006,0.0859375
368,0.0146377003,-0.00175507006,0.09375
369,0.0146377003,-0.00175507006,0.101562001
370,0.0146377003,-0.00175507006,0.109375
371,0.0146377003,-0.00175507006,0.117187001
372,0.0146377003,-0.00175507006,0.125
373,0.0146377003,-0.00175507006,0.132813007
374,0.0146377003,-0.00175507006,0.140625
375,0.0146377003,-0.00175507006,0.148436993
376,0.0146377003,-0.00175507006,0.15625
377,0.0146377003,-0.00175507006,0.164061993
378,0.0146377003,-0.00175507006,0.171875
379,0.0146377003,-0.00175507006,0.179686993
380,0.0146377003,-0.00175507006,0.1875
381,0.0146377003,-0.00175507006,0.195311993
382,0.0146377003,-0.00175507006,0.203125
383,0.0146377003,-0.00175507006,0.210936993
384,0.0146377003,-0.00175507006,0.21875
385,0.0146377003,-0.00175507006,0.226561993
386,0.0146377003,-0.00175507006,0.234375
387,0.0146377003,-0.00175507006,0.242188007
388,0.0146377003,-0.00175507006,0.25
389,0.0146377003,-0.00175507006,0.257813007
390,0.0146377003,-0.00175507006,0.265625
391,0.0146377003,-0.00175507006,0.273436993
392,0.0146377003,-0.00175507006,0.28125
393,0.0146377003,-0.00175507006,0.289061993
394,0.0146377003,-0.00175507006,0.296875
395,0.0146377003,-0.00175507006,0.304688007
396,0.0146377003,-0.00175507006,0.3125
397,0.0146377003,-0.00175507006,0.320313007
398,0.0146377003,-0.00175507006,0.328125
399,0.0146377003,-0.00175507006,0.335936993
400,0.0146377003,-0.00175507006,0.34375
401,0.0147748003,-0.00198134012,-0.390341014
402,0.0147748003,-0.00198134012,0.390341014
403,0.0148580996,-0.00217042002,-0.382806987
404,0.0148580996,-0.00217042002,0.382806987
405,0.0148862004,-0.00174529001,-0.396055013
406,0.0148862004,-0.00174529001,0.396055013
407,0.0149582,-0.00235902006,-0.375001013
408,0.0149582,-0.00235902006,0.375001013
409,0.0150584001,-0.00254761009,-0.367193997
410,0.0150584001,-0.00254761009,0.367193997
411,0.0151584996,-0.00273620989,-0.35938701
412,0.0151584996,-0.00273620989,0.35938701
413,0.0152586,-0.00292480993,-0.351581007
414,0.0152586,-0.00292480993,0.351581007
415,0.0230761003,0.00219032005,-0.396398008
416,0.0230761003,0.00219032005,0.396398008
417,0.0240912009,0.0027514901,-0.289061993
418,0.0240912009,0.0027514901,-0.28125
419,0.0240912009,0.0027514901,-0.273438007
420,0.0240912009,0.0027514901,-0.265625
421,0.0240912009,0.0027514901,-0.257811993
422,0.0240912009,0.0027514901,-0.25
423,0.0240912009,0.0027514901,-0.242188007
424,0.0240912009,0.0027514901,-0.234375
425,0.0240912009,0.0027514901,-0.226563007
426,0.0240912009,0.0027514901,-0.21875
427,0.0240912009,0.0027514901,-0.210938007
428,0.0240912009,0.0027514901,-0.203125
429,0.0240912009,0.0027514901,-0.195311993
430,0.0240912009,0.0027514901,-0.1875
431,0.0240912009,0.0027514901,-0.179688007
432,0.0240912009,0.0027514901,-0.171875
433,0.0240912009,0.0027514901,-0.164061993
434,0.0240912009,0.0027514901,-0.15625
435,0.0240912009,0.0027514901,-0.148438007
436,0.0240912009,0.0027514901,-0.140625
437,0.0240912009,0.0027514901,-0.132813007
438,0.0240912009,0.0027514901,-0.125
439,0.0240912009,0.0027514901,-0.117187001
440,0.0240912009,0.0027514901,-0.109375
441,0.0240912009,0.0027514901,-0.101562999
442,0.0240912009,0.0027514901,-0.09375
443,0.0240912009,0.0027514901,-0.0859375
444,0.0240912009,0.0027514901,-0.078125
445,0.0240912009,0.0027514901,-0.0703125
446,0.0240912009,0.0027514901,-0.0625
447,0.0240912009,0.0027514901,-0.0546875
448,0.0240912009,0.0027514901,-0.046875
449,0.0240912009,0.0027514901,-0.0390625
450,0.0240912009,0.0027514901,-0.03125
451,0.0240912009,0.0027514901,-0.0234375
452,0.0240912009,0.0027514901,-0.015625
453,0.0240912009,0.0027514901,-0.0078125
454,0.0240912009,0.0027514901,0
455,0.0240912009,0.0027514901,0.0078125
456,0.0240912009,0.0027514901,0.015625
457,0.0240912009,0.0027514901,0.0234375
458,0.0240912009,0.0027514901,0.03125
459,0.0240912009,0.0027514901,0.0390625
460,0.0240912009,0.0027514901,0.046875
461,0.0240912009,0.0027514901,0.0546875
462,0.0240912009,0.0027514901,0.0625
463,0.0240912009,0.0027514901,0.0703125
464,0.0240912009,0.0027514901,0.078125
465,0.0240912009,0.0027514901,0.0859375
466,0.0240912009,0.0027514901,0.09375
467,0.0240912009,0.0027514901,0.101562001
468,0.0240912009,0.0027514901,0.109375
469,0.0240912009,0.0027514901,0.117187999
470,0.0240912009,0.0027514901,0.125
471,0.0240912009,0.0027514901,0.132813007
472,0.0240912009,0.0027514901,0.140625
473,0.0240912009,0.0027514901,0.148436993
474,0.0240912009,0.0027514901,0.15625
475,0.0240912009,0.0027514901,0.164063007
476,0.0240912009,0.0027514901,0.171875
477,0.0240912009,0.0027514901,0.179686993
478,0.0240912009,0.0027514901,0.1875
479,0.0240912009,0.0027514901,0.195313007
480,0.0240912009,0.0027514901,0.203125
481,0.0240912009,0.0027514901,0.210936993
482,0.0240912009,0.0027514901,0.21875
483,0.0240912009,0.0027514901,0.226563007
484,0.0240912009,0.0027514901,0.234375
485,0.0240912009,0.0027514901,0.242188007
486,0.0240912009,0.0027514901,0.25
487,0.0240912009,0.0027514901,0.257811993
488,0.0240912009,0.0027514901,0.265625
489,0.0240912009,0.0027514901,0.273436993
490,0.0240912009,0.0027514901,0.28125
491,0.0240912009,0.0027514901,0.289061993
492,0.0242352001,0.00246125995,-0.39031899
493,0.0242352001,0.00246125995,0.39031899
494,0.0243151002,0.00222123996,-0.382770002
495,0.0243151002,0.00222123996,0.382770002
496,0.0244165007,0.00198108004,-0.374967009
497,0.0244165007,0.00198108004,0.374967009
498,0.0245178994,0.00174092001,-0.367163002
499,0.0245178994,0.00174092001,0.367163002
500,0.0246192999,0.00150075997,-0.359358996
501,0.0246192999,0.00150075997,0.359358996
502,0.0247207992,0.00126059004,-0.35155499
503,0.0247207992,0.00126059004,0.35155499
504,0.0247661006,-0.0106487004,-0.398330986
505,0.0247823,-0.0107030002,0.398330986
506,0.0248221997,0.00102043,-0.343751013
507,0.0248221997,0.00102043,0.343751013
508,0.0249236003,0.00078026799,-0.33594799
509,0.0249236003,0.00078026799,0.33594799
510,0.0249760002,-0.0231145993,-0.396533996
511,0.0249760002,-0.0231145993,0.396533996
512,0.0250250008,0.000540105975,-0.328144014
513,0.0250250008,0.000540105975,0.328144014
514,0.0250432994,-0.0232173,-0.390372992
515,0.0250432994,-0.0232173,0.390372992
516,0.0250528995,-0.0232174993,-0.382811993
517,0.0250528995,-0.0232174993,-0.375
518,0.0250528995,-0.0232174993,-0.367188007
519,0.0250528995,-0.0232174993,-0.359375
520,0.0250528995,-0.0232174993,-0.351561993
521,0.0250528995,-0.0232174993,-0.34375
522,0.0250528995,-0.0232174993,-0.335938007
523,0.0250528995,-0.0232174993,-0.328125
524,0.0250528995,-0.0232174993,-0.320311993
525,0.0250528995,-0.0232174993,-0.3125
526,0.0250528995,-0.0232174993,-0.304688007
527,0.0250528995,-0.0232174993,-0.296875
528,0.0250528995,-0.0232174993,-0.289063007
529,0.0250528995,-0.0232174993,-0.28125
530,0.0250528995,-0.0232174993,-0.273438007
531,0.0250528995,-0.0232174993,-0.265625
532,0.0250528995,-0.0232174993,-0.257811993
533,0.0250528995,-0.0232174993,-0.25
534,0.0250528995,-0.0232174993,-0.242186993
535,0.0250528995,-0.0232174993,-0.234375
536,0.0250528995,-0.0232174993,-0.226561993
537,0.0250528995,-0.0232174993,-0.21875
538,0.0250528995,-0.0232174993,-0.210936993
539,0.0250528995,-0.0232174993,-0.203125
540,0.0250528995,-0.0232174993,-0.195311993
541,0.0250528995,-0.0232174993,-0.1875
542,0.0250528995,-0.0232174993,-0.179686993
543,0.0250528995,-0.0232174993,-0.171875
544,0.0250528995,-0.0232174993,-0.164063007
545,0.0250528995,-0.0232174993,-0.15625
546,0.0250528995,-0.0232174993,-0.148438007
547,0.0250528995,-0.0232174993,-0.140625
548,0.0250528995,-0.0232174993,-0.132811993
549,0.0250528995,-0.0232174993,-0.125
550,0.0250528995,-0.0232174993,-0.117187001
551,0.0250528995,-0.0232174993,-0.109375
552,0.0250528995,-0.0232174993,-0.101562001
553,0.0250528995,-0.0232174993,-0.09375
554,0.0250528995,-0.0232174993,-0.0859375
555,0.0250528995,-0.0232174993,-0.078125
556,0.0250528995,-0.0232174993,-0.0703125
557,0.0250528995,-0.0232174993,-0.0625
558,0.0250528995,-0.0232174993,-0.0546875
559,0.0250528995,-0.0232174993,-0.046875
560,0.0250528995,-0.0232174993,-0.0390625
561,0.0250528995,-0.0232174993,-0.03125
562,0.0250528995,-0.0232174993,-0.0234375
563,0.0250528995,-0.0232174993,-0.015625
564,0.0250528995,-0.0232174993,-0.0078125
565,0.0250528995,-0.0232174993,1e-12
566,0.0250528995,-0.0232174993,0.0078125
567,0.0250528995,-0.0232174993,0.015625
568,0.0250528995,-0.0232174993,0.0234375
569,0.0250528995,-0.0232174993,0.03125
570,0.0250528995,-0.0232174993,0.0390625
571,0.0250528995,-0.0232174993,0.046875
572,0.0250528995,-0.0232174993,0.0546875
573,0.0250528995,-0.0232174993,0.0625
574,0.0250528995,-0.0232174993,0.0703125
575,0.0250528995,-0.0232174993,0.078125
576,0.0250528995,-0.0232174993,0.0859375
577,0.0250528995,-0.0232174993,0.09375
578,0.0250528995,-0.0232174993,0.101562999
579,0.0250528995,-0.0232174993,0.109375
580,0.0250528995,-0.0232174993,0.117187999
581,0.0250528995,-0.0232174993,0.125
582,0.0250528995,-0.0232174993,0.132811993
583,0.0250528995,-0.0232174993,0.140625
584,0.0250528995,-0.0232174993,0.148438007
585,0.0250528995,-0.0232174993,0.15625
586,0.0250528995,-0.0232174993,0.164061993
587,0.0250528995,-0.0232174993,0.171875
588,0.0250528995,-0.0232174993,0.179686993
589,0.0250528995,-0.0232174993,0.1875
590,0.0250528995,-0.0232174993,0.195311993
591,0.0250528995,-0.0232174993,0.203125
592,0.0250528995,-0.0232174993,0.210936993
593,0.0250528995,-0.0232174993,0.21875
594,0.0250528995,-0.0232174993,0.226563007
595,0.0250528995,-0.0232174993,0.234375
596,0.0250528995,-0.0232174993,0.242188007
597,0.0250528995,-0.0232174993,0.25
598,0.0250528995,-0.0232174993,0.257813007
599,0.0250528995,-0.0232174993,0.265625
600,0.0250528995,-0.0232174993,0.273436993
601,0.0250528995,-0.0232174993,0.28125
602,0.0250528995,-0.0232174993,0.289061993
603,0.0250528995,-0.0232174993,0.296875
604,0.0250528995,-0.0232174993,0.304688007
605,0.0250528995,-0.0232174993,0.3125
606,0.0250528995,-0.0232174993,0.320313007
607,0.0250528995,-0.0232174993,0.328125
608,0.0250528995,-0.0232174993,0.335936993
609,0.0250528995,-0.0232174993,0.34375
610,0.0250528995,-0.0232174993,0.351561993
611,0.0250528995,-0.0232174993,0.359375
612,0.0250528995,-0.0232174993,0.367186993
613,0.0250528995,-0.0232174993,0.375
614,0.0250528995,-0.0232174993,0.382813007
615,0.0251263995,0.000299943,-0.320340008
616,0.0251263995,0.000299943,0.320340008
617,0.0252278,5.9780901e-05,-0.312536001
618,0.0252278,5.9780901e-05,0.312536001
619,0.0253292006,-0.000180381001,-0.304731995
620,0.0253292006,-0.000180381001,0.304731995
621,0.0254305992,-0.000420544005,-0.296929002
622,0.0254305992,-0.000420544005,0.296929002
623,0.0349235013,0.00681817019,-0.396678001
624,0.0349235013,0.00681817019,0.396678001
625,0.036651399,-0.0081066601,-0.398575991
626,0.0366797,-0.00818984955,0.398575991
627,0.0373030007,-0.0229192991,-0.382811993
628,0.0373030007,-0.0229192991,-0.375
629,0.0373030007,-0.0229192991,-0.367188007
630,0.0373030007,-0.0229192991,-0.359375
631,0.0373030007,-0.0229192991,-0.351561993
632,0.0373030007,-0.0229192991,-0.34375
633,0.0373030007,-0.0229192991,-0.335938007
634,0.0373030007,-0.0229192991,-0.328125
635,0.0373030007,-0.0229192991,-0.320311993
636,0.0373030007,-0.0229192991,-0.3125
637,0.0373030007,-0.0229192991,-0.304688007
638,0.0373030007,-0.0229192991,-0.296875
639,0.0373030007,-0.0229192991,-0.289063007
640,0.0373030007,-0.0229192991,-0.28125
641,0.0373030007,-0.0229192991,-0.273438007
642,0.0373030007,-0.0229192991,-0.265625
643,0.0373030007,-0.0229192991,-0.257811993
644,0.0373030007,-0.0229192991,-0.25
645,0.0373030007,-0.0229192991,-0.242188007
646,0.0373030007,-0.0229192991,-0.234375
647,0.0373030007,-0.0229192991,-0.226561993
648,0.0373030007,-0.0229192991,-0.21875
649,0.0373030007,-0.0229192991,-0.210936993
650,0.0373030007,-0.0229192991,-0.203125
651,0.0373030007,-0.0229192991,-0.195311993
652,0.0373030007,-0.0229192991,-0.1875
653,0.0373030007,-0.0229192991,-0.179688007
654,0.0373030007,-0.0229192991,-0.171875
655,0.0373030007,-0.0229192991,-0.164061993
656,0.0373030007,-0.0229192991,-0.15625
657,0.0373030007,-0.0229192991,-0.148438007
658,0.0373030007,-0.0229192991,-0.140625
659,0.0373030007,-0.0229192991,-0.132811993
660,0.0373030007,-0.0229192991,-0.125
661,0.0373030007,-0.0229192991,-0.117187001
662,0.0373030007,-0.0229192991,-0.109375
663,0.0373030007,-0.0229192991,-0.101562001
664,0.0373030007,-0.0229192991,-0.09375
665,0.0373030007,-0.0229192991,-0.0859375
666,0.0373030007,-0.0229192991,-0.078125
667,0.0373030007,-0.0229192991,-0.0703125
668,0.0373030007,-0.0229192991,-0.0625
669,0.0373030007,-0.0229192991,-0.0546875
670,0.0373030007,-0.0229192991,-0.046875
671,0.0373030007,-0.0229192991,-0.0390625
672,0.0373030007,-0.0229192991,-0.03125
673,0.0373030007,-0.0229192991,-0.0234375
674,0.0373030007,-0.0229192991,-0.015625
675,0.0373030007,-0.0229192991,-0.0078125
676,0.0373030007,-0.0229192991,0
677,0.0373030007,-0.0229192991,0.0078125
678,0.0373030007,-0.0229192991,0.015625
679,0.0373030007,-0.0229192991,0.0234375
680,0.0373030007,-0.0229192991,0.03125
681,0.0373030007,-0.0229192991,0.0390625
682,0.0373030007,-0.0229192991,0.046875
683,0.0373030007,-0.0229192991,0.0546875
684,0.0373030007,-0.0229192991,0.0625
685,0.0373030007,-0.0229192991,0.0703125
686,0.0373030007,-0.0229192991,0.078125
687,0.0373030007,-0.0229192991,0.0859375
688,0.0373030007,-0.0229192991,0.09375
689,0.0373030007,-0.0229192991,0.101562001
690,0.0373030007,-0.0229192991,0.109375
691,0.0373030007,-0.0229192991,0.117187001
692,0.0373030007,-0.0229192991,0.125
693,0.0373030007,-0.0229192991,0.132813007
694,0.0373030007,-0.0229192991,0.140625
695,0.0373030007,-0.0229192991,0.148438007
696,0.0373030007,-0.0229192991,0.15625
697,0.0373030007,-0.0229192991,0.164061993
698,0.0373030007,-0.0229192991,0.171875
699,0.0373030007,-0.0229192991,0.179688007
700,0.0373030007,-0.0229192991,0.1875
701,0.0373030007,-0.0229192991,0.195311993
702,0.0373030007,-0.0229192991,0.203125
703,0.0373030007,-0.0229192991,0.210936993
704,0.0373030007,-0.0229192991,0.21875
705,0.0373030007,-0.0229192991,0.226563007
706,0.0373030007,-0.0229192991,0.234375
707,0.0373030007,-0.0229192991,0.242186993
708,0.0373030007,-0.0229192991,0.25
709,0.0373030007,-0.0229192991,0.257811993
710,0.0373030007,-0.0229192991,0.265625
711,0.0373030007,-0.0229192991,0.273436993
712,0.0373030007,-0.0229192991,0.28125
713,0.0373030007,-0.0229192991,0.289061993
714,0.0373030007,-0.0229192991,0.296875
715,0.0373030007,-0.0229192991,0.304686993
716,0.0373030007,-0.0229192991,0.3125
717,0.0373030007,-0.0229192991,0.320311993
718,0.0373030007,-0.0229192991,0.328125
719,0.0373030007,-0.0229192991,0.335936993
720,0.0373030007,-0.0229192991,0.34375
721,0.0373030007,-0.0229192991,0.351561993
722,0.0373030007,-0.0229192991,0.359375
723,0.0373030007,-0.0229192991,0.367188007
724,0.0373030007,-0.0229192991,0.375
725,0.0373030007,-0.0229192991,0.382811993
726,0.0373351984,-0.0229173005,-0.390372992
727,0.0373351984,-0.0229173005,0.390372992
728,0.037542101,-0.0227828007,-0.396602005
729,0.037542101,-0.0227828007,0.396602005
730,0.0403843001,0.00881578959,-0.382813007
731,0.0403843001,0.00881578959,-0.375
732,0.0403843001,0.00881578959,-0.367188007
733,0.0403843001,0.00881578959,-0.359375
734,0.0403843001,0.00881578959,-0.351561993
735,0.0403843001,0.00881578959,-0.34375
736,0.0403843001,0.00881578959,-0.335938007
737,0.0403843001,0.00881578959,-0.328125
738,0.0403843001,0.00881578959,-0.320311993
739,0.0403843001,0.00881578959,-0.3125
740,0.0403843001,0.00881578959,-0.304688007
741,0.0403843001,0.00881578959,-0.296875
742,0.0403843001,0.00881578959,-0.289063007
743,0.0403843001,0.00881578959,-0.28125
744,0.0403843001,0.00881578959,-0.273438007
745,0.0403843001,0.00881578959,-0.265625
746,0.0403843001,0.00881578959,-0.257813007
747,0.0403843001,0.00881578959,-0.25
748,0.0403843001,0.00881578959,-0.242188007
749,0.0403843001,0.00881578959,-0.234375
750,0.0403843001,0.00881578959,-0.226563007
751,0.0403843001,0.00881578959,-0.21875
752,0.0403843001,0.00881578959,-0.210938007
753,0.0403843001,0.00881578959,-0.203125
754,0.0403843001,0.00881578959,-0.195311993
755,0.0403843001,0.00881578959,-0.1875
756,0.0403843001,0.00881578959,-0.179688007
757,0.0403843001,0.00881578959,-0.171875
758,0.0403843001,0.00881578959,-0.164063007
759,0.0403843001,0.00881578959,-0.15625
760,0.0403843001,0.00881578959,-0.148436993
761,0.0403843001,0.00881578959,-0.140625
762,0.0403843001,0.00881578959,-0.132813007
763,0.0403843001,0.00881578959,-0.125
764,0.0403843001,0.00881578959,-0.117187001
765,0.0403843001,0.00881578959,-0.109375
766,0.0403843001,0.00881578959,-0.101562999
767,0.0403843001,0.00881578959,-0.09375
768,0.0403843001,0.00881578959,-0.0859375
769,0.0403843001,0.00881578959,-0.078125
770,0.0403843001,0.00881578959,-0.0703125
771,0.0403843001,0.00881578959,-0.0625
772,0.0403843001,0.00881578959,-0.0546875
773,0.0403843001,0.00881578959,-0.046875
774,0.0403843001,0.00881578959,-0.0390625
775,0.0403843001,0.00881578959,-0.03125
776,0.0403843001,0.00881578959,-0.0234375
777,0.0403843001,0.00881578959,-0.015625
778,0.0403843001,0.00881578959,-0.0078125
779,0.0403843001,0.00881578959,0
780,0.0403843001,0.00881578959,0.0078125
781,0.0403843001,0.00881578959,0.015625
782,0.0403843001,0.00881578959,0.0234375
783,0.0403843001,0.00881578959,0.03125
784,0.0403843001,0.00881578959,0.0390625
785,0.0403843001,0.00881578959,0.046875
786,0.0403843001,0.00881578959,0.0546875
787,0.0403843001,0.00881578959,0.0625
788,0.0403843001,0.00881578959,0.0703125
789,0.0403843001,0.00881578959,0.078125
790,0.0403843001,0.00881578959,0.0859375
791,0.0403843001,0.00881578959,0.09375
792,0.0403843001,0.00881578959,0.101562001
793,0.0403843001,0.00881578959,0.109375
794,0.0403843001,0.00881578959,0.117187001
795,0.0403843001,0.00881578959,0.125
796,0.0403843001,0.00881578959,0.132811993
797,0.0403843001,0.00881578959,0.140625
798,0.0403843001,0.00881578959,0.148436993
799,0.0403843001,0.00881578959,0.15625
800,0.0403843001,0.00881578959,0.164063007
801,0.0403843001,0.00881578959,0.171875
802,0.0403843001,0.00881578959,0.179686993
803,0.0403843001,0.00881578959,0.1875
804,0.0403843001,0.00881578959,0.195313007
805,0.0403843001,0.00881578959,0.203125
806,0.0403843001,0.00881578959,0.210936993
807,0.0403843001,0.00881578959,0.21875
808,0.0403843001,0.00881578959,0.226561993
809,0.0403843001,0.00881578959,0.234375
810,0.0403843001,0.00881578959,0.242188007
811,0.0403843001,0.00881578959,0.25
812,0.0403843001,0.00881578959,0.257813007
813,0.0403843001,0.00881578959,0.265625
814,0.0403843001,0.00881578959,0.273438007
815,0.0403843001,0.00881578959,0.28125
816,0.0403843001,0.00881578959,0.289063007
817,0.0403843001,0.00881578959,0.296875
818,0.0403843001,0.00881578959,0.304688007
819,0.0403843001,0.00881578959,0.3125
820,0.0403843001,0.00881578959,0.320311993
821,0.0403843001,0.00881578959,0.328125
822,0.0403843001,0.00881578959,0.335938007
823,0.0403843001,0.00881578959,0.34375
824,0.0403843001,0.00881578959,0.351563007
825,0.0403843001,0.00881578959,0.359375
826,0.0403843001,0.00881578959,0.367186993
827,0.0403843001,0.00881578959,0.375
828,0.0403843001,0.00881578959,0.382813007
829,0.0404600017,0.00884046964,-0.390363008
830,0.0404600017,0.00884046964,0.390363008
831,0.0408960991,0.00881990977,-0.396117002
832,0.0408960991,0.00881990977,0.396117002
833,0.0485934988,-0.00555247022,-0.39873001
834,0.0486344993,-0.00566458982,0.39873001
835,0.0495222993,-0.0218624007,-0.382811993
836,0.0495222993,-0.0218624007,-0.375
837,0.0495222993,-0.0218624007,-0.367188007
838,0.0495222993,-0.0218624007,-0.359375
839,0.0495222993,-0.0218624007,-0.351561993
840,0.0495222993,-0.0218624007,-0.34375
841,0.0495222993,-0.0218624007,-0.335938007
842,0.0495222993,-0.0218624007,-0.328125
843,0.0495222993,-0.0218624007,-0.320311993
844,0.0495222993,-0.0218624007,-0.3125
845,0.0495222993,-0.0218624007,-0.304688007
846,0.0495222993,-0.0218624007,-0.296875
847,0.0495222993,-0.0218624007,-0.289063007
848,0.0495222993,-0.0218624007,-0.28125
849,0.0495222993,-0.0218624007,-0.273438007
850,0.0495222993,-0.0218624007,-0.265625
851,0.0495222993,-0.0218624007,-0.257811993
852,0.0495222993,-0.0218624007,-0.25
853,0.0495222993,-0.0218624007,-0.242188007
854,0.0495222993,-0.0218624007,-0.234375
855,0.0495222993,-0.0218624007,-0.226561993
856,0.0495222993,-0.0218624007,-0.21875
857,0.0495222993,-0.0218624007,-0.210938007
858,0.0495222993,-0.0218624007,-0.203125
859,0.0495222993,-0.0218624007,-0.195311993
860,0.0495222993,-0.0218624007,-0.1875
861,0.0495222993,-0.0218624007,-0.179686993
862,0.0495222993,-0.0218624007,-0.171875
863,0.0495222993,-0.0218624007,-0.164061993
864,0.0495222993,-0.0218624007,-0.15625
865,0.0495222993,-0.0218624007,-0.148438007
866,0.0495222993,-0.0218624007,-0.140625
867,0.0495222993,-0.0218624007,-0.132813007
868,0.0495222993,-0.0218624007,-0.125
869,0.0495222993,-0.0218624007,-0.117187001
870,0.0495222993,-0.0218624007,-0.109375
871,0.0495222993,-0.0218624007,-0.101562999
872,0.0495222993,-0.0218624007,-0.09375
873,0.0495222993,-0.0218624007,-0.0859375
874,0.0495222993,-0.0218624007,-0.078125
875,0.0495222993,-0.0218624007,-0.0703125
876,0.0495222993,-0.0218624007,-0.0625
877,0.0495222993,-0.0218624007,-0.0546875
878,0.0495222993,-0.0218624007,-0.046875
879,0.0495222993,-0.0218624007,-0.0390625
880,0.0495222993,-0.0218624007,-0.03125
881,0.0495222993,-0.0218624007,-0.0234375
882,0.0495222993,-0.0218624007,-0.015625
883,0.0495222993,-0.0218624007,-0.0078125
884,0.0495222993,-0.0218624007,0
885,0.0495222993,-0.0218624007,0.0078125
886,0.0495222993,-0.0218624007,0.015625
887,0.0495222993,-0.0218624007,0.0234375
888,0.0495222993,-0.0218624007,0.03125
889,0.0495222993,-0.0218624007,0.0390625
890,0.0495222993,-0.0218624007,0.046875
891,0.0495222993,-0.0218624007,0.0546875
892,0.0495222993,-0.0218624007,0.0625
893,0.0495222993,-0.0218624007,0.0703125
894,0.0495222993,-0.0218624007,0.078125
895,0.0495222993,-0.0218624007,0.0859375
896,0.0495222993,-0.0218624007,0.09375
897,0.0495222993,-0.0218624007,0.101562999
898,0.0495222993,-0.0218624007,0.109375
899,0.0495222993,-0.0218624007,0.117187001
900,0.0495222993,-0.0218624007,0.125
901,0.0495222993,-0.0218624007,0.132811993
902,0.0495222993,-0.0218624007,0.140625
903,0.0495222993,-0.0218624007,0.148438007
904,0.0495222993,-0.0218624007,0.15625
905,0.0495222993,-0.0218624007,0.164063007
906,0.0495222993,-0.0218624007,0.171875
907,0.0495222993,-0.0218624007,0.179688007
908,0.0495222993,-0.0218624007,0.1875
909,0.0495222993,-0.0218624007,0.195311993
910,0.0495222993,-0.0218624007,0.203125
911,0.0495222993,-0.0218624007,0.210936993
912,0.0495222993,-0.0218624007,0.21875
913,0.0495222993,-0.0218624007,0.226561993
914,0.0495222993,-0.0218624007,0.234375
915,0.0495222993,-0.0218624007,0.242188007
916,0.0495222993,-0.0218624007,0.25
917,0.0495222993,-0.0218624007,0.257811993
918,0.0495222993,-0.0218624007,0.265625
919,0.0495222993,-0.0218624007,0.273438007
920,0.0495222993,-0.0218624007,0.28125
921,0.0495222993,-0.0218624007,0.289063007
922,0.0495222993,-0.0218624007,0.296875
923,0.0495222993,-0.0218624007,0.304688007
924,0.0495222993,-0.0218624007,0.3125
925,0.0495222993,-0.0218624007,0.320313007
926,0.0495222993,-0.0218624007,0.328125
927,0.0495222993,-0.0218624007,0.335938007
928,0.0495222993,-0.0218624007,0.34375
929,0.0495222993,-0.0218624007,0.351561993
930,0.0495222993,-0.0218624007,0.359375
931,0.0495222993,-0.0218624007,0.367188007
932,0.0495222993,-0.0218624007,0.375
933,0.0495222993,-0.0218624007,0.382811993
934,0.0495804995,-0.0218557995,-0.390372992
935,0.0495804995,-0.0218557995,0.390372992
936,0.0497413985,0.0115719,-0.396434993
937,0.0497413985,0.0115719,0.396434993
938,0.0499673001,-0.0218122005,-0.396625996
939,0.0499673001,-0.0218122005,0.396625996
940,0.0506457984,0.0119917998,-0.390347004
941,0.0506457984,0.0119917998,0.390347004
942,0.0507141985,0.0120118,-0.382811993
943,0.0507141985,0.0120118,-0.375
944,0.0507141985,0.0120118,-0.367188007
945,0.0507141985,0.0120118,-0.359375
946,0.0507141985,0.0120118,-0.351561993
947,0.0507141985,0.0120118,-0.34375
948,0.0507141985,0.0120118,-0.335938007
949,0.0507141985,0.0120118,-0.328125
950,0.0507141985,0.0120118,-0.320311993
951,0.0507141985,0.0120118,-0.3125
952,0.0507141985,0.0120118,-0.304688007
953,0.0507141985,0.0120118,-0.296875
954,0.0507141985,0.0120118,-0.289061993
955,0.0507141985,0.0120118,-0.28125
956,0.0507141985,0.0120118,-0.273438007
957,0.0507141985,0.0120118,-0.265625
958,0.0507141985,0.0120118,-0.257811993
959,0.0507141985,0.0120118,-0.25
960,0.0507141985,0.0120118,-0.242188007
961,0.0507141985,0.0120118,-0.234375
962,0.0507141985,0.0120118,-0.226561993
963,0.0507141985,0.0120118,-0.21875
964,0.0507141985,0.0120118,-0.210938007
965,0.0507141985,0.0120118,-0.203125
966,0.0507141985,0.0120118,-0.195311993
967,0.0507141985,0.0120118,-0.1875
968,0.0507141985,0.0120118,-0.179688007
969,0.0507141985,0.0120118,-0.171875
970,0.0507141985,0.0120118,-0.164063007
971,0.0507141985,0.0120118,-0.15625
972,0.0507141985,0.0120118,-0.148438007
973,0.0507141985,0.0120118,-0.140625
974,0.0507141985,0.0120118,-0.132813007
975,0.0507141985,0.0120118,-0.125
976,0.0507141985,0.0120118,-0.117187999
977,0.0507141985,0.0120118,-0.109375
978,0.0507141985,0.0120118,-0.101562999
979,0.0507141985,0.0120118,-0.09375
980,0.0507141985,0.0120118,-0.0859375
981,0.0507141985,0.0120118,-0.078125
982,0.0507141985,0.0120118,-0.0703125
983,0.0507141985,0.0120118,-0.0625
984,0.0507141985,0.0120118,-0.0546875
985,0.0507141985,0.0120118,-0.046875
986,0.0507141985,0.0120118,-0.0390625
987,0.0507141985,0.0120118,-0.03125
988,0.0507141985,0.0120118,-0.0234375
989,0.0507141985,0.0120118,-0.015625
990,0.0507141985,0.0120118,-0.0078125
991,0.0507141985,0.0120118,0
992,0.0507141985,0.0120118,0.0078125
993,0.0507141985,0.0120118,0.015625
994,0.0507141985,0.0120118,0.0234375
995,0.0507141985,0.0120118,0.03125
996,0.0507141985,0.0120118,0.0390625
997,0.0507141985,0.0120118,0.046875
998,0.0507141985,0.0120118,0.0546875
999,0.0507141985,0.0120118,0.0625
1000,0.0507141985,0.0120118,0.0703125
1001,0.0507141985,0.0120118,0.078125
1002,0.0507141985,0.0120118,0.0859375
1003,0.0507141985,0.0120118,0.09375
1004,0.0507141985,0.0120118,0.101562999
1005,0.0507141985,0.0120118,0.109375
1006,0.0507141985,0.0120118,0.117187999
1007,0.0507141985,0.0120118,0.125
1008,0.0507141985,0.0120118,0.132811993
1009,0.0507141985,0.0120118,0.140625
1010,0.0507141985,0.0120118,0.148436993
1011,0.0507141985,0.0120118,0.15625
1012,0.0507141985,0.0120118,0.164063007
1013,0.0507141985,0.0120118,0.171875
1014,0.0507141985,0.0120118,0.179686993
1015,0.0507141985,0.0120118,0.1875
1016,0.0507141985,0.0120118,0.195313007
1017,0.0507141985,0.0120118,0.203125
1018,0.0507141985,0.0120118,0.210936993
1019,0.0507141985,0.0120118,0.21875
1020,0.0507141985,0.0120118,0.226561993
1021,0.0507141985,0.0120118,0.234375
1022,0.0507141985,0.0120118,0.242188007
1023,0.0507141985,0.0120118,0.25
1024,0.0507141985,0.0120118,0.257811993
1025,0.0507141985,0.0120118,0.265625
1026,0.0507141985,0.0120118,0.273436993
1027,0.0507141985,0.0120118,0.28125
1028,0.0507141985,0.0120118,0.289061993
1029,0.0507141985,0.0120118,0.296875
1030,0.0507141985,0.0120118,0.304686993
1031,0.0507141985,0.0120118,0.3125
1032,0.0507141985,0.0120118,0.320313007
1033,0.0507141985,0.0120118,0.328125
1034,0.0507141985,0.0120118,0.335938007
1035,0.0507141985,0.0120118,0.34375
1036,0.0507141985,0.0120118,0.351563007
1037,0.0507141985,0.0120118,0.359375
1038,0.0507141985,0.0120118,0.367186993
1039,0.0507141985,0.0120118,0.375
1040,0.0507141985,0.0120118,0.382813007
1041,0.0510922,-0.00501804007,-0.398644
1042,0.0511065014,-0.00514242007,0.398644
1043,0.0611352995,0.0147310998,-0.39645201
1044,0.0611352995,0.0147310998,0.39645201
1045,0.0613465011,-0.0203380007,-0.382811993
1046,0.0613465011,-0.0203380007,-0.375
1047,0.0613465011,-0.0203380007,-0.367186993
1048,0.0613465011,-0.0203380007,-0.359375
1049,0.0613465011,-0.0203380007,-0.351563007
1050,0.0613465011,-0.0203380007,-0.34375
1051,0.0613465011,-0.0203380007,-0.335938007
1052,0.0613465011,-0.0203380007,-0.328125
1053,0.0613465011,-0.0203380007,-0.320311993
1054,0.0613465011,-0.0203380007,-0.3125
1055,0.0613465011,-0.0203380007,-0.304686993
1056,0.0613465011,-0.0203380007,-0.296875
1057,0.0613465011,-0.0203380007,-0.289063007
1058,0.0613465011,-0.0203380007,-0.28125
1059,0.0613465011,-0.0203380007,-0.273436993
1060,0.0613465011,-0.0203380007,-0.265625
1061,0.0613465011,-0.0203380007,-0.257813007
1062,0.0613465011,-0.0203380007,-0.25
1063,0.0613465011,-0.0203380007,-0.242188007
1064,0.0613465011,-0.0203380007,-0.234375
1065,0.0613465011,-0.0203380007,-0.226561993
1066,0.0613465011,-0.0203380007,-0.21875
1067,0.0613465011,-0.0203380007,-0.210936993
1068,0.0613465011,-0.0203380007,-0.203125
1069,0.0613465011,-0.0203380007,-0.195313007
1070,0.0613465011,-0.0203380007,-0.1875
1071,0.0613465011,-0.0203380007,-0.179686993
1072,0.0613465011,-0.0203380007,-0.171875
1073,0.0613465011,-0.0203380007,-0.164061993
1074,0.0613465011,-0.0203380007,-0.15625
1075,0.0613465011,-0.0203380007,-0.148436993
1076,0.0613465011,-0.0203380007,-0.140625
1077,0.0613465011,-0.0203380007,-0.132813007
1078,0.0613465011,-0.0203380007,-0.125
1079,0.0613465011,-0.0203380007,-0.117187999
1080,0.0613465011,-0.0203380007,-0.109375
1081,0.0613465011,-0.0203380007,-0.101562999
1082,0.0613465011,-0.0203380007,-0.09375
1083,0.0613465011,-0.0203380007,-0.0859375
1084,0.0613465011,-0.0203380007,-0.078125
1085,0.0613465011,-0.0203380007,-0.0703125
1086,0.0613465011,-0.0203380007,-0.0625
1087,0.0613465011,-0.0203380007,-0.0546875
1088,0.0613465011,-0.0203380007,-0.046875
1089,0.0613465011,-0.0203380007,-0.0390625
1090,0.0613465011,-0.0203380007,-0.03125
1091,0.0613465011,-0.0203380007,-0.0234375
1092,0.0613465011,-0.0203380007,-0.015625
1093,0.0613465011,-0.0203380007,-0.0078125
1094,0.0613465011,-0.0203380007,-0
1095,0.0613465011,-0.0203380007,0.0078125
1096,0.0613465011,-0.0203380007,0.015625
1097,0.0613465011,-0.0203380007,0.0234375
1098,0.0613465011,-0.0203380007,0.03125
1099,0.0613465011,-0.0203380007,0.0390625
1100,0.0613465011,-0.0203380007,0.046875
1101,0.0613465011,-0.0203380007,0.0546875
1102,0.0613465011,-0.0203380007,0.0625
1103,0.0613465011,-0.0203380007,0.0703125
1104,0.0613465011,-0.0203380007,0.078125
1105,0.0613465011,-0.0203380007,0.0859375
1106,0.0613465011,-0.0203380007,0.09375
1107,0.0613465011,-0.0203380007,0.101562001
1108,0.0613465011,-0.0203380007,0.109375
1109,0.0613465011,-0.0203380007,0.117187001
1110,0.0613465011,-0.0203380007,0.125
1111,0.0613465011,-0.0203380007,0.132811993
1112,0.0613465011,-0.0203380007,0.140625
1113,0.0613465011,-0.0203380007,0.148436993
1114,0.0613465011,-0.0203380007,0.15625
1115,0.0613465011,-0.0203380007,0.164061993
1116,0.0613465011,-0.0203380007,0.171875
1117,0.0613465011,-0.0203380007,0.179688007
1118,0.0613465011,-0.0203380007,0.1875
1119,0.0613465011,-0.0203380007,0.195311993
1120,0.0613465011,-0.0203380007,0.203125
1121,0.0613465011,-0.0203380007,0.210938007
1122,0.0613465011,-0.0203380007,0.21875
1123,0.0613465011,-0.0203380007,0.226561993
1124,0.0613465011,-0.0203380007,0.234375
1125,0.0613465011,-0.0203380007,0.242186993
1126,0.0613465011,-0.0203380007,0.25
1127,0.0613465011,-0.0203380007,0.257813007
1128,0.0613465011,-0.0203380007,0.265625
1129,0.0613465011,-0.0203380007,0.273438007
1130,0.0613465011,-0.0203380007,0.28125
1131,0.0613465011,-0.0203380007,0.289061993
1132,0.0613465011,-0.0203380007,0.296875
1133,0.0613465011,-0.0203380007,0.304688007
1134,0.0613465011,-0.0203380007,0.3125
1135,0.0613465011,-0.0203380007,0.320313007
1136,0.0613465011,-0.0203380007,0.328125
1137,0.0613465011,-0.0203380007,0.335938007
1138,0.0613465011,-0.0203380007,0.34375
1139,0.0613465011,-0.0203380007,0.351561993
1140,0.0613465011,-0.0203380007,0.359375
1141,0.0613465011,-0.0203380007,0.367186993
1142,0.0613465011,-0.0203380007,0.375
1143,0.0613465011,-0.0203380007,0.382811993
1144,0.0613587014,-0.0203363001,-0.390347004
1145,0.0613587014,-0.0203363001,0.390347004
1146,0.0616577007,0.0150287002,-0.351561993
1147,0.0616577007,0.0150287002,-0.34375
1148,0.0616577007,0.0150287002,-0.335938007
1149,0.0616577007,0.0150287002,-0.328125
1150,0.0616577007,0.0150287002,-0.320311993
1151,0.0616577007,0.0150287002,-0.3125
1152,0.0616577007,0.0150287002,-0.304688007
1153,0.0616577007,0.0150287002,-0.296875
1154,0.0616577007,0.0150287002,-0.289063007
1155,0.0616577007,0.0150287002,-0.28125
1156,0.0616577007,0.0150287002,-0.273438007
1157,0.0616577007,0.0150287002,-0.265625
1158,0.0616577007,0.0150287002,-0.257811993
1159,0.0616577007,0.0150287002,-0.25
1160,0.0616577007,0.0150287002,-0.242188007
1161,0.0616577007,0.0150287002,-0.234375
1162,0.0616577007,0.0150287002,-0.226561993
1163,0.0616577007,0.0150287002,-0.21875
1164,0.0616577007,0.0150287002,-0.210938007
1165,0.0616577007,0.0150287002,-0.203125
1166,0.0616577007,0.0150287002,-0.195311993
1167,0.0616577007,0.0150287002,-0.1875
1168,0.0616577007,0.0150287002,-0.179688007
1169,0.0616577007,0.0150287002,-0.171875
1170,0.0616577007,0.0150287002,-0.164061993
1171,0.0616577007,0.0150287002,-0.15625
1172,0.0616577007,0.0150287002,-0.148438007
1173,0.0616577007,0.0150287002,-0.140625
1174,0.0616577007,0.0150287002,-0.132813007
1175,0.0616577007,0.0150287002,-0.125
1176,0.0616577007,0.0150287002,-0.117187001
1177,0.0616577007,0.0150287002,-0.109375
1178,0.0616577007,0.0150287002,-0.101562001
1179,0.0616577007,0.0150287002,-0.09375
1180,0.0616577007,0.0150287002,-0.0859375
1181,0.0616577007,0.0150287002,-0.078125
1182,0.0616577007,0.0150287002,-0.0703125
1183,0.0616577007,0.0150287002,-0.0625
1184,0.0616577007,0.0150287002,-0.0546875
1185,0.0616577007,0.0150287002,-0.046875
1186,0.0616577007,0.0150287002,-0.0390625
1187,0.0616577007,0.0150287002,-0.03125
1188,0.0616577007,0.0150287002,-0.0234375
1189,0.0616577007,0.0150287002,-0.015625
1190,0.0616577007,0.0150287002,-0.0078125
1191,0.0616577007,0.0150287002,0
1192,0.0616577007,0.0150287002,0.0078125
1193,0.0616577007,0.0150287002,0.015625
1194,0.0616577007,0.0150287002,0.0234375
1195,0.0616577007,0.0150287002,0.03125
1196,0.0616577007,0.0150287002,0.0390625
1197,0.0616577007,0.0150287002,0.046875
1198,0.0616577007,0.0150287002,0.0546875
1199,0.0616577007,0.0150287002,0.0625
1200,0.0616577007,0.0150287002,0.0703125
1201,0.0616577007,0.0150287002,0.078125
1202,0.0616577007,0.0150287002,0.0859375
1203,0.0616577007,0.0150287002,0.09375
1204,0.0616577007,0.0150287002,0.101562001
1205,0.0616577007,0.0150287002,0.109375
1206,0.0616577007,0.0150287002,0.117187001
1207,0.0616577007,0.0150287002,0.125
1208,0.0616577007,0.0150287002,0.132811993
1209,0.0616577007,0.0150287002,0.140625
1210,0.0616577007,0.0150287002,0.148436993
1211,0.0616577007,0.0150287002,0.15625
1212,0.0616577007,0.0150287002,0.164061993
1213,0.0616577007,0.0150287002,0.171875
1214,0.0616577007,0.0150287002,0.179686993
1215,0.0616577007,0.0150287002,0.1875
1216,0.0616577007,0.0150287002,0.195313007
1217,0.0616577007,0.0150287002,0.203125
1218,0.0616577007,0.0150287002,0.210936993
1219,0.0616577007,0.0150287002,0.21875
1220,0.0616577007,0.0150287002,0.226561993
1221,0.0616577007,0.0150287002,0.234375
1222,0.0616577007,0.0150287002,0.242188007
1223,0.0616577007,0.0150287002,0.25
1224,0.0616577007,0.0150287002,0.257811993
1225,0.0616577007,0.0150287002,0.265625
1226,0.0616577007,0.0150287002,0.273436993
1227,0.0616577007,0.0150287002,0.28125
1228,0.0616577007,0.0150287002,0.289063007
1229,0.0616577007,0.0150287002,0.296875
1230,0.0616577007,0.0150287002,0.304686993
1231,0.0616577007,0.0150287002,0.3125
1232,0.0616577007,0.0150287002,0.320311993
1233,0.0616577007,0.0150287002,0.328125
1234,0.0616577007,0.0150287002,0.335938007
1235,0.0616577007,0.0150287002,0.34375
1236,0.0616577007,0.0150287002,0.351561993
1237,0.0617811009,0.0146235004,-0.390361995
1238,0.0617811009,0.0146235004,0.390361995
1239,0.061846301,0.0142975999,-0.382802993
1240,0.061846301,0.0142975999,0.382802993
1241,0.0618804991,-0.0202585999,-0.396530002
1242,0.0618804991,-0.0202585999,0.396530002
1243,0.0619318001,0.0139661003,-0.375005007
1244,0.0619318001,0.0139661003,0.375005007
1245,0.0620173998,0.0136345997,-0.367208004
1246,0.0620173998,0.0136345997,0.367208004
1247,0.0620350018,0.0132895997,-0.359409988
1248,0.0620350018,0.0132895997,0.359409988
1249,0.0630026981,-0.00247060996,-0.398743004
1250,0.063029401,-0.00262387004,0.398743004
1251,0.0635648966,-0.0199333001,-0.398303986
1252,0.0635648966,-0.0199333001,0.398303986
1253,0.0711781979,-0.0187777001,-0.396117002
1254,0.0711781979,-0.0187777001,0.396117002
1255,0.0717320964,-0.0186823998,-0.390363008
1256,0.0717320964,-0.0186823998,0.390363008
1257,0.0718616024,-0.0186599009,-0.382813007
1258,0.0718616024,-0.0186599009,-0.375
1259,0.0718616024,-0.0186599009,-0.367188007
1260,0.0718616024,-0.0186599009,-0.359375
1261,0.0718616024,-0.0186599009,-0.351561993
1262,0.0718616024,-0.0186599009,-0.34375
1263,0.0718616024,-0.0186599009,-0.335938007
1264,0.0718616024,-0.0186599009,-0.328125
1265,0.0718616024,-0.0186599009,-0.320311993
1266,0.0718616024,-0.0186599009,-0.3125
1267,0.0718616024,-0.0186599009,-0.304688007
1268,0.0718616024,-0.0186599009,-0.296875
1269,0.0718616024,-0.0186599009,-0.289063007
1270,0.0718616024,-0.0186599009,-0.28125
1271,0.0718616024,-0.0186599009,-0.273438007
1272,0.0718616024,-0.0186599009,-0.265625
1273,0.0718616024,-0.0186599009,-0.257811993
1274,0.0718616024,-0.0186599009,-0.25
1275,0.0718616024,-0.0186599009,-0.242188007
1276,0.0718616024,-0.0186599009,-0.234375
1277,0.0718616024,-0.0186599009,-0.226563007
1278,0.0718616024,-0.0186599009,-0.21875
1279,0.0718616024,-0.0186599009,-0.210938007
1280,0.0718616024,-0.0186599009,-0.203125
1281,0.0718616024,-0.0186599009,-0.195311993
1282,0.0718616024,-0.0186599009,-0.1875
1283,0.0718616024,-0.0186599009,-0.179688007
1284,0.0718616024,-0.0186599009,-0.171875
1285,0.0718616024,-0.0186599009,-0.164063007
1286,0.0718616024,-0.0186599009,-0.15625
1287,0.0718616024,-0.0186599009,-0.148436993
1288,0.0718616024,-0.0186599009,-0.140625
1289,0.0718616024,-0.0186599009,-0.132813007
1290,0.0718616024,-0.0186599009,-0.125
1291,0.0718616024,-0.0186599009,-0.117187999
1292,0.0718616024,-0.0186599009,-0.109375
1293,0.0718616024,-0.0186599009,-0.101562999
1294,0.0718616024,-0.0186599009,-0.09375
1295,0.0718616024,-0.0186599009,-0.0859375
1296,0.0718616024,-0.0186599009,-0.078125
1297,0.0718616024,-0.0186599009,-0.0703125
1298,0.0718616024,-0.0186599009,-0.0625
1299,0.0718616024,-0.0186599009,-0.0546875
1300,0.0718616024,-0.0186599009,-0.046875
1301,0.0718616024,-0.0186599009,-0.0390625
1302,0.0718616024,-0.0186599009,-0.03125
1303,0.0718616024,-0.0186599009,-0.0234375
1304,0.0718616024,-0.0186599009,-0.015625
1305,0.0718616024,-0.0186599009,-0.0078125
1306,0.0718616024,-0.0186599009,0
1307,0.0718616024,-0.0186599009,0.0078125
1308,0.0718616024,-0.0186599009,0.015625
1309,0.0718616024,-0.0186599009,0.0234375
1310,0.0718616024,-0.0186599009,0.03125
1311,0.0718616024,-0.0186599009,0.0390625
1312,0.0718616024,-0.0186599009,0.046875
1313,0.0718616024,-0.0186599009,0.0546875
1314,0.0718616024,-0.0186599009,0.0625
1315,0.0718616024,-0.0186599009,0.0703125
1316,0.0718616024,-0.0186599009,0.078125
1317,0.0718616024,-0.0186599009,0.0859375
1318,0.0718616024,-0.0186599009,0.09375
1319,0.0718616024,-0.0186599009,0.101562999
1320,0.0718616024,-0.0186599009,0.109375
1321,0.0718616024,-0.0186599009,0.117187001
1322,0.0718616024,-0.0186599009,0.125
1323,0.0718616024,-0.0186599009,0.132813007
1324,0.0718616024,-0.0186599009,0.140625
1325,0.0718616024,-0.0186599009,0.148436993
1326,0.0718616024,-0.0186599009,0.15625
1327,0.0718616024,-0.0186599009,0.164061993
1328,0.0718616024,-0.0186599009,0.171875
1329,0.0718616024,-0.0186599009,0.179688007
1330,0.0718616024,-0.0186599009,0.1875
1331,0.0718616024,-0.0186599009,0.195311993
1332,0.0718616024,-0.0186599009,0.203125
1333,0.0718616024,-0.0186599009,0.210938007
1334,0.0718616024,-0.0186599009,0.21875
1335,0.0718616024,-0.0186599009,0.226563007
1336,0.0718616024,-0.0186599009,0.234375
1337,0.0718616024,-0.0186599009,0.242188007
1338,0.0718616024,-0.0186599009,0.25
1339,0.0718616024,-0.0186599009,0.257813007
1340,0.0718616024,-0.0186599009,0.265625
1341,0.0718616024,-0.0186599009,0.273438007
1342,0.0718616024,-0.0186599009,0.28125
1343,0.0718616024,-0.0186599009,0.289061993
1344,0.0718616024,-0.0186599009,0.296875
1345,0.0718616024,-0.0186599009,0.304686993
1346,0.0718616024,-0.0186599009,0.3125
1347,0.0718616024,-0.0186599009,0.320313007
1348,0.0718616024,-0.0186599009,0.328125
1349,0.0718616024,-0.0186599009,0.335936993
1350,0.0718616024,-0.0186599009,0.34375
1351,0.0718616024,-0.0186599009,0.351563007
1352,0.0718616024,-0.0186599009,0.359375
1353,0.0718616024,-0.0186599009,0.367188007
1354,0.0718616024,-0.0186599009,0.375
1355,0.0718616024,-0.0186599009,0.382811993
1356,0.0736393034,0.0178360995,-0.396703988
1357,0.0736393034,0.0178360995,0.396703988
1358,0.0749804974,9.1139198e-05,-0.398678988
1359,0.0750193,-9.1188602e-05,0.398678988
1360,0.0760295019,-0.0177775007,-0.396712989
1361,0.0760295019,-0.0177775007,0.396712989
1362,0.0782648027,0.0190520994,-0.382813007
1363,0.0782648027,0.0190520994,-0.375
1364,0.0782648027,0.0190520994,-0.367188007
1365,0.0782648027,0.0190520994,-0.359375
1366,0.0782648027,0.0190520994,-0.351561993
1367,0.0782648027,0.0190520994,-0.34375
1368,0.0782648027,0.0190520994,-0.335938007
1369,0.0782648027,0.0190520994,-0.328125
1370,0.0782648027,0.0190520994,-0.320311993
1371,0.0782648027,0.0190520994,-0.3125
1372,0.0782648027,0.0190520994,-0.304688007
1373,0.0782648027,0.0190520994,-0.296875
1374,0.0782648027,0.0190520994,-0.289061993
1375,0.0782648027,0.0190520994,-0.28125
1376,0.0782648027,0.0190520994,-0.273436993
1377,0.0782648027,0.0190520994,-0.265625
1378,0.0782648027,0.0190520994,-0.257813007
1379,0.0782648027,0.0190520994,-0.25
1380,0.0782648027,0.0190520994,-0.242186993
1381,0.0782648027,0.0190520994,-0.234375
1382,0.0782648027,0.0190520994,-0.226563007
1383,0.0782648027,0.0190520994,-0.21875
1384,0.0782648027,0.0190520994,-0.210936993
1385,0.0782648027,0.0190520994,-0.203125
1386,0.0782648027,0.0190520994,-0.195311993
1387,0.0782648027,0.0190520994,-0.1875
1388,0.0782648027,0.0190520994,-0.179688007
1389,0.0782648027,0.0190520994,-0.171875
1390,0.0782648027,0.0190520994,-0.164061993
1391,0.0782648027,0.0190520994,-0.15625
1392,0.0782648027,0.0190520994,-0.148436993
1393,0.0782648027,0.0190520994,-0.140625
1394,0.0782648027,0.0190520994,-0.132811993
1395,0.0782648027,0.0190520994,-0.125
1396,0.0782648027,0.0190520994,-0.117187001
1397,0.0782648027,0.0190520994,-0.109375
1398,0.0782648027,0.0190520994,-0.101562999
1399,0.0782648027,0.0190520994,-0.09375
1400,0.0782648027,0.0190520994,-0.0859375
1401,0.0782648027,0.0190520994,-0.078125
1402,0.0782648027,0.0190520994,-0.0703125
1403,0.0782648027,0.0190520994,-0.0625
1404,0.0782648027,0.0190520994,-0.0546875
1405,0.0782648027,0.0190520994,-0.046875
1406,0.0782648027,0.0190520994,-0.0390625
1407,0.0782648027,0.0190520994,-0.03125
1408,0.0782648027,0.0190520994,-0.0234375
1409,0.0782648027,0.0190520994,-0.015625
1410,0.0782648027,0.0190520994,-0.0078125
1411,0.0782648027,0.0190520994,0
1412,0.0782648027,0.0190520994,0.0078125
1413,0.0782648027,0.0190520994,0.015625
1414,0.0782648027,0.0190520994,0.0234375
1415,0.0782648027,0.0190520994,0.03125
1416,0.0782648027,0.0190520994,0.0390625
1417,0.0782648027,0.0190520994,0.046875
1418,0.0782648027,0.0190520994,0.0546875
1419,0.0782648027,0.0190520994,0.0625
1420,0.0782648027,0.0190520994,0.0703125
1421,0.0782648027,0.0190520994,0.078125
1422,0.0782648027,0.0190520994,0.0859375
1423,0.0782648027,0.0190520994,0.09375
1424,0.0782648027,0.0190520994,0.101562999
1425,0.0782648027,0.0190520994,0.109375
1426,0.0782648027,0.0190520994,0.117187001
1427,0.0782648027,0.0190520994,0.125
1428,0.0782648027,0.0190520994,0.132813007
1429,0.0782648027,0.0190520994,0.140625
1430,0.0782648027,0.0190520994,0.148436993
1431,0.0782648027,0.0190520994,0.15625
1432,0.0782648027,0.0190520994,0.164061993
1433,0.0782648027,0.0190520994,0.171875
1434,0.0782648027,0.0190520994,0.179688007
1435,0.0782648027,0.0190520994,0.1875
1436,0.0782648027,0.0190520994,0.195313007
1437,0.0782648027,0.0190520994,0.203125
1438,0.0782648027,0.0190520994,0.210936993
1439,0.0782648027,0.0190520994,0.21875
1440,0.0782648027,0.0190520994,0.226561993
1441,0.0782648027,0.0190520994,0.234375
1442,0.0782648027,0.0190520994,0.242188007
1443,0.0782648027,0.0190520994,0.25
1444,0.0782648027,0.0190520994,0.257813007
1445,0.0782648027,0.0190520994,0.265625
1446,0.0782648027,0.0190520994,0.273436993
1447,0.0782648027,0.0190520994,0.28125
1448,0.0782648027,0.0190520994,0.289063007
1449,0.0782648027,0.0190520994,0.296875
1450,0.0782648027,0.0190520994,0.304688007
1451,0.0782648027,0.0190520994,0.3125
1452,0.0782648027,0.0190520994,0.320311993
1453,0.0782648027,0.0190520994,0.328125
1454,0.0782648027,0.0190520994,0.335936993
1455,0.0782648027,0.0190520994,0.34375
1456,0.0782648027,0.0190520994,0.351563007
1457,0.0782648027,0.0190520994,0.359375
1458,0.0782648027,0.0190520994,0.367188007
1459,0.0782648027,0.0190520994,0.375
1460,0.0782648027,0.0190520994,0.382811993
1461,0.0783749968,0.0190772004,-0.390363008
1462,0.0783749968,0.0190772004,0.390363008
1463,0.0788701996,0.0191885997,-0.396117002
1464,0.0788701996,0.0191885997,0.396117002
1465,0.0857153982,0.0205485001,-0.398030996
1466,0.0857153982,0.0205485001,0.398030996
1467,0.0866542011,0.00257673999,-0.398494989
1468,0.0867044032,0.00236695004,0.398494989
1469,0.0877961963,-0.0127274003,-0.335999995
1470,0.0877961963,-0.0127274003,0.335999995
1471,0.0878724977,-0.0130695999,-0.343796998
1472,0.0878724977,-0.0130695999,0.343796998
1473,0.0879487023,-0.0134116998,-0.351592988
1474,0.0879487023,-0.0134116998,0.351592988
1475,0.0879784971,-0.0144796995,-0.375025004
1476,0.0879784971,-0.0144796995,0.375025004
1477,0.087980397,-0.0141220996,-0.367226005
1478,0.087980397,-0.0141220996,0.367226005
1479,0.0880142972,-0.0137569997,-0.359407991
1480,0.0880142972,-0.0137569997,0.359407991
1481,0.0880305991,0.0211736001,-0.396467
1482,0.0880305991,0.0211736001,0.396467
1483,0.0881571025,-0.0147976,-0.382753015
1484,0.0881571025,-0.0147976,0.382753015
1485,0.0882067978,-0.0151273999,-0.390181988
1486,0.0882067978,-0.0151273999,0.390181988
1487,0.0883819014,-0.0153628997,-0.396234989
1488,0.0883819014,-0.0153628997,0.396234989
1489,0.0883930996,-0.0155400001,-0.328125
1490,0.0883930996,-0.0155400001,-0.320311993
1491,0.0883930996,-0.0155400001,-0.3125
1492,0.0883930996,-0.0155400001,-0.304688007
1493,0.0883930996,-0.0155400001,-0.296875
1494,0.0883930996,-0.0155400001,-0.289063007
1495,0.0883930996,-0.0155400001,-0.28125
1496,0.0883930996,-0.0155400001,-0.273438007
1497,0.0883930996,-0.0155400001,-0.265625
1498,0.0883930996,-0.0155400001,-0.257811993
1499,0.0883930996,-0.0155400001,-0.25
1500,0.0883930996,-0.0155400001,-0.242188007
1501,0.0883930996,-0.0155400001,-0.234375
1502,0.0883930996,-0.0155400001,-0.226563007
1503,0.0883930996,-0.0155400001,-0.21875
1504,0.0883930996,-0.0155400001,-0.210938007
1505,0.0883930996,-0.0155400001,-0.203125
1506,0.0883930996,-0.0155400001,-0.195313007
1507,0.0883930996,-0.0155400001,-0.1875
1508,0.0883930996,-0.0155400001,-0.179686993
1509,0.0883930996,-0.0155400001,-0.171875
1510,0.0883930996,-0.0155400001,-0.164061993
1511,0.0883930996,-0.0155400001,-0.15625
1512,0.0883930996,-0.0155400001,-0.148438007
1513,0.0883930996,-0.0155400001,-0.140625
1514,0.0883930996,-0.0155400001,-0.132811993
1515,0.0883930996,-0.0155400001,-0.125
1516,0.0883930996,-0.0155400001,-0.117187999
1517,0.0883930996,-0.0155400001,-0.109375
1518,0.0883930996,-0.0155400001,-0.101562001
1519,0.0883930996,-0.0155400001,-0.09375
1520,0.0883930996,-0.0155400001,-0.0859375
1521,0.0883930996,-0.0155400001,-0.078125
1522,0.0883930996,-0.0155400001,-0.0703125
1523,0.0883930996,-0.0155400001,-0.0625
1524,0.0883930996,-0.0155400001,-0.0546875
1525,0.0883930996,-0.0155400001,-0.046875
1526,0.0883930996,-0.0155400001,-0.0390625
1527,0.0883930996,-0.0155400001,-0.03125
1528,0.0883930996,-0.0155400001,-0.0234375
1529,0.0883930996,-0.0155400001,-0.015625
1530,0.0883930996,-0.0155400001,-0.0078125
1531,0.0883930996,-0.0155400001,0
1532,0.0883930996,-0.0155400001,0.0078125
1533,0.0883930996,-0.0155400001,0.015625
1534,0.0883930996,-0.0155400001,0.0234375
1535,0.0883930996,-0.0155400001,0.03125
1536,0.0883930996,-0.0155400001,0.0390625
1537,0.0883930996,-0.0155400001,0.046875
1538,0.0883930996,-0.0155400001,0.0546875
1539,0.0883930996,-0.0155400001,0.0625
1540,0.0883930996,-0.0155400001,0.0703125
1541,0.0883930996,-0.0155400001,0.078125
1542,0.0883930996,-0.0155400001,0.0859375
1543,0.0883930996,-0.0155400001,0.09375
1544,0.0883930996,-0.0155400001,0.101562001
1545,0.0883930996,-0.0155400001,0.109375
1546,0.0883930996,-0.0155400001,0.117187001
1547,0.0883930996,-0.0155400001,0.125
1548,0.0883930996,-0.0155400001,0.132813007
1549,0.0883930996,-0.0155400001,0.140625
1550,0.0883930996,-0.0155400001,0.148438007
1551,0.0883930996,-0.0155400001,0.15625
1552,0.0883930996,-0.0155400001,0.164061993
1553,0.0883930996,-0.0155400001,0.171875
1554,0.0883930996,-0.0155400001,0.179686993
1555,0.0883930996,-0.0155400001,0.1875
1556,0.0883930996,-0.0155400001,0.195313007
1557,0.0883930996,-0.0155400001,0.203125
1558,0.0883930996,-0.0155400001,0.210936993
1559,0.0883930996,-0.0155400001,0.21875
1560,0.0883930996,-0.0155400001,0.226561993
1561,0.0883930996,-0.0155400001,0.234375
1562,0.0883930996,-0.0155400001,0.242186993
1563,0.0883930996,-0.0155400001,0.25
1564,0.0883930996,-0.0155400001,0.257811993
1565,0.0883930996,-0.0155400001,0.265625
1566,0.0883930996,-0.0155400001,0.273436993
1567,0.0883930996,-0.0155400001,0.28125
1568,0.0883930996,-0.0155400001,0.289063007
1569,0.0883930996,-0.0155400001,0.296875
1570,0.0883930996,-0.0155400001,0.304688007
1571,0.0883930996,-0.0155400001,0.3125
1572,0.0883930996,-0.0155400001,0.320313007
1573,0.0883930996,-0.0155400001,0.328125
1574,0.0887444019,0.0213222001,-0.390347004
1575,0.0887444019,0.0213222001,0.390347004
1576,0.0887819007,0.0213294998,-0.382811993
1577,0.0887819007,0.0213294998,-0.375
1578,0.0887819007,0.0213294998,-0.367188007
1579,0.0887819007,0.0213294998,-0.359375
1580,0.0887819007,0.0213294998,-0.351561993
1581,0.0887819007,0.0213294998,-0.34375
1582,0.0887819007,0.0213294998,-0.335938007
1583,0.0887819007,0.0213294998,-0.328125
1584,0.0887819007,0.0213294998,-0.320311993
1585,0.0887819007,0.0213294998,-0.3125
1586,0.0887819007,0.0213294998,-0.304688007
1587,0.0887819007,0.0213294998,-0.296875
1588,0.0887819007,0.0213294998,-0.289063007
1589,0.0887819007,0.0213294998,-0.28125
1590,0.0887819007,0.0213294998,-0.273438007
1591,0.0887819007,0.0213294998,-0.265625
1592,0.0887819007,0.0213294998,-0.257811993
1593,0.0887819007,0.0213294998,-0.25
1594,0.0887819007,0.0213294998,-0.242188007
1595,0.0887819007,0.0213294998,-0.234375
1596,0.0887819007,0.0213294998,-0.226561993
1597,0.0887819007,0.0213294998,-0.21875
1598,0.0887819007,0.0213294998,-0.210938007
1599,0.0887819007,0.0213294998,-0.203125
1600,0.0887819007,0.0213294998,-0.195311993
1601,0.0887819007,0.0213294998,-0.1875
1602,0.0887819007,0.0213294998,-0.179686993
1603,0.0887819007,0.0213294998,-0.171875
1604,0.0887819007,0.0213294998,-0.164061993
1605,0.0887819007,0.0213294998,-0.15625
1606,0.0887819007,0.0213294998,-0.148436993
1607,0.0887819007,0.0213294998,-0.140625
1608,0.0887819007,0.0213294998,-0.132813007
1609,0.0887819007,0.0213294998,-0.125
1610,0.0887819007,0.0213294998,-0.117187999
1611,0.0887819007,0.0213294998,-0.109375
1612,0.0887819007,0.0213294998,-0.101562999
1613,0.0887819007,0.0213294998,-0.09375
1614,0.0887819007,0.0213294998,-0.0859375
1615,0.0887819007,0.0213294998,-0.078125
1616,0.0887819007,0.0213294998,-0.0703125
1617,0.0887819007,0.0213294998,-0.0625
1618,0.0887819007,0.0213294998,-0.0546875
1619,0.0887819007,0.0213294998,-0.046875
1620,0.0887819007,0.0213294998,-0.0390625
1621,0.0887819007,0.0213294998,-0.03125
1622,0.0887819007,0.0213294998,-0.0234375
1623,0.0887819007,0.0213294998,-0.015625
1624,0.0887819007,0.0213294998,-0.0078125
1625,0.0887819007,0.0213294998,0
1626,0.0887819007,0.0213294998,0.0078125
1627,0.0887819007,0.0213294998,0.015625
1628,0.0887819007,0.0213294998,0.0234375
1629,0.0887819007,0.0213294998,0.03125
1630,0.0887819007,0.0213294998,0.0390625
1631,0.0887819007,0.0213294998,0.046875
1632,0.0887819007,0.0213294998,0.0546875
1633,0.0887819007,0.0213294998,0.0625
1634,0.0887819007,0.0213294998,0.0703125
1635,0.0887819007,0.0213294998,0.078125
1636,0.0887819007,0.0213294998,0.0859375
1637,0.0887819007,0.0213294998,0.09375
1638,0.0887819007,0.0213294998,0.101562001
1639,0.0887819007,0.0213294998,0.109375
1640,0.0887819007,0.0213294998,0.117187001
1641,0.0887819007,0.0213294998,0.125
1642,0.0887819007,0.0213294998,0.132811993
1643,0.0887819007,0.0213294998,0.140625
1644,0.0887819007,0.0213294998,0.148436993
1645,0.0887819007,0.0213294998,0.15625
1646,0.0887819007,0.0213294998,0.164061993
1647,0.0887819007,0.0213294998,0.171875
1648,0.0887819007,0.0213294998,0.179688007
1649,0.0887819007,0.0213294998,0.1875
1650,0.0887819007,0.0213294998,0.195313007
1651,0.0887819007,0.0213294998,0.203125
1652,0.0887819007,0.0213294998,0.210936993
1653,0.0887819007,0.0213294998,0.21875
1654,0.0887819007,0.0213294998,0.226563007
1655,0.0887819007,0.0213294998,0.234375
1656,0.0887819007,0.0213294998,0.242188007
1657,0.0887819007,0.0213294998,0.25
1658,0.0887819007,0.0213294998,0.257813007
1659,0.0887819007,0.0213294998,0.265625
1660,0.0887819007,0.0213294998,0.273438007
1661,0.0887819007,0.0213294998,0.28125
1662,0.0887819007,0.0213294998,0.289063007
1663,0.0887819007,0.0213294998,0.296875
1664,0.0887819007,0.0213294998,0.304688007
1665,0.0887819007,0.0213294998,0.3125
1666,0.0887819007,0.0213294998,0.320313007
1667,0.0887819007,0.0213294998,0.328125
1668,0.0887819007,0.0213294998,0.335936993
1669,0.0887819007,0.0213294998,0.34375
1670,0.0887819007,0.0213294998,0.351561993
1671,0.0887819007,0.0213294998,0.359375
1672,0.0887819007,0.0213294998,0.367186993
1673,0.0887819007,0.0213294998,0.375
1674,0.0887819007,0.0213294998,0.382811993
1675,0.0964531004,0.00452694017,-0.396508992
1676,0.0965121016,0.00430059992,0.396508992
1677,0.0975008011,-0.0133560998,-0.395693988
1678,0.0975008011,-0.0133560998,0.395693988
1679,0.0991642997,-0.0132441996,-0.375
1680,0.0991642997,-0.0132441996,0.375
1681,0.0993411988,-0.0132045001,-0.367188007
1682,0.0993411988,-0.0132045001,0.367188007
1683,0.0993707031,-0.0132018998,-0.382580996
1684,0.0993707031,-0.0132018998,0.382580996
1685,0.0997435004,0.0233433004,-0.396367013
1686,0.0997435004,0.0233433004,0.396367013
1687,0.0997624993,-0.0131109003,-0.359376013
1688,0.0997624993,-0.0131109003,0.359376013
1689,0.0998853967,-0.0130836004,-0.351561993
1690,0.0998853967,-0.0130836004,-0.34375
1691,0.0998853967,-0.0130836004,-0.335938007
1692,0.0998853967,-0.0130836004,-0.328125
1693,0.0998853967,-0.0130836004,-0.320311993
1694,0.0998853967,-0.0130836004,-0.3125
1695,0.0998853967,-0.0130836004,-0.304688007
1696,0.0998853967,-0.0130836004,-0.296875
1697,0.0998853967,-0.0130836004,-0.289063007
1698,0.0998853967,-0.0130836004,-0.28125
1699,0.0998853967,-0.0130836004,-0.273438007
1700,0.0998853967,-0.0130836004,-0.265625
1701,0.0998853967,-0.0130836004,-0.257811993
1702,0.0998853967,-0.0130836004,-0.25
1703,0.0998853967,-0.0130836004,-0.242188007
1704,0.0998853967,-0.0130836004,-0.234375
1705,0.0998853967,-0.0130836004,-0.226561993
1706,0.0998853967,-0.0130836004,-0.21875
1707,0.0998853967,-0.0130836004,-0.210938007
1708,0.0998853967,-0.0130836004,-0.203125
1709,0.0998853967,-0.0130836004,-0.195313007
1710,0.0998853967,-0.0130836004,-0.1875
1711,0.0998853967,-0.0130836004,-0.179688007
1712,0.0998853967,-0.0130836004,-0.171875
1713,0.0998853967,-0.0130836004,-0.164061993
1714,0.0998853967,-0.0130836004,-0.15625
1715,0.0998853967,-0.0130836004,-0.148438007
1716,0.0998853967,-0.0130836004,-0.140625
1717,0.0998853967,-0.0130836004,-0.132813007
1718,0.0998853967,-0.0130836004,-0.125
1719,0.0998853967,-0.0130836004,-0.117187001
1720,0.0998853967,-0.0130836004,-0.109375
1721,0.0998853967,-0.0130836004,-0.101562001
1722,0.0998853967,-0.0130836004,-0.09375
1723,0.0998853967,-0.0130836004,-0.0859375
1724,0.0998853967,-0.0130836004,-0.078125
1725,0.0998853967,-0.0130836004,-0.0703125
1726,0.0998853967,-0.0130836004,-0.0625
1727,0.0998853967,-0.0130836004,-0.0546875
1728,0.0998853967,-0.0130836004,-0.046875
1729,0.0998853967,-0.0130836004,-0.0390625
1730,0.0998853967,-0.0130836004,-0.03125
1731,0.0998853967,-0.0130836004,-0.0234375
1732,0.0998853967,-0.0130836004,-0.015625
1733,0.0998853967,-0.0130836004,-0.0078125
1734,0.0998853967,-0.0130836004,0
1735,0.0998853967,-0.0130836004,0.0078125
1736,0.0998853967,-0.0130836004,0.015625
1737,0.0998853967,-0.0130836004,0.0234375
1738,0.0998853967,-0.0130836004,0.03125
1739,0.0998853967,-0.0130836004,0.0390625
1740,0.0998853967,-0.0130836004,0.046875
1741,0.0998853967,-0.0130836004,0.0546875
1742,0.0998853967,-0.0130836004,0.0625
1743,0.0998853967,-0.0130836004,0.0703125
1744,0.0998853967,-0.0130836004,0.078125
1745,0.0998853967,-0.0130836004,0.0859375
1746,0.0998853967,-0.0130836004,0.09375
1747,0.0998853967,-0.0130836004,0.101562001
1748,0.0998853967,-0.0130836004,0.109375
1749,0.0998853967,-0.0130836004,0.117187001
1750,0.0998853967,-0.0130836004,0.125
1751,0.0998853967,-0.0130836004,0.132813007
1752,0.0998853967,-0.0130836004,0.140625
1753,0.0998853967,-0.0130836004,0.148438007
1754,0.0998853967,-0.0130836004,0.15625
1755,0.0998853967,-0.0130836004,0.164061993
1756,0.0998853967,-0.0130836004,0.171875
1757,0.0998853967,-0.0130836004,0.179688007
1758,0.0998853967,-0.0130836004,0.1875
1759,0.0998853967,-0.0130836004,0.195311993
1760,0.0998853967,-0.0130836004,0.203125
1761,0.0998853967,-0.0130836004,0.210936993
1762,0.0998853967,-0.0130836004,0.21875
1763,0.0998853967,-0.0130836004,0.226561993
1764,0.0998853967,-0.0130836004,0.234375
1765,0.0998853967,-0.0130836004,0.242186993
1766,0.0998853967,-0.0130836004,0.25
1767,0.0998853967,-0.0130836004,0.257811993
1768,0.0998853967,-0.0130836004,0.265625
1769,0.0998853967,-0.0130836004,0.273438007
1770,0.0998853967,-0.0130836004,0.28125
1771,0.0998853967,-0.0130836004,0.289061993
1772,0.0998853967,-0.0130836004,0.296875
1773,0.0998853967,-0.0130836004,0.304688007
1774,0.0998853967,-0.0130836004,0.3125
1775,0.0998853967,-0.0130836004,0.320313007
1776,0.0998853967,-0.0130836004,0.328125
1777,0.0998853967,-0.0130836004,0.335936993
1778,0.0998853967,-0.0130836004,0.34375
1779,0.0998853967,-0.0130836004,0.351563007
1780,0.100088,0.00535228988,-0.390289009
1781,0.100152001,0.00511388993,0.390289009
1782,0.100372002,0.0236466993,-0.390372992
1783,0.100372002,0.0236466993,0.390372992
1784,0.100469999,0.0236616004,-0.375
1785,0.100469999,0.0236616004,-0.367188007
1786,0.100469999,0.0236616004,-0.359375
1787,0.100469999,0.0236616004,-0.351561993
1788,0.100469999,0.0236616004,-0.34375
1789,0.100469999,0.0236616004,-0.335938007
1790,0.100469999,0.0236616004,-0.328125
1791,0.100469999,0.0236616004,-0.320313007
1792,0.100469999,0.0236616004,-0.3125
1793,0.100469999,0.0236616004,-0.304688007
1794,0.100469999,0.0236616004,-0.296875
1795,0.100469999,0.0236616004,-0.289063007
1796,0.100469999,0.0236616004,-0.28125
1797,0.100469999,0.0236616004,-0.273438007
1798,0.100469999,0.0236616004,-0.265625
1799,0.100469999,0.0236616004,-0.257813007
1800,0.100469999,0.0236616004,-0.25
1801,0.100469999,0.0236616004,-0.242186993
1802,0.100469999,0.0236616004,-0.234375
1803,0.100469999,0.0236616004,-0.226563007
1804,0.100469999,0.0236616004,-0.21875
1805,0.100469999,0.0236616004,-0.210936993
1806,0.100469999,0.0236616004,-0.203125
1807,0.100469999,0.0236616004,-0.195313007
1808,0.100469999,0.0236616004,-0.1875
1809,0.100469999,0.0236616004,-0.179688007
1810,0.100469999,0.0236616004,-0.171875
1811,0.100469999,0.0236616004,-0.164061993
1812,0.100469999,0.0236616004,-0.15625
1813,0.100469999,0.0236616004,-0.148438007
1814,0.100469999,0.0236616004,-0.140625
1815,0.100469999,0.0236616004,-0.132813007
1816,0.100469999,0.0236616004,-0.125
1817,0.100469999,0.0236616004,-0.117187999
1818,0.100469999,0.0236616004,-0.109375
1819,0.100469999,0.0236616004,-0.101562999
1820,0.100469999,0.0236616004,-0.09375
1821,0.100469999,0.0236616004,-0.0859375
1822,0.100469999,0.0236616004,-0.078125
1823,0.100469999,0.0236616004,-0.0703125
1824,0.100469999,0.0236616004,-0.0625
1825,0.100469999,0.0236616004,-0.0546875
1826,0.100469999,0.0236616004,-0.046875
1827,0.100469999,0.0236616004,-0.0390625
1828,0.100469999,0.0236616004,-0.03125
1829,0.100469999,0.0236616004,-0.0234375
1830,0.100469999,0.0236616004,-0.015625
1831,0.100469999,0.0236616004,-0.0078125
1832,0.100469999,0.0236616004,-0
1833,0.100469999,0.0236616004,0.0078125
1834,0.100469999,0.0236616004,0.015625
1835,0.100469999,0.0236616004,0.0234375
1836,0.100469999,0.0236616004,0.03125
1837,0.100469999,0.0236616004,0.0390625
1838,0.100469999,0.0236616004,0.046875
1839,0.100469999,0.0236616004,0.0546875
1840,0.100469999,0.0236616004,0.0625
1841,0.100469999,0.0236616004,0.0703125
1842,0.100469999,0.0236616004,0.078125
1843,0.100469999,0.0236616004,0.0859375
1844,0.100469999,0.0236616004,0.09375
1845,0.100469999,0.0236616004,0.101562999
1846,0.100469999,0.0236616004,0.109375
1847,0.100469999,0.0236616004,0.117187999
1848,0.100469999,0.0236616004,0.125
1849,0.100469999,0.0236616004,0.132813007
1850,0.100469999,0.0236616004,0.140625
1851,0.100469999,0.0236616004,0.148438007
1852,0.100469999,0.0236616004,0.15625
1853,0.100469999,0.0236616004,0.164061993
1854,0.100469999,0.0236616004,0.171875
1855,0.100469999,0.0236616004,0.179688007
1856,0.100469999,0.0236616004,0.1875
1857,0.100469999,0.0236616004,0.195313007
1858,0.100469999,0.0236616004,0.203125
1859,0.100469999,0.0236616004,0.210938007
1860,0.100469999,0.0236616004,0.21875
1861,0.100469999,0.0236616004,0.226563007
1862,0.100469999,0.0236616004,0.234375
1863,0.100469999,0.0236616004,0.242188007
1864,0.100469999,0.0236616004,0.25
1865,0.100469999,0.0236616004,0.257813007
1866,0.100469999,0.0236616004,0.265625
1867,0.100469999,0.0236616004,0.273436993
1868,0.100469999,0.0236616004,0.28125
1869,0.100469999,0.0236616004,0.289063007
1870,0.100469999,0.0236616004,0.296875
1871,0.100469999,0.0236616004,0.304688007
1872,0.100469999,0.0236616004,0.3125
1873,0.100469999,0.0236616004,0.320311993
1874,0.100469999,0.0236616004,0.328125
1875,0.100469999,0.0236616004,0.335938007
1876,0.100469999,0.0236616004,0.34375
1877,0.100469999,0.0236616004,0.351561993
1878,0.100469999,0.0236616004,0.359375
1879,0.100469999,0.0236616004,0.367188007
1880,0.100469999,0.0236616004,0.375
1881,0.100469999,0.0236620009,-0.382811993
1882,0.100469999,0.0236620009,0.382811993
1883,0.100814,-0.0123528996,-0.388850987
1884,0.100814,-0.0123528996,0.388850987
1885,0.101168998,0.00567089021,-0.382789999
1886,0.101235002,0.00542595005,0.382789999
1887,0.101455003,0.00602609012,-0.396798015
1888,0.101490997,0.00578371994,0.396798015
1889,0.101710998,0.00580667006,-0.375497997
1890,0.101777002,0.00555943977,0.375497997
1891,0.106349997,-0.0107968999,-0.382445991
1892,0.106349997,-0.0107968999,0.382445991
1893,0.107125998,-0.0103049995,-0.375423998
1894,0.107125998,-0.0103049995,0.375423998
1895,0.110661,0.00772080012,-0.369305998
1896,0.110737003,0.00745191984,0.369305998
1897,0.111286998,-0.0104707005,-0.375
1898,0.111286998,-0.0104707005,0.375
1899,0.111309998,-0.0104496004,-0.367220998
1900,0.111309998,-0.0104496004,0.367220998
1901,0.111313999,-0.0105434004,-0.382333994
1902,0.111313999,-0.0105434004,0.382333994
1903,0.111447997,-0.0104158996,-0.359407991
1904,0.111447997,-0.0104158996,0.359407991
1905,0.11146,-0.0104130004,-0.351561993
1906,0.11146,-0.0104130004,-0.34375
1907,0.11146,-0.0104130004,-0.335938007
1908,0.11146,-0.0104130004,-0.328125
1909,0.11146,-0.0104130004,-0.320311993
1910,0.11146,-0.0104130004,-0.3125
1911,0.11146,-0.0104130004,-0.304688007
1912,0.11146,-0.0104130004,-0.296875
1913,0.11146,-0.0104130004,-0.289063007
1914,0.11146,-0.0104130004,-0.28125
1915,0.11146,-0.0104130004,-0.273438007
1916,0.11146,-0.0104130004,-0.265625
1917,0.11146,-0.0104130004,-0.257811993
1918,0.11146,-0.0104130004,-0.25
1919,0.11146,-0.0104130004,-0.242188007
1920,0.11146,-0.0104130004,-0.234375
1921,0.11146,-0.0104130004,-0.226561993
1922,0.11146,-0.0104130004,-0.21875
1923,0.11146,-0.0104130004,-0.210938007
1924,0.11146,-0.0104130004,-0.203125
1925,0.11146,-0.0104130004,-0.195311993
1926,0.11146,-0.0104130004,-0.1875
1927,0.11146,-0.0104130004,-0.179688007
1928,0.11146,-0.0104130004,-0.171875
1929,0.11146,-0.0104130004,-0.164061993
1930,0.11146,-0.0104130004,-0.15625
1931,0.11146,-0.0104130004,-0.148436993
1932,0.11146,-0.0104130004,-0.140625
1933,0.11146,-0.0104130004,-0.132813007
1934,0.11146,-0.0104130004,-0.125
1935,0.11146,-0.0104130004,-0.117187999
1936,0.11146,-0.0104130004,-0.109375
1937,0.11146,-0.0104130004,-0.101562999
1938,0.11146,-0.0104130004,-0.09375
1939,0.11146,-0.0104130004,-0.0859375
1940,0.11146,-0.0104130004,-0.078125
1941,0.11146,-0.0104130004,-0.0703125
1942,0.11146,-0.0104130004,-0.0625
1943,0.11146,-0.0104130004,-0.0546875
1944,0.11146,-0.0104130004,-0.046875
1945,0.11146,-0.0104130004,-0.0390625
1946,0.11146,-0.0104130004,-0.03125
1947,0.11146,-0.0104130004,-0.0234375
1948,0.11146,-0.0104130004,-0.015625
1949,0.11146,-0.0104130004,-0.0078125
1950,0.11146,-0.0104130004,0
1951,0.11146,-0.0104130004,0.0078125
1952,0.11146,-0.0104130004,0.015625
1953,0.11146,-0.0104130004,0.0234375
1954,0.11146,-0.0104130004,0.03125
1955,0.11146,-0.0104130004,0.0390625
1956,0.11146,-0.0104130004,0.046875
1957,0.11146,-0.0104130004,0.0546875
1958,0.11146,-0.0104130004,0.0625
1959,0.11146,-0.0104130004,0.0703125
1960,0.11146,-0.0104130004,0.078125
1961,0.11146,-0.0104130004,0.0859375
1962,0.11146,-0.0104130004,0.09375
1963,0.11146,-0.0104130004,0.101562001
1964,0.11146,-0.0104130004,0.109375
1965,0.11146,-0.0104130004,0.117187001
1966,0.11146,-0.0104130004,0.125
1967,0.11146,-0.0104130004,0.132811993
1968,0.11146,-0.0104130004,0.140625
1969,0.11146,-0.0104130004,0.148438007
1970,0.11146,-0.0104130004,0.15625
1971,0.11146,-0.0104130004,0.164061993
1972,0.11146,-0.0104130004,0.171875
1973,0.11146,-0.0104130004,0.179686993
1974,0.11146,-0.0104130004,0.1875
1975,0.11146,-0.0104130004,0.195313007
1976,0.11146,-0.0104130004,0.203125
1977,0.11146,-0.0104130004,0.210936993
1978,0.11146,-0.0104130004,0.21875
1979,0.11146,-0.0104130004,0.226561993
1980,0.11146,-0.0104130004,0.234375
1981,0.11146,-0.0104130004,0.242186993
1982,0.11146,-0.0104130004,0.25
1983,0.11146,-0.0104130004,0.257813007
1984,0.11146,-0.0104130004,0.265625
1985,0.11146,-0.0104130004,0.273436993
1986,0.11146,-0.0104130004,0.28125
1987,0.11146,-0.0104130004,0.289063007
1988,0.11146,-0.0104130004,0.296875
1989,0.11146,-0.0104130004,0.304688007
1990,0.11146,-0.0104130004,0.3125
1991,0.11146,-0.0104130004,0.320311993
1992,0.11146,-0.0104130004,0.328125
1993,0.11146,-0.0104130004,0.335936993
1994,0.11146,-0.0104130004,0.34375
1995,0.11146,-0.0104130004,0.351563007
1996,0.111922003,-0.0103925001,-0.386875987
1997,0.111922003,-0.0103925001,0.386875987
1998,0.111943997,0.0254030004,-0.396210015
1999,0.111943997,0.0254030004,0.396210015
2000,0.112521999,0.0254539009,-0.390377998
2001,0.112521999,0.0254539009,0.390377998
2002,0.112539001,0.0258825999,-0.375
2003,0.112539001,0.0258825999,-0.367188007
2004,0.112539001,0.0258825999,-0.359375
2005,0.112539001,0.0258825999,-0.351561993
2006,0.112539001,0.0258825999,-0.34375
2007,0.112539001,0.0258825999,-0.335936993
2008,0.112539001,0.0258825999,-0.328125
2009,0.112539001,0.0258825999,-0.320311993
2010,0.112539001,0.0258825999,-0.3125
2011,0.112539001,0.0258825999,-0.304688007
2012,0.112539001,0.0258825999,-0.296875
2013,0.112539001,0.0258825999,-0.289061993
2014,0.112539001,0.0258825999,-0.28125
2015,0.112539001,0.0258825999,-0.273438007
2016,0.112539001,0.0258825999,-0.265625
2017,0.112539001,0.0258825999,-0.257813007
2018,0.112539001,0.0258825999,-0.25
2019,0.112539001,0.0258825999,-0.242186993
2020,0.112539001,0.0258825999,-0.234375
2021,0.112539001,0.0258825999,-0.226563007
2022,0.112539001,0.0258825999,-0.21875
2023,0.112539001,0.0258825999,-0.210938007
2024,0.112539001,0.0258825999,-0.203125
2025,0.112539001,0.0258825999,-0.195313007
2026,0.112539001,0.0258825999,-0.1875
2027,0.112539001,0.0258825999,-0.179688007
2028,0.112539001,0.0258825999,-0.171875
2029,0.112539001,0.0258825999,-0.164063007
2030,0.112539001,0.0258825999,-0.15625
2031,0.112539001,0.0258825999,-0.148436993
2032,0.112539001,0.0258825999,-0.140625
2033,0.112539001,0.0258825999,-0.132811993
2034,0.112539001,0.0258825999,-0.125
2035,0.112539001,0.0258825999,-0.117187999
2036,0.112539001,0.0258825999,-0.109375
2037,0.112539001,0.0258825999,-0.101562999
2038,0.112539001,0.0258825999,-0.09375
2039,0.112539001,0.0258825999,-0.0859375
2040,0.112539001,0.0258825999,-0.078125
2041,0.112539001,0.0258825999,-0.0703125
2042,0.112539001,0.0258825999,-0.0625
2043,0.112539001,0.0258825999,-0.0546875
2044,0.112539001,0.0258825999,-0.046875
2045,0.112539001,0.0258825999,-0.0390625
2046,0.112539001,0.0258825999,-0.03125
2047,0.112539001,0.0258825999,-0.0234375
2048,0.112539001,0.0258825999,-0.015625
2049,0.112539001,0.0258825999,-0.0078125
2050,0.112539001,0.0258825999,-0
2051,0.112539001,0.0258825999,0.0078125
2052,0.112539001,0.0258825999,0.015625
2053,0.112539001,0.0258825999,0.0234375
2054,0.112539001,0.0258825999,0.03125
2055,0.112539001,0.0258825999,0.0390625
2056,0.112539001,0.0258825999,0.046875
2057,0.112539001,0.0258825999,0.0546875
2058,0.112539001,0.0258825999,0.0625
2059,0.112539001,0.0258825999,0.0703125
2060,0.112539001,0.0258825999,0.078125
2061,0.112539001,0.0258825999,0.0859375
2062,0.112539001,0.0258825999,0.09375
2063,0.112539001,0.0258825999,0.101562999
2064,0.112539001,0.0258825999,0.109375
2065,0.112539001,0.0258825999,0.117187999
2066,0.112539001,0.0258825999,0.125
2067,0.112539001,0.0258825999,0.132811993
2068,0.112539001,0.0258825999,0.140625
2069,0.112539001,0.0258825999,0.148436993
2070,0.112539001,0.0258825999,0.15625
2071,0.112539001,0.0258825999,0.164061993
2072,0.112539001,0.0258825999,0.171875
2073,0.112539001,0.0258825999,0.179686993
2074,0.112539001,0.0258825999,0.1875
2075,0.112539001,0.0258825999,0.195311993
2076,0.112539001,0.0258825999,0.203125
2077,0.112539001,0.0258825999,0.210936993
2078,0.112539001,0.0258825999,0.21875
2079,0.112539001,0.0258825999,0.226561993
2080,0.112539001,0.0258825999,0.234375
2081,0.112539001,0.0258825999,0.242186993
2082,0.112539001,0.0258825999,0.25
2083,0.112539001,0.0258825999,0.257813007
2084,0.112539001,0.0258825999,0.265625
2085,0.112539001,0.0258825999,0.273436993
2086,0.112539001,0.0258825999,0.28125
2087,0.112539001,0.0258825999,0.289061993
2088,0.112539001,0.0258825999,0.296875
2089,0.112539001,0.0258825999,0.304686993
2090,0.112539001,0.0258825999,0.3125
2091,0.112539001,0.0258825999,0.320313007
2092,0.112539001,0.0258825999,0.328125
2093,0.112539001,0.0258825999,0.335938007
2094,0.112539001,0.0258825999,0.34375
2095,0.112539001,0.0258825999,0.351561993
2096,0.112539001,0.0258825999,0.359375
2097,0.112539001,0.0258825999,0.367188007
2098,0.112539001,0.0258825999,0.375
2099,0.112539001,0.0258828998,-0.382811993
2100,0.112539001,0.0258828998,0.382813007
2101,0.112657003,-0.00929464027,-0.382389009
2102,0.112657003,-0.00929464027,0.382389009
2103,0.112884,0.00820490997,-0.375456989
2104,0.112938002,0.00792642962,0.375456989
2105,0.112938002,0.00827793963,-0.382813007
2106,0.112953998,-0.0089389598,-0.375598013
2107,0.112953998,-0.0089389598,0.375598013
2108,0.112989001,0.00800639018,0.382811993
2109,0.113027997,0.00856698956,-0.39044401
2110,0.113073997,0.00831966009,0.39044401
2111,0.113127999,-0.00868949015,-0.37095499
2112,0.113127999,-0.00868949015,0.37095499
2113,0.113459997,0.00988802034,-0.396411985
2114,0.113493003,0.00967507996,0.396411985
2115,0.118156001,-0.00749464007,-0.371508002
2116,0.118156001,-0.00749464007,0.371508002
2117,0.118556999,-0.00756321009,-0.375631988
2118,0.118556999,-0.00756321009,0.375631988
2119,0.118905,0.00946507044,-0.375555992
2120,0.118969999,0.0091756396,0.375555992
2121,0.119420998,0.00946694985,-0.382768005
2122,0.119483002,0.00919414032,0.382768005
2123,0.120201997,-0.00695199007,-0.370678991
2124,0.120201997,-0.00695199007,0.370678991
2125,0.120661996,0.00949428044,-0.390280992
2126,0.120711997,0.00927138981,0.390280992
2127,0.121739,-0.00671313982,-0.375321001
2128,0.121739,-0.00671313982,0.375321001
2129,0.121826001,-0.00835170969,-0.386871994
2130,0.121826001,-0.00835170969,0.386871994
2131,0.121973,-0.00783856027,-0.351561993
2132,0.121973,-0.00783856027,-0.34375
2133,0.121973,-0.00783856027,-0.335938007
2134,0.121973,-0.00783856027,-0.328125
2135,0.121973,-0.00783856027,-0.320311993
2136,0.121973,-0.00783856027,-0.3125
2137,0.121973,-0.00783856027,-0.304688007
2138,0.121973,-0.00783856027,-0.296875
2139,0.121973,-0.00783856027,-0.289061993
2140,0.121973,-0.00783856027,-0.28125
2141,0.121973,-0.00783856027,-0.273438007
2142,0.121973,-0.00783856027,-0.265625
2143,0.121973,-0.00783856027,-0.257811993
2144,0.121973,-0.00783856027,-0.25
2145,0.121973,-0.00783856027,-0.242188007
2146,0.121973,-0.00783856027,-0.234375
2147,0.121973,-0.00783856027,-0.226563007
2148,0.121973,-0.00783856027,-0.21875
2149,0.121973,-0.00783856027,-0.210938007
2150,0.121973,-0.00783856027,-0.203125
2151,0.121973,-0.00783856027,-0.195311993
2152,0.121973,-0.00783856027,-0.1875
2153,0.121973,-0.00783856027,-0.179688007
2154,0.121973,-0.00783856027,-0.171875
2155,0.121973,-0.00783856027,-0.164063007
2156,0.121973,-0.00783856027,-0.15625
2157,0.121973,-0.00783856027,-0.148436993
2158,0.121973,-0.00783856027,-0.140625
2159,0.121973,-0.00783856027,-0.132811993
2160,0.121973,-0.00783856027,-0.125
2161,0.121973,-0.00783856027,-0.117187001
2162,0.121973,-0.00783856027,-0.109375
2163,0.121973,-0.00783856027,-0.101562001
2164,0.121973,-0.00783856027,-0.09375
2165,0.121973,-0.00783856027,-0.0859375
2166,0.121973,-0.00783856027,-0.078125
2167,0.121973,-0.00783856027,-0.0703125
2168,0.121973,-0.00783856027,-0.0625
2169,0.121973,-0.00783856027,-0.0546875
2170,0.121973,-0.00783856027,-0.046875
2171,0.121973,-0.00783856027,-0.0390625
2172,0.121973,-0.00783856027,-0.03125
2173,0.121973,-0.00783856027,-0.0234375
2174,0.121973,-0.00783856027,-0.015625
2175,0.121973,-0.00783856027,-0.0078125
2176,0.121973,-0.00783856027,-1e-12
2177,0.121973,-0.00783856027,0.0078125
2178,0.121973,-0.00783856027,0.015625
2179,0.121973,-0.00783856027,0.0234375
2180,0.121973,-0.00783856027,0.03125
2181,0.121973,-0.00783856027,0.0390625
2182,0.121973,-0.00783856027,0.046875
2183,0.121973,-0.00783856027,0.0546875
2184,0.121973,-0.00783856027,0.0625
2185,0.121973,-0.00783856027,0.0703125
2186,0.121973,-0.00783856027,0.078125
2187,0.121973,-0.00783856027,0.0859375
2188,0.121973,-0.00783856027,0.09375
2189,0.121973,-0.00783856027,0.101562999
2190,0.121973,-0.00783856027,0.109375
2191,0.121973,-0.00783856027,0.117187999
2192,0.121973,-0.00783856027,0.125
2193,0.121973,-0.00783856027,0.132813007
2194,0.121973,-0.00783856027,0.140625
2195,0.121973,-0.00783856027,0.148438007
2196,0.121973,-0.00783856027,0.15625
2197,0.121973,-0.00783856027,0.164063007
2198,0.121973,-0.00783856027,0.171875
2199,0.121973,-0.00783856027,0.179688007
2200,0.121973,-0.00783856027,0.1875
2201,0.121973,-0.00783856027,0.195311993
2202,0.121973,-0.00783856027,0.203125
2203,0.121973,-0.00783856027,0.210938007
2204,0.121973,-0.00783856027,0.21875
2205,0.121973,-0.00783856027,0.226563007
2206,0.121973,-0.00783856027,0.234375
2207,0.121973,-0.00783856027,0.242188007
2208,0.121973,-0.00783856027,0.25
2209,0.121973,-0.00783856027,0.257813007
2210,0.121973,-0.00783856027,0.265625
2211,0.121973,-0.00783856027,0.273436993
2212,0.121973,-0.00783856027,0.28125
2213,0.121973,-0.00783856027,0.289063007
2214,0.121973,-0.00783856027,0.296875
2215,0.121973,-0.00783856027,0.304688007
2216,0.121973,-0.00783856027,0.3125
2217,0.121973,-0.00783856027,0.320313007
2218,0.121973,-0.00783856027,0.328125
2219,0.121973,-0.00783856027,0.335936993
2220,0.121973,-0.00783856027,0.34375
2221,0.121973,-0.00783856027,0.351563007
2222,0.122285001,-0.00776046002,-0.359411001
2223,0.122285001,-0.00776046002,0.359411001
2224,0.122612998,-0.00638255011,-0.382337987
2225,0.122612998,-0.00638255011,0.382337987
2226,0.123230003,-0.00752842985,-0.367222995
2227,0.123230003,-0.00752842985,0.367222995
2228,0.123301998,-0.00790094025,-0.382360995
2229,0.123301998,-0.00790094025,0.382360995
2230,0.123565003,-0.00751578016,-0.375
2231,0.123565003,-0.00751578016,0.375
2232,0.124173,0.0273678992,-0.396196991
2233,0.124173,0.0273678992,0.396196991
2234,0.124679998,0.0275129993,-0.390289009
2235,0.124679998,0.0275129993,0.390289009
2236,0.124692999,0.0279568005,-0.304688007
2237,0.124692999,0.0279568005,-0.296875
2238,0.124692999,0.0279568005,-0.289061993
2239,0.124692999,0.0279568005,-0.28125
2240,0.124692999,0.0279568005,-0.273438007
2241,0.124692999,0.0279568005,-0.265625
2242,0.124692999,0.0279568005,-0.257811993
2243,0.124692999,0.0279568005,-0.25
2244,0.124692999,0.0279568005,-0.242188007
2245,0.124692999,0.0279568005,-0.234375
2246,0.124692999,0.0279568005,-0.226561993
2247,0.124692999,0.0279568005,-0.21875
2248,0.124692999,0.0279568005,-0.210938007
2249,0.124692999,0.0279568005,-0.203125
2250,0.124692999,0.0279568005,-0.195313007
2251,0.124692999,0.0279568005,-0.1875
2252,0.124692999,0.0279568005,-0.179686993
2253,0.124692999,0.0279568005,-0.171875
2254,0.124692999,0.0279568005,-0.164063007
2255,0.124692999,0.0279568005,-0.15625
2256,0.124692999,0.0279568005,-0.148436993
2257,0.124692999,0.0279568005,-0.140625
2258,0.124692999,0.0279568005,-0.132811993
2259,0.124692999,0.0279568005,-0.125
2260,0.124692999,0.0279568005,-0.117187001
2261,0.124692999,0.0279568005,-0.109375
2262,0.124692999,0.0279568005,-0.101562001
2263,0.124692999,0.0279568005,-0.09375
2264,0.124692999,0.0279568005,-0.0859375
2265,0.124692999,0.0279568005,-0.078125
2266,0.124692999,0.0279568005,-0.0703125
2267,0.124692999,0.0279568005,-0.0625
2268,0.124692999,0.0279568005,-0.0546875
2269,0.124692999,0.0279568005,-0.046875
2270,0.124692999,0.0279568005,-0.0390625
2271,0.124692999,0.0279568005,-0.03125
2272,0.124692999,0.0279568005,-0.0234375
2273,0.124692999,0.0279568005,-0.015625
2274,0.124692999,0.0279568005,-0.0078125
2275,0.124692999,0.0279568005,-1e-12
2276,0.124692999,0.0279568005,0.0078125
2277,0.124692999,0.0279568005,0.015625
2278,0.124692999,0.0279568005,0.0234375
2279,0.124692999,0.0279568005,0.03125
2280,0.124692999,0.0279568005,0.0390625
2281,0.124692999,0.0279568005,0.046875
2282,0.124692999,0.0279568005,0.0546875
2283,0.124692999,0.0279568005,0.0625
2284,0.124692999,0.0279568005,0.0703125
2285,0.124692999,0.0279568005,0.078125
2286,0.124692999,0.0279568005,0.0859375
2287,0.124692999,0.0279568005,0.09375
2288,0.124692999,0.0279568005,0.101562999
2289,0.124692999,0.0279568005,0.109375
2290,0.124692999,0.0279568005,0.117187999
2291,0.124692999,0.0279568005,0.125
2292,0.124692999,0.0279568005,0.132813007
2293,0.124692999,0.0279568005,0.140625
2294,0.124692999,0.0279568005,0.148436993
2295,0.124692999,0.0279568005,0.15625
2296,0.124692999,0.0279568005,0.164061993
2297,0.124692999,0.0279568005,0.171875
2298,0.124692999,0.0279568005,0.179688007
2299,0.124692999,0.0279568005,0.1875
2300,0.124692999,0.0279568005,0.195311993
2301,0.124692999,0.0279568005,0.203125
2302,0.124692999,0.0279568005,0.210936993
2303,0.124692999,0.0279568005,0.21875
2304,0.124692999,0.0279568005,0.226563007
2305,0.124692999,0.0279568005,0.234375
2306,0.124692999,0.0279568005,0.242186993
2307,0.124692999,0.0279568005,0.25
2308,0.124692999,0.0279568005,0.257813007
2309,0.124692999,0.0279568005,0.265625
2310,0.124692999,0.0279568005,0.273436993
2311,0.124692999,0.0279568005,0.28125
2312,0.124692999,0.0279568005,0.289061993
2313,0.124692999,0.0279568005,0.296875
2314,0.124692999,0.0279568005,0.304686993
2315,0.124812998,0.0272339992,-0.382764012
2316,0.124812998,0.0272339992,0.382764012
2317,0.124866001,0.0269089006,-0.374965012
2318,0.124866001,0.0269089006,0.374965012
2319,0.124920003,0.0265825,-0.367166996
2320,0.124920003,0.0265825,0.367166996
2321,0.124973997,0.0262560993,-0.359367996
2322,0.124973997,0.0262560993,0.359367996
2323,0.125027999,0.0259297006,-0.35157001
2324,0.125027999,0.0259297006,0.35157001
2325,0.125082001,0.0256033,-0.343771011
2326,0.125082001,0.0256033,0.343771011
2327,0.125136003,0.0252768006,-0.335972995
2328,0.125136003,0.0252768006,0.335972995
2329,0.125173002,0.0112001998,-0.396643996
2330,0.125190005,0.0249504,-0.328173995
2331,0.125190005,0.0249504,0.328173995
2332,0.125219002,0.0109673999,0.396643996
2333,0.125244007,0.0246239994,-0.320376009
2334,0.125244007,0.0246239994,0.320376009
2335,0.125297993,0.0242976006,-0.312577009
2336,0.125297993,0.0242976006,0.312577009
2337,0.127040997,0.00919859018,-0.395956993
2338,0.127104998,0.00896677002,0.395956993
2339,0.127514005,-0.00448699994,-0.388779998
2340,0.127514005,-0.00448699994,0.388779998
2341,0.136342004,0.0292751007,-0.396322995
2342,0.136342004,0.0292751007,0.396322995
2343,0.136401996,0.0298222005,-0.234375
2344,0.136401996,0.0298222005,-0.226561993
2345,0.136401996,0.0298222005,-0.21875
2346,0.136401996,0.0298222005,-0.210936993
2347,0.136401996,0.0298222005,-0.203125
2348,0.136401996,0.0298222005,-0.195311993
2349,0.136401996,0.0298222005,-0.1875
2350,0.136401996,0.0298222005,-0.179688007
2351,0.136401996,0.0298222005,-0.171875
2352,0.136401996,0.0298222005,-0.164061993
2353,0.136401996,0.0298222005,-0.15625
2354,0.136401996,0.0298222005,-0.148436993
2355,0.136401996,0.0298222005,-0.140625
2356,0.136401996,0.0298222005,-0.132813007
2357,0.136401996,0.0298222005,-0.125
2358,0.136401996,0.0298222005,-0.117187999
2359,0.136401996,0.0298222005,-0.109375
2360,0.136401996,0.0298222005,-0.101562999
2361,0.136401996,0.0298222005,-0.09375
2362,0.136401996,0.0298222005,-0.0859375
2363,0.136401996,0.0298222005,-0.078125
2364,0.136401996,0.0298222005,-0.0703125
2365,0.136401996,0.0298222005,-0.0625
2366,0.136401996,0.0298222005,-0.0546875
2367,0.136401996,0.0298222005,-0.046875
2368,0.136401996,0.0298222005,-0.0390625
2369,0.136401996,0.0298222005,-0.03125
2370,0.136401996,0.0298222005,-0.0234375
2371,0.136401996,0.0298222005,-0.015625
2372,0.136401996,0.0298222005,-0.0078125
2373,0.136401996,0.0298222005,0
2374,0.136401996,0.0298222005,0.0078125
2375,0.136401996,0.0298222005,0.015625
2376,0.136401996,0.0298222005,0.0234375
2377,0.136401996,0.0298222005,0.03125
2378,0.136401996,0.0298222005,0.0390625
2379,0.136401996,0.0298222005,0.046875
2380,0.136401996,0.0298222005,0.0546875
2381,0.136401996,0.0298222005,0.0625
2382,0.136401996,0.0298222005,0.0703125
2383,0.136401996,0.0298222005,0.078125
2384,0.136401996,0.0298222005,0.0859375
2385,0.136401996,0.0298222005,0.09375
2386,0.136401996,0.0298222005,0.101562001
2387,0.136401996,0.0298222005,0.109375
2388,0.136401996,0.0298222005,0.117187999
2389,0.136401996,0.0298222005,0.125
2390,0.136401996,0.0298222005,0.132813007
2391,0.136401996,0.0298222005,0.140625
2392,0.136401996,0.0298222005,0.148438007
2393,0.136401996,0.0298222005,0.15625
2394,0.136401996,0.0298222005,0.164063007
2395,0.136401996,0.0298222005,0.171875
2396,0.136401996,0.0298222005,0.179686993
2397,0.136401996,0.0298222005,0.1875
2398,0.136401996,0.0298222005,0.195311993
2399,0.136401996,0.0298222005,0.203125
2400,0.136401996,0.0298222005,0.210936993
2401,0.136401996,0.0298222005,0.21875
2402,0.136401996,0.0298222005,0.226561993
2403,0.136401996,0.0298222005,0.234375
2404,0.13651,0.0291229002,-0.382708013
2405,0.13651,0.0291229002,0.382708013
2406,0.136540994,0.0294089001,-0.390271991
2407,0.136540994,0.0294089001,0.390271991
2408,0.136557996,0.0288111009,-0.374908
2409,0.136557996,0.0288111009,0.374908
2410,0.136607006,0.0284968,-0.367107987
2411,0.136607006,0.0284968,0.367107987
2412,0.136655003,0.0281825997,-0.359308988
2413,0.136655003,0.0281825997,0.359308988
2414,0.136703998,0.0278683007,-0.351509005
2415,0.136703998,0.0278683007,0.351509005
2416,0.136751994,0.0275539998,-0.343710005
2417,0.136751994,0.0275539998,0.343710005
2418,0.136800006,0.0272397008,-0.335909992
2419,0.136800006,0.0272397008,0.335909992
2420,0.136849001,0.0269255005,-0.328110993
2421,0.136849001,0.0269255005,0.328110993
2422,0.136896998,0.0266111996,-0.32031101
2423,0.136896998,0.0266111996,0.32031101
2424,0.136945993,0.0262969006,-0.31251201
2425,0.136945993,0.0262969006,0.31251201
2426,0.136994004,0.0259825997,-0.304711998
2427,0.136994004,0.0259825997,0.304711998
2428,0.137042999,0.0256683007,-0.296912998
2429,0.137042999,0.0256683007,0.296912998
2430,0.137090996,0.0253541004,-0.289112985
2431,0.137090996,0.0253541004,0.289112985
2432,0.137140006,0.0250397995,-0.281313986
2433,0.137140006,0.0250397995,0.281313986
2434,0.137188002,0.0247255005,-0.273514003
2435,0.137188002,0.0247255005,0.273514003
2436,0.137236997,0.0244111996,-0.265715003
2437,0.137236997,0.0244111996,0.265715003
2438,0.137284994,0.0240969993,-0.25791499
2439,0.137284994,0.0240969993,0.25791499
2440,0.137334004,0.0237827003,-0.250115007
2441,0.137334004,0.0237827003,0.250115007
2442,0.137382001,0.0234683994,-0.242315993
2443,0.137382001,0.0234683994,0.242315993
2444,0.137522995,0.0132592004,-0.398330986
2445,0.137577996,0.0130040003,0.398330986
2446,0.137585998,0.000330546987,-0.304769993
2447,0.137585998,0.000330546987,0.304769993
2448,0.137669995,1.5666999e-05,-0.312568992
2449,0.137669995,1.5666999e-05,0.312568992
2450,0.137753993,-0.000299212988,-0.320367992
2451,0.137753993,-0.000299212988,0.320367992
2452,0.137839004,-0.000614094024,-0.328166991
2453,0.137839004,-0.000614094024,0.328166991
2454,0.137923002,-0.000928974012,-0.335965991
2455,0.137923002,-0.000928974012,0.335965991
2456,0.138007998,-0.00124384998,-0.343764991
2457,0.138007998,-0.00124384998,0.343764991
2458,0.138091996,-0.00155873003,-0.351563007
2459,0.138091996,-0.00155873003,0.351563007
2460,0.138247997,-0.00185401004,-0.359351009
2461,0.138247997,-0.00185401004,0.359351009
2462,0.138524994,-0.00211787992,-0.367163986
2463,0.138524994,-0.00211787992,0.367163986
2464,0.138547003,-0.00283076009,-0.390159994
2465,0.138547003,-0.00283076009,0.390159994
2466,0.138615996,-0.00351435994,-0.296875
2467,0.138615996,-0.00351435994,-0.289061993
2468,0.138615996,-0.00351435994,-0.28125
2469,0.138615996,-0.00351435994,-0.273438007
2470,0.138615996,-0.00351435994,-0.265625
2471,0.138615996,-0.00351435994,-0.257811993
2472,0.138615996,-0.00351435994,-0.25
2473,0.138615996,-0.00351435994,-0.242188007
2474,0.138615996,-0.00351435994,-0.234375
2475,0.138615996,-0.00351435994,-0.226561993
2476,0.138615996,-0.00351435994,-0.21875
2477,0.138615996,-0.00351435994,-0.210936993
2478,0.138615996,-0.00351435994,-0.203125
2479,0.138615996,-0.00351435994,-0.195311993
2480,0.138615996,-0.00351435994,-0.1875
2481,0.138615996,-0.00351435994,-0.179688007
2482,0.138615996,-0.00351435994,-0.171875
2483,0.138615996,-0.00351435994,-0.164061993
2484,0.138615996,-0.00351435994,-0.15625
2485,0.138615996,-0.00351435994,-0.148438007
2486,0.138615996,-0.00351435994,-0.140625
2487,0.138615996,-0.00351435994,-0.132811993
2488,0.138615996,-0.00351435994,-0.125
2489,0.138615996,-0.00351435994,-0.117187999
2490,0.138615996,-0.00351435994,-0.109375
2491,0.138615996,-0.00351435994,-0.101562001
2492,0.138615996,-0.00351435994,-0.09375
2493,0.138615996,-0.00351435994,-0.0859375
2494,0.138615996,-0.00351435994,-0.078125
2495,0.138615996,-0.00351435994,-0.0703125
2496,0.138615996,-0.00351435994,-0.0625
2497,0.138615996,-0.00351435994,-0.0546875
2498,0.138615996,-0.00351435994,-0.046875
2499,0.138615996,-0.00351435994,-0.0390625
2500,0.138615996,-0.00351435994,-0.03125
2501,0.138615996,-0.00351435994,-0.0234375
2502,0.138615996,-0.00351435994,-0.015625
2503,0.138615996,-0.00351435994,-0.0078125
2504,0.138615996,-0.00351435994,-1e-12
2505,0.138615996,-0.00351435994,0.0078125
2506,0.138615996,-0.00351435994,0.015625
2507,0.138615996,-0.00351435994,0.0234375
2508,0.138615996,-0.00351435994,0.03125
2509,0.138615996,-0.00351435994,0.0390625
2510,0.138615996,-0.00351435994,0.046875
2511,0.138615996,-0.00351435994,0.0546875
2512,0.138615996,-0.00351435994,0.0625
2513,0.138615996,-0.00351435994,0.0703125
2514,0.138615996,-0.00351435994,0.078125
2515,0.138615996,-0.00351435994,0.0859375
2516,0.138615996,-0.00351435994,0.09375
2517,0.138615996,-0.00351435994,0.101562999
2518,0.138615996,-0.00351435994,0.109375
2519,0.138615996,-0.00351435994,0.117187999
2520,0.138615996,-0.00351435994,0.125
2521,0.138615996,-0.00351435994,0.132811993
2522,0.138615996,-0.00351435994,0.140625
2523,0.138615996,-0.00351435994,0.148436993
2524,0.138615996,-0.00351435994,0.15625
2525,0.138615996,-0.00351435994,0.164061993
2526,0.138615996,-0.00351435994,0.171875
2527,0.138615996,-0.00351435994,0.179686993
2528,0.138615996,-0.00351435994,0.1875
2529,0.138615996,-0.00351435994,0.195311993
2530,0.138615996,-0.00351435994,0.203125
2531,0.138615996,-0.00351435994,0.210938007
2532,0.138615996,-0.00351435994,0.21875
2533,0.138615996,-0.00351435994,0.226563007
2534,0.138615996,-0.00351435994,0.234375
2535,0.138615996,-0.00351435994,0.242188007
2536,0.138615996,-0.00351435994,0.25
2537,0.138615996,-0.00351435994,0.257813007
2538,0.138615996,-0.00351435994,0.265625
2539,0.138615996,-0.00351435994,0.273436993
2540,0.138615996,-0.00351435994,0.28125
2541,0.138615996,-0.00351435994,0.289061993
2542,0.138615996,-0.00351435994,0.296875
2543,0.138633996,-0.00273396005,-0.382752001
2544,0.138633996,-0.00273396005,0.382752001
2545,0.138706997,-0.0024061799,-0.374987006
2546,0.138706997,-0.0024061799,0.374987006
2547,0.139043003,-0.00159581006,-0.396279991
2548,0.139043003,-0.00159581006,0.396279991
2549,0.148980007,0.0315016992,-0.396696001
2550,0.148980007,0.0315016992,0.396696001
2551,0.149378002,0.0158344992,-0.398575991
2552,0.149460003,0.0154841999,0.398575991
2553,0.14982,-0.000454925001,-0.375
2554,0.14982,-0.000454925001,0.375
2555,0.14982,-0.000454702007,-0.367188007
2556,0.14982,-0.000454702007,-0.359375
2557,0.14982,-0.000454702007,-0.351561993
2558,0.14982,-0.000454702007,-0.34375
2559,0.14982,-0.000454702007,-0.335938007
2560,0.14982,-0.000454702007,-0.328125
2561,0.14982,-0.000454702007,-0.320311993
2562,0.14982,-0.000454702007,-0.3125
2563,0.14982,-0.000454702007,-0.304688007
2564,0.14982,-0.000454702007,-0.296875
2565,0.14982,-0.000454702007,-0.289063007
2566,0.14982,-0.000454702007,-0.28125
2567,0.14982,-0.000454702007,-0.273438007
2568,0.14982,-0.000454702007,-0.265625
2569,0.14982,-0.000454702007,-0.257811993
2570,0.14982,-0.000454702007,-0.25
2571,0.14982,-0.000454702007,-0.242188007
2572,0.14982,-0.000454702007,-0.234375
2573,0.14982,-0.000454702007,-0.226561993
2574,0.14982,-0.000454702007,-0.21875
2575,0.14982,-0.000454702007,-0.210936993
2576,0.14982,-0.000454702007,-0.203125
2577,0.14982,-0.000454702007,-0.195311993
2578,0.14982,-0.000454702007,-0.1875
2579,0.14982,-0.000454702007,-0.179688007
2580,0.14982,-0.000454702007,-0.171875
2581,0.14982,-0.000454702007,-0.164063007
2582,0.14982,-0.000454702007,-0.15625
2583,0.14982,-0.000454702007,-0.148438007
2584,0.14982,-0.000454702007,-0.140625
2585,0.14982,-0.000454702007,-0.132813007
2586,0.14982,-0.000454702007,-0.125
2587,0.14982,-0.000454702007,-0.117187999
2588,0.14982,-0.000454702007,-0.109375
2589,0.14982,-0.000454702007,-0.101562001
2590,0.14982,-0.000454702007,-0.09375
2591,0.14982,-0.000454702007,-0.0859375
2592,0.14982,-0.000454702007,-0.078125
2593,0.14982,-0.000454702007,-0.0703125
2594,0.14982,-0.000454702007,-0.0625
2595,0.14982,-0.000454702007,-0.0546875
2596,0.14982,-0.000454702007,-0.046875
2597,0.14982,-0.000454702007,-0.0390625
2598,0.14982,-0.000454702007,-0.03125
2599,0.14982,-0.000454702007,-0.0234375
2600,0.14982,-0.000454702007,-0.015625
2601,0.14982,-0.000454702007,-0.0078125
2602,0.14982,-0.000454702007,0
2603,0.14982,-0.000454702007,0.0078125
2604,0.14982,-0.000454702007,0.015625
2605,0.14982,-0.000454702007,0.0234375
2606,0.14982,-0.000454702007,0.03125
2607,0.14982,-0.000454702007,0.0390625
2608,0.14982,-0.000454702007,0.046875
2609,0.14982,-0.000454702007,0.0546875
2610,0.14982,-0.000454702007,0.0625
2611,0.14982,-0.000454702007,0.0703125
2612,0.14982,-0.000454702007,0.078125
2613,0.14982,-0.000454702007,0.0859375
2614,0.14982,-0.000454702007,0.09375
2615,0.14982,-0.000454702007,0.101562001
2616,0.14982,-0.000454702007,0.109375
2617,0.14982,-0.000454702007,0.117187001
2618,0.14982,-0.000454702007,0.125
2619,0.14982,-0.000454702007,0.132811993
2620,0.14982,-0.000454702007,0.140625
2621,0.14982,-0.000454702007,0.148436993
2622,0.14982,-0.000454702007,0.15625
2623,0.14982,-0.000454702007,0.164063007
2624,0.14982,-0.000454702007,0.171875
2625,0.14982,-0.000454702007,0.179686993
2626,0.14982,-0.000454702007,0.1875
2627,0.14982,-0.000454702007,0.195311993
2628,0.14982,-0.000454702007,0.203125
2629,0.14982,-0.000454702007,0.210938007
2630,0.14982,-0.000454702007,0.21875
2631,0.14982,-0.000454702007,0.226563007
2632,0.14982,-0.000454702007,0.234375
2633,0.14982,-0.000454702007,0.242188007
2634,0.14982,-0.000454702007,0.25
2635,0.14982,-0.000454702007,0.257813007
2636,0.14982,-0.000454702007,0.265625
2637,0.14982,-0.000454702007,0.273436993
2638,0.14982,-0.000454702007,0.28125
2639,0.14982,-0.000454702007,0.289063007
2640,0.14982,-0.000454702007,0.296875
2641,0.14982,-0.000454702007,0.304686993
2642,0.14982,-0.000454702007,0.3125
2643,0.14982,-0.000454702007,0.320313007
2644,0.14982,-0.000454702007,0.328125
2645,0.14982,-0.000454702007,0.335936993
2646,0.14982,-0.000454702007,0.34375
2647,0.14982,-0.000454702007,0.351561993
2648,0.14982,-0.000454702007,0.359375
2649,0.14982,-0.000454702007,0.367188007
2650,0.149820998,-0.000457515009,-0.382811993
2651,0.149820998,-0.000457515009,0.382811993
2652,0.149956003,-0.000420421013,-0.390372992
2653,0.149956003,-0.000420421013,0.390372992
2654,0.150778994,9.8055403e-05,-0.396510005
2655,0.150778994,9.8055403e-05,0.396510005
2656,0.152854994,0.0322556011,-0.382813007
2657,0.152854994,0.0322556011,-0.375
2658,0.152854994,0.0322556011,-0.367188007
2659,0.152854994,0.0322556011,-0.359375
2660,0.152854994,0.0322556011,-0.351561993
2661,0.152854994,0.0322556011,-0.34375
2662,0.152854994,0.0322556011,-0.335938007
2663,0.152854994,0.0322556011,-0.328125
2664,0.152854994,0.0322556011,-0.320311993
2665,0.152854994,0.0322556011,-0.3125
2666,0.152854994,0.0322556011,-0.304688007
2667,0.152854994,0.0322556011,-0.296875
2668,0.152854994,0.0322556011,-0.289063007
2669,0.152854994,0.0322556011,-0.28125
2670,0.152854994,0.0322556011,-0.273438007
2671,0.152854994,0.0322556011,-0.265625
2672,0.152854994,0.0322556011,-0.257811993
2673,0.152854994,0.0322556011,-0.25
2674,0.152854994,0.0322556011,-0.242186993
2675,0.152854994,0.0322556011,-0.234375
2676,0.152854994,0.0322556011,-0.226561993
2677,0.152854994,0.0322556011,-0.21875
2678,0.152854994,0.0322556011,-0.210936993
2679,0.152854994,0.0322556011,-0.203125
2680,0.152854994,0.0322556011,-0.195311993
2681,0.152854994,0.0322556011,-0.1875
2682,0.152854994,0.0322556011,-0.179688007
2683,0.152854994,0.0322556011,-0.171875
2684,0.152854994,0.0322556011,-0.164061993
2685,0.152854994,0.0322556011,-0.15625
2686,0.152854994,0.0322556011,-0.148438007
2687,0.152854994,0.0322556011,-0.140625
2688,0.152854994,0.0322556011,-0.132811993
2689,0.152854994,0.0322556011,-0.125
2690,0.152854994,0.0322556011,-0.117187999
2691,0.152854994,0.0322556011,-0.109375
2692,0.152854994,0.0322556011,-0.101562001
2693,0.152854994,0.0322556011,-0.09375
2694,0.152854994,0.0322556011,-0.0859375
2695,0.152854994,0.0322556011,-0.078125
2696,0.152854994,0.0322556011,-0.0703125
2697,0.152854994,0.0322556011,-0.0625
2698,0.152854994,0.0322556011,-0.0546875
2699,0.152854994,0.0322556011,-0.046875
2700,0.152854994,0.0322556011,-0.0390625
2701,0.152854994,0.0322556011,-0.03125
2702,0.152854994,0.0322556011,-0.0234375
2703,0.152854994,0.0322556011,-0.015625
2704,0.152854994,0.0322556011,-0.0078125
2705,0.152854994,0.0322556011,-0
2706,0.152854994,0.0322556011,0.0078125
2707,0.152854994,0.0322556011,0.015625
2708,0.152854994,0.0322556011,0.0234375
2709,0.152854994,0.0322556011,0.03125
2710,0.152854994,0.0322556011,0.0390625
2711,0.152854994,0.0322556011,0.046875
2712,0.152854994,0.0322556011,0.0546875
2713,0.152854994,0.0322556011,0.0625
2714,0.152854994,0.0322556011,0.0703125
2715,0.152854994,0.0322556011,0.078125
2716,0.152854994,0.0322556011,0.0859375
2717,0.152854994,0.0322556011,0.09375
2718,0.152854994,0.0322556011,0.101562999
2719,0.152854994,0.0322556011,0.109375
2720,0.152854994,0.0322556011,0.117187001
2721,0.152854994,0.0322556011,0.125
2722,0.152854994,0.0322556011,0.132811993
2723,0.152854994,0.0322556011,0.140625
2724,0.152854994,0.0322556011,0.148436993
2725,0.152854994,0.0322556011,0.15625
2726,0.152854994,0.0322556011,0.164061993
2727,0.152854994,0.0322556011,0.171875
2728,0.152854994,0.0322556011,0.179688007
2729,0.152854994,0.0322556011,0.1875
2730,0.152854994,0.0322556011,0.195313007
2731,0.152854994,0.0322556011,0.203125
2732,0.152854994,0.0322556011,0.210938007
2733,0.152854994,0.0322556011,0.21875
2734,0.152854994,0.0322556011,0.226563007
2735,0.152854994,0.0322556011,0.234375
2736,0.152854994,0.0322556011,0.242188007
2737,0.152854994,0.0322556011,0.25
2738,0.152854994,0.0322556011,0.257811993
2739,0.152854994,0.0322556011,0.265625
2740,0.152854994,0.0322556011,0.273438007
2741,0.152854994,0.0322556011,0.28125
2742,0.152854994,0.0322556011,0.289061993
2743,0.152854994,0.0322556011,0.296875
2744,0.152854994,0.0322556011,0.304686993
2745,0.152854994,0.0322556011,0.3125
2746,0.152854994,0.0322556011,0.320311993
2747,0.152854994,0.0322556011,0.328125
2748,0.152854994,0.0322556011,0.335936993
2749,0.152854994,0.0322556011,0.34375
2750,0.152854994,0.0322556011,0.351561993
2751,0.152854994,0.0322556011,0.359375
2752,0.152854994,0.0322556011,0.367186993
2753,0.152854994,0.0322556011,0.375
2754,0.152854994,0.0322556011,0.382811993
2755,0.152996004,0.0322760008,-0.390363008
2756,0.152996004,0.0322760008,0.390363008
2757,0.153601006,0.0323624983,-0.396117002
2758,0.153601006,0.0323624983,0.396117002
2759,0.161146998,0.00274295011,-0.382811993
2760,0.161146998,0.00274295011,0.382811993
2761,0.161146998,0.00274368003,-0.375
2762,0.161146998,0.00274368003,-0.367188007
2763,0.161146998,0.00274368003,-0.359375
2764,0.161146998,0.00274368003,-0.351561993
2765,0.161146998,0.00274368003,-0.34375
2766,0.161146998,0.00274368003,-0.335938007
2767,0.161146998,0.00274368003,-0.328125
2768,0.161146998,0.00274368003,-0.320311993
2769,0.161146998,0.00274368003,-0.3125
2770,0.161146998,0.00274368003,-0.304688007
2771,0.161146998,0.00274368003,-0.296875
2772,0.161146998,0.00274368003,-0.289063007
2773,0.161146998,0.00274368003,-0.28125
2774,0.161146998,0.00274368003,-0.273436993
2775,0.161146998,0.00274368003,-0.265625
2776,0.161146998,0.00274368003,-0.257813007
2777,0.161146998,0.00274368003,-0.25
2778,0.161146998,0.00274368003,-0.242186993
2779,0.161146998,0.00274368003,-0.234375
2780,0.161146998,0.00274368003,-0.226563007
2781,0.161146998,0.00274368003,-0.21875
2782,0.161146998,0.00274368003,-0.210938007
2783,0.161146998,0.00274368003,-0.203125
2784,0.161146998,0.00274368003,-0.195313007
2785,0.161146998,0.00274368003,-0.1875
2786,0.161146998,0.00274368003,-0.179688007
2787,0.161146998,0.00274368003,-0.171875
2788,0.161146998,0.00274368003,-0.164061993
2789,0.161146998,0.00274368003,-0.15625
2790,0.161146998,0.00274368003,-0.148438007
2791,0.161146998,0.00274368003,-0.140625
2792,0.161146998,0.00274368003,-0.132813007
2793,0.161146998,0.00274368003,-0.125
2794,0.161146998,0.00274368003,-0.117187999
2795,0.161146998,0.00274368003,-0.109375
2796,0.161146998,0.00274368003,-0.101562999
2797,0.161146998,0.00274368003,-0.09375
2798,0.161146998,0.00274368003,-0.0859375
2799,0.161146998,0.00274368003,-0.078125
2800,0.161146998,0.00274368003,-0.0703125
2801,0.161146998,0.00274368003,-0.0625
2802,0.161146998,0.00274368003,-0.0546875
2803,0.161146998,0.00274368003,-0.046875
2804,0.161146998,0.00274368003,-0.0390625
2805,0.161146998,0.00274368003,-0.03125
2806,0.161146998,0.00274368003,-0.0234375
2807,0.161146998,0.00274368003,-0.015625
2808,0.161146998,0.00274368003,-0.0078125
2809,0.161146998,0.00274368003,-0
2810,0.161146998,0.00274368003,0.0078125
2811,0.161146998,0.00274368003,0.015625
2812,0.161146998,0.00274368003,0.0234375
2813,0.161146998,0.00274368003,0.03125
2814,0.161146998,0.00274368003,0.0390625
2815,0.161146998,0.00274368003,0.046875
2816,0.161146998,0.00274368003,0.0546875
2817,0.161146998,0.00274368003,0.0625
2818,0.161146998,0.00274368003,0.0703125
2819,0.161146998,0.00274368003,0.078125
2820,0.161146998,0.00274368003,0.0859375
2821,0.161146998,0.00274368003,0.09375
2822,0.161146998,0.00274368003,0.101562001
2823,0.161146998,0.00274368003,0.109375
2824,0.161146998,0.00274368003,0.117187001
2825,0.161146998,0.00274368003,0.125
2826,0.161146998,0.00274368003,0.132813007
2827,0.161146998,0.00274368003,0.140625
2828,0.161146998,0.00274368003,0.148438007
2829,0.161146998,0.00274368003,0.15625
2830,0.161146998,0.00274368003,0.164063007
2831,0.161146998,0.00274368003,0.171875
2832,0.161146998,0.00274368003,0.179686993
2833,0.161146998,0.00274368003,0.1875
2834,0.161146998,0.00274368003,0.195311993
2835,0.161146998,0.00274368003,0.203125
2836,0.161146998,0.00274368003,0.210936993
2837,0.161146998,0.00274368003,0.21875
2838,0.161146998,0.00274368003,0.226561993
2839,0.161146998,0.00274368003,0.234375
2840,0.161146998,0.00274368003,0.242186993
2841,0.161146998,0.00274368003,0.25
2842,0.161146998,0.00274368003,0.257811993
2843,0.161146998,0.00274368003,0.265625
2844,0.161146998,0.00274368003,0.273438007
2845,0.161146998,0.00274368003,0.28125
2846,0.161146998,0.00274368003,0.289063007
2847,0.161146998,0.00274368003,0.296875
2848,0.161146998,0.00274368003,0.304688007
2849,0.161146998,0.00274368003,0.3125
2850,0.161146998,0.00274368003,0.320311993
2851,0.161146998,0.00274368003,0.328125
2852,0.161146998,0.00274368003,0.335936993
2853,0.161146998,0.00274368003,0.34375
2854,0.161146998,0.00274368003,0.351561993
2855,0.161146998,0.00274368003,0.359375
2856,0.161146998,0.00274368003,0.367188007
2857,0.161146998,0.00274368003,0.375
2858,0.161192,0.0184931997,-0.398575991
2859,0.161215007,0.00275738002,-0.390347004
2860,0.161215007,0.00275738002,0.390347004
2861,0.161290005,0.0180980004,0.398575991
2862,0.162109002,0.0031570401,-0.396531999
2863,0.162109002,0.0031570401,0.396531999
2864,0.162974,0.0336568989,-0.396530002
2865,0.162974,0.0336568989,0.396530002
2866,0.163480997,0.0337252989,-0.390347004
2867,0.163480997,0.0337252989,0.390347004
2868,0.163489997,0.0337264985,-0.382811993
2869,0.163489997,0.0337264985,-0.375
2870,0.163489997,0.0337264985,-0.367188007
2871,0.163489997,0.0337264985,-0.359375
2872,0.163489997,0.0337264985,-0.351561993
2873,0.163489997,0.0337264985,-0.34375
2874,0.163489997,0.0337264985,-0.335938007
2875,0.163489997,0.0337264985,-0.328125
2876,0.163489997,0.0337264985,-0.320311993
2877,0.163489997,0.0337264985,-0.3125
2878,0.163489997,0.0337264985,-0.304688007
2879,0.163489997,0.0337264985,-0.296875
2880,0.163489997,0.0337264985,-0.289063007
2881,0.163489997,0.0337264985,-0.28125
2882,0.163489997,0.0337264985,-0.273438007
2883,0.163489997,0.0337264985,-0.265625
2884,0.163489997,0.0337264985,-0.257811993
2885,0.163489997,0.0337264985,-0.25
2886,0.163489997,0.0337264985,-0.242186993
2887,0.163489997,0.0337264985,-0.234375
2888,0.163489997,0.0337264985,-0.226561993
2889,0.163489997,0.0337264985,-0.21875
2890,0.163489997,0.0337264985,-0.210936993
2891,0.163489997,0.0337264985,-0.203125
2892,0.163489997,0.0337264985,-0.195311993
2893,0.163489997,0.0337264985,-0.1875
2894,0.163489997,0.0337264985,-0.179688007
2895,0.163489997,0.0337264985,-0.171875
2896,0.163489997,0.0337264985,-0.164061993
2897,0.163489997,0.0337264985,-0.15625
2898,0.163489997,0.0337264985,-0.148436993
2899,0.163489997,0.0337264985,-0.140625
2900,0.163489997,0.0337264985,-0.132813007
2901,0.163489997,0.0337264985,-0.125
2902,0.163489997,0.0337264985,-0.117187001
2903,0.163489997,0.0337264985,-0.109375
2904,0.163489997,0.0337264985,-0.101562001
2905,0.163489997,0.0337264985,-0.09375
2906,0.163489997,0.0337264985,-0.0859375
2907,0.163489997,0.0337264985,-0.078125
2908,0.163489997,0.0337264985,-0.0703125
2909,0.163489997,0.0337264985,-0.0625
2910,0.163489997,0.0337264985,-0.0546875
2911,0.163489997,0.0337264985,-0.046875
2912,0.163489997,0.0337264985,-0.0390625
2913,0.163489997,0.0337264985,-0.03125
2914,0.163489997,0.0337264985,-0.0234375
2915,0.163489997,0.0337264985,-0.015625
2916,0.163489997,0.0337264985,-0.0078125
2917,0.163489997,0.0337264985,0
2918,0.163489997,0.0337264985,0.0078125
2919,0.163489997,0.0337264985,0.015625
2920,0.163489997,0.0337264985,0.0234375
2921,0.163489997,0.0337264985,0.03125
2922,0.163489997,0.0337264985,0.0390625
2923,0.163489997,0.0337264985,0.046875
2924,0.163489997,0.0337264985,0.0546875
2925,0.163489997,0.0337264985,0.0625
2926,0.163489997,0.0337264985,0.0703125
2927,0.163489997,0.0337264985,0.078125
2928,0.163489997,0.0337264985,0.0859375
2929,0.163489997,0.0337264985,0.09375
2930,0.163489997,0.0337264985,0.101562999
2931,0.163489997,0.0337264985,0.109375
2932,0.163489997,0.0337264985,0.117187001
2933,0.163489997,0.0337264985,0.125
2934,0.163489997,0.0337264985,0.132811993
2935,0.163489997,0.0337264985,0.140625
2936,0.163489997,0.0337264985,0.148438007
2937,0.163489997,0.0337264985,0.15625
2938,0.163489997,0.0337264985,0.164063007
2939,0.163489997,0.0337264985,0.171875
2940,0.163489997,0.0337264985,0.179688007
2941,0.163489997,0.0337264985,0.1875
2942,0.163489997,0.0337264985,0.195313007
2943,0.163489997,0.0337264985,0.203125
2944,0.163489997,0.0337264985,0.210938007
2945,0.163489997,0.0337264985,0.21875
2946,0.163489997,0.0337264985,0.226561993
2947,0.163489997,0.0337264985,0.234375
2948,0.163489997,0.0337264985,0.242188007
2949,0.163489997,0.0337264985,0.25
2950,0.163489997,0.0337264985,0.257813007
2951,0.163489997,0.0337264985,0.265625
2952,0.163489997,0.0337264985,0.273438007
2953,0.163489997,0.0337264985,0.28125
2954,0.163489997,0.0337264985,0.289061993
2955,0.163489997,0.0337264985,0.296875
2956,0.163489997,0.0337264985,0.304686993
2957,0.163489997,0.0337264985,0.3125
2958,0.163489997,0.0337264985,0.320311993
2959,0.163489997,0.0337264985,0.328125
2960,0.163489997,0.0337264985,0.335936993
2961,0.163489997,0.0337264985,0.34375
2962,0.163489997,0.0337264985,0.351563007
2963,0.163489997,0.0337264985,0.359375
2964,0.163489997,0.0337264985,0.367188007
2965,0.163489997,0.0337264985,0.375
2966,0.163489997,0.0337264985,0.382813007
2967,0.163789004,0.0190920997,-0.398575991
2968,0.163862005,0.0186822992,0.398575991
2969,0.171035007,0.00561361015,-0.396117002
2970,0.171035007,0.00561361015,0.396117002
2971,0.171459004,0.00573913008,-0.390363008
2972,0.171459004,0.00573913008,0.390363008
2973,0.171545997,0.0057648099,-0.382811993
2974,0.171545997,0.0057648099,-0.375
2975,0.171545997,0.0057648099,-0.367188007
2976,0.171545997,0.0057648099,-0.359375
2977,0.171545997,0.0057648099,-0.351561993
2978,0.171545997,0.0057648099,-0.34375
2979,0.171545997,0.0057648099,-0.335938007
2980,0.171545997,0.0057648099,-0.328125
2981,0.171545997,0.0057648099,-0.320311993
2982,0.171545997,0.0057648099,-0.3125
2983,0.171545997,0.0057648099,-0.304688007
2984,0.171545997,0.0057648099,-0.296875
2985,0.171545997,0.0057648099,-0.289063007
2986,0.171545997,0.0057648099,-0.28125
2987,0.171545997,0.0057648099,-0.273438007
2988,0.171545997,0.0057648099,-0.265625
2989,0.171545997,0.0057648099,-0.257811993
2990,0.171545997,0.0057648099,-0.25
2991,0.171545997,0.0057648099,-0.242188007
2992,0.171545997,0.0057648099,-0.234375
2993,0.171545997,0.0057648099,-0.226563007
2994,0.171545997,0.0057648099,-0.21875
2995,0.171545997,0.0057648099,-0.210938007
2996,0.171545997,0.0057648099,-0.203125
2997,0.171545997,0.0057648099,-0.195311993
2998,0.171545997,0.0057648099,-0.1875
2999,0.171545997,0.0057648099,-0.179688007
3000,0.171545997,0.0057648099,-0.171875
3001,0.171545997,0.0057648099,-0.164063007
3002,0.171545997,0.0057648099,-0.15625
3003,0.171545997,0.0057648099,-0.148438007
3004,0.171545997,0.0057648099,-0.140625
3005,0.171545997,0.0057648099,-0.132813007
3006,0.171545997,0.0057648099,-0.125
3007,0.171545997,0.0057648099,-0.117187999
3008,0.171545997,0.0057648099,-0.109375
3009,0.171545997,0.0057648099,-0.101562999
3010,0.171545997,0.0057648099,-0.09375
3011,0.171545997,0.0057648099,-0.0859375
3012,0.171545997,0.0057648099,-0.078125
3013,0.171545997,0.0057648099,-0.0703125
3014,0.171545997,0.0057648099,-0.0625
3015,0.171545997,0.0057648099,-0.0546875
3016,0.171545997,0.0057648099,-0.046875
3017,0.171545997,0.0057648099,-0.0390625
3018,0.171545997,0.0057648099,-0.03125
3019,0.171545997,0.0057648099,-0.0234375
3020,0.171545997,0.0057648099,-0.015625
3021,0.171545997,0.0057648099,-0.0078125
3022,0.171545997,0.0057648099,0
3023,0.171545997,0.0057648099,0.0078125
3024,0.171545997,0.0057648099,0.015625
3025,0.171545997,0.0057648099,0.0234375
3026,0.171545997,0.0057648099,0.03125
3027,0.171545997,0.0057648099,0.0390625
3028,0.171545997,0.0057648099,0.046875
3029,0.171545997,0.0057648099,0.0546875
3030,0.171545997,0.0057648099,0.0625
3031,0.171545997,0.0057648099,0.0703125
3032,0.171545997,0.0057648099,0.078125
3033,0.171545997,0.0057648099,0.0859375
3034,0.171545997,0.0057648099,0.09375
3035,0.171545997,0.0057648099,0.101562001
3036,0.171545997,0.0057648099,0.109375
3037,0.171545997,0.0057648099,0.117187001
3038,0.171545997,0.0057648099,0.125
3039,0.171545997,0.0057648099,0.132811993
3040,0.171545997,0.0057648099,0.140625
3041,0.171545997,0.0057648099,0.148436993
3042,0.171545997,0.0057648099,0.15625
3043,0.171545997,0.0057648099,0.164063007
3044,0.171545997,0.0057648099,0.171875
3045,0.171545997,0.0057648099,0.179688007
3046,0.171545997,0.0057648099,0.1875
3047,0.171545997,0.0057648099,0.195313007
3048,0.171545997,0.0057648099,0.203125
3049,0.171545997,0.0057648099,0.210938007
3050,0.171545997,0.0057648099,0.21875
3051,0.171545997,0.0057648099,0.226561993
3052,0.171545997,0.0057648099,0.234375
3053,0.171545997,0.0057648099,0.242188007
3054,0.171545997,0.0057648099,0.25
3055,0.171545997,0.0057648099,0.257813007
3056,0.171545997,0.0057648099,0.265625
3057,0.171545997,0.0057648099,0.273438007
3058,0.171545997,0.0057648099,0.28125
3059,0.171545997,0.0057648099,0.289061993
3060,0.171545997,0.0057648099,0.296875
3061,0.171545997,0.0057648099,0.304688007
3062,0.171545997,0.0057648099,0.3125
3063,0.171545997,0.0057648099,0.320313007
3064,0.171545997,0.0057648099,0.328125
3065,0.171545997,0.0057648099,0.335938007
3066,0.171545997,0.0057648099,0.34375
3067,0.171545997,0.0057648099,0.351561993
3068,0.171545997,0.0057648099,0.359375
3069,0.171545997,0.0057648099,0.367188007
3070,0.171545997,0.0057648099,0.375
3071,0.171545997,0.0057648099,0.382811993
3072,0.174934,0.0351164006,-0.396609008
3073,0.174934,0.0351164006,0.396609008
3074,0.175356001,0.0352849998,-0.390372992
3075,0.175356001,0.0352849998,0.390372992
3076,0.175421,0.0352932997,-0.382811993
3077,0.175421,0.0352932997,-0.375
3078,0.175421,0.0352932997,-0.367188007
3079,0.175421,0.0352932997,-0.359375
3080,0.175421,0.0352932997,-0.351561993
3081,0.175421,0.0352932997,-0.34375
3082,0.175421,0.0352932997,-0.335938007
3083,0.175421,0.0352932997,-0.328125
3084,0.175421,0.0352932997,-0.320311993
3085,0.175421,0.0352932997,-0.3125
3086,0.175421,0.0352932997,-0.304686993
3087,0.175421,0.0352932997,-0.296875
3088,0.175421,0.0352932997,-0.289063007
3089,0.175421,0.0352932997,-0.28125
3090,0.175421,0.0352932997,-0.273438007
3091,0.175421,0.0352932997,-0.265625
3092,0.175421,0.0352932997,-0.257811993
3093,0.175421,0.0352932997,-0.25
3094,0.175421,0.0352932997,-0.242188007
3095,0.175421,0.0352932997,-0.234375
3096,0.175421,0.0352932997,-0.226561993
3097,0.175421,0.0352932997,-0.21875
3098,0.175421,0.0352932997,-0.210936993
3099,0.175421,0.0352932997,-0.203125
3100,0.175421,0.0352932997,-0.195311993
3101,0.175421,0.0352932997,-0.1875
3102,0.175421,0.0352932997,-0.179688007
3103,0.175421,0.0352932997,-0.171875
3104,0.175421,0.0352932997,-0.164061993
3105,0.175421,0.0352932997,-0.15625
3106,0.175421,0.0352932997,-0.148438007
3107,0.175421,0.0352932997,-0.140625
3108,0.175421,0.0352932997,-0.132813007
3109,0.175421,0.0352932997,-0.125
3110,0.175421,0.0352932997,-0.117187999
3111,0.175421,0.0352932997,-0.109375
3112,0.175421,0.0352932997,-0.101562001
3113,0.175421,0.0352932997,-0.09375
3114,0.175421,0.0352932997,-0.0859375
3115,0.175421,0.0352932997,-0.078125
3116,0.175421,0.0352932997,-0.0703125
3117,0.175421,0.0352932997,-0.0625
3118,0.175421,0.0352932997,-0.0546875
3119,0.175421,0.0352932997,-0.046875
3120,0.175421,0.0352932997,-0.0390625
3121,0.175421,0.0352932997,-0.03125
3122,0.175421,0.0352932997,-0.0234375
3123,0.175421,0.0352932997,-0.015625
3124,0.175421,0.0352932997,-0.0078125
3125,0.175421,0.0352932997,0
3126,0.175421,0.0352932997,0.0078125
3127,0.175421,0.0352932997,0.015625
3128,0.175421,0.0352932997,0.0234375
3129,0.175421,0.0352932997,0.03125
3130,0.175421,0.0352932997,0.0390625
3131,0.175421,0.0352932997,0.046875
3132,0.175421,0.0352932997,0.0546875
3133,0.175421,0.0352932997,0.0625
3134,0.175421,0.0352932997,0.0703125
3135,0.175421,0.0352932997,0.078125
3136,0.175421,0.0352932997,0.0859375
3137,0.175421,0.0352932997,0.09375
3138,0.175421,0.0352932997,0.101562001
3139,0.175421,0.0352932997,0.109375
3140,0.175421,0.0352932997,0.117187001
3141,0.175421,0.0352932997,0.125
3142,0.175421,0.0352932997,0.132811993
3143,0.175421,0.0352932997,0.140625
3144,0.175421,0.0352932997,0.148438007
3145,0.175421,0.0352932997,0.15625
3146,0.175421,0.0352932997,0.164063007
3147,0.175421,0.0352932997,0.171875
3148,0.175421,0.0352932997,0.179688007
3149,0.175421,0.0352932997,0.1875
3150,0.175421,0.0352932997,0.195311993
3151,0.175421,0.0352932997,0.203125
3152,0.175421,0.0352932997,0.210938007
3153,0.175421,0.0352932997,0.21875
3154,0.175421,0.0352932997,0.226561993
3155,0.175421,0.0352932997,0.234375
3156,0.175421,0.0352932997,0.242186993
3157,0.175421,0.0352932997,0.25
3158,0.175421,0.0352932997,0.257813007
3159,0.175421,0.0352932997,0.265625
3160,0.175421,0.0352932997,0.273436993
3161,0.175421,0.0352932997,0.28125
3162,0.175421,0.0352932997,0.289063007
3163,0.175421,0.0352932997,0.296875
3164,0.175421,0.0352932997,0.304686993
3165,0.175421,0.0352932997,0.3125
3166,0.175421,0.0352932997,0.320311993
3167,0.175421,0.0352932997,0.328125
3168,0.175421,0.0352932997,0.335938007
3169,0.175421,0.0352932997,0.34375
3170,0.175421,0.0352932997,0.351563007
3171,0.175421,0.0352932997,0.359375
3172,0.175421,0.0352932997,0.367188007
3173,0.175421,0.0352932997,0.375
3174,0.175421,0.0352932997,0.382811993
3175,0.175632,0.0216186997,-0.398575991
3176,0.175716996,0.0211797003,0.398575991
3177,0.176632002,0.00738993986,-0.39676401
3178,0.176632002,0.00738993986,0.39676401
3179,0.187249005,0.0366587006,-0.396560997
3180,0.187249005,0.0366587006,0.396560997
3181,0.187620997,0.0241826996,-0.398485005
3182,0.187652007,0.0368165001,-0.390372992
3183,0.187652007,0.0368165001,0.390372992
3184,0.187714994,0.0368239991,-0.382811993
3185,0.187714994,0.0368239991,-0.375
3186,0.187714994,0.0368239991,-0.367188007
3187,0.187714994,0.0368239991,-0.359375
3188,0.187714994,0.0368239991,-0.351561993
3189,0.187714994,0.0368239991,-0.34375
3190,0.187714994,0.0368239991,-0.335938007
3191,0.187714994,0.0368239991,-0.328125
3192,0.187714994,0.0368239991,-0.320311993
3193,0.187714994,0.0368239991,-0.3125
3194,0.187714994,0.0368239991,-0.304688007
3195,0.187714994,0.0368239991,-0.296875
3196,0.187714994,0.0368239991,-0.289061993
3197,0.187714994,0.0368239991,-0.28125
3198,0.187714994,0.0368239991,-0.273438007
3199,0.187714994,0.0368239991,-0.265625
3200,0.187714994,0.0368239991,-0.257811993
3201,0.187714994,0.0368239991,-0.25
3202,0.187714994,0.0368239991,-0.242188007
3203,0.187714994,0.0368239991,-0.234375
3204,0.187714994,0.0368239991,-0.226561993
3205,0.187714994,0.0368239991,-0.21875
3206,0.187714994,0.0368239991,-0.210936993
3207,0.187714994,0.0368239991,-0.203125
3208,0.187714994,0.0368239991,-0.195311993
3209,0.187714994,0.0368239991,-0.1875
3210,0.187714994,0.0368239991,-0.179688007
3211,0.187714994,0.0368239991,-0.171875
3212,0.187714994,0.0368239991,-0.164061993
3213,0.187714994,0.0368239991,-0.15625
3214,0.187714994,0.0368239991,-0.148438007
3215,0.187714994,0.0368239991,-0.140625
3216,0.187714994,0.0368239991,-0.132811993
3217,0.187714994,0.0368239991,-0.125
3218,0.187714994,0.0368239991,-0.117187001
3219,0.187714994,0.0368239991,-0.109375
3220,0.187714994,0.0368239991,-0.101562001
3221,0.187714994,0.0368239991,-0.09375
3222,0.187714994,0.0368239991,-0.0859375
3223,0.187714994,0.0368239991,-0.078125
3224,0.187714994,0.0368239991,-0.0703125
3225,0.187714994,0.0368239991,-0.0625
3226,0.187714994,0.0368239991,-0.0546875
3227,0.187714994,0.0368239991,-0.046875
3228,0.187714994,0.0368239991,-0.0390625
3229,0.187714994,0.0368239991,-0.03125
3230,0.187714994,0.0368239991,-0.0234375
3231,0.187714994,0.0368239991,-0.015625
3232,0.187714994,0.0368239991,-0.0078125
3233,0.187714994,0.0368239991,0
3234,0.187714994,0.0368239991,0.0078125
3235,0.187714994,0.0368239991,0.015625
3236,0.187714994,0.0368239991,0.0234375
3237,0.187714994,0.0368239991,0.03125
3238,0.187714994,0.0368239991,0.0390625
3239,0.187714994,0.0368239991,0.046875
3240,0.187714994,0.0368239991,0.0546875
3241,0.187714994,0.0368239991,0.0625
3242,0.187714994,0.0368239991,0.0703125
3243,0.187714994,0.0368239991,0.078125
3244,0.187714994,0.0368239991,0.0859375
3245,0.187714994,0.0368239991,0.09375
3246,0.187714994,0.0368239991,0.101562001
3247,0.187714994,0.0368239991,0.109375
3248,0.187714994,0.0368239991,0.117187001
3249,0.187714994,0.0368239991,0.125
3250,0.187714994,0.0368239991,0.132813007
3251,0.187714994,0.0368239991,0.140625
3252,0.187714994,0.0368239991,0.148438007
3253,0.187714994,0.0368239991,0.15625
3254,0.187714994,0.0368239991,0.164063007
3255,0.187714994,0.0368239991,0.171875
3256,0.187714994,0.0368239991,0.179688007
3257,0.187714994,0.0368239991,0.1875
3258,0.187714994,0.0368239991,0.195311993
3259,0.187714994,0.0368239991,0.203125
3260,0.187714994,0.0368239991,0.210936993
3261,0.187714994,0.0368239991,0.21875
3262,0.187714994,0.0368239991,0.226561993
3263,0.187714994,0.0368239991,0.234375
3264,0.187714994,0.0368239991,0.242188007
3265,0.187714994,0.0368239991,0.25
3266,0.187714994,0.0368239991,0.257813007
3267,0.187714994,0.0368239991,0.265625
3268,0.187714994,0.0368239991,0.273436993
3269,0.187714994,0.0368239991,0.28125
3270,0.187714994,0.0368239991,0.289063007
3271,0.187714994,0.0368239991,0.296875
3272,0.187714994,0.0368239991,0.304688007
3273,0.187714994,0.0368239991,0.3125
3274,0.187714994,0.0368239991,0.320313007
3275,0.187714994,0.0368239991,0.328125
3276,0.187714994,0.0368239991,0.335936993
3277,0.187714994,0.0368239991,0.34375
3278,0.187714994,0.0368239991,0.351563007
3279,0.187714994,0.0368239991,0.359375
3280,0.187714994,0.0368239991,0.367188007
3281,0.187714994,0.0368239991,0.375
3282,0.187714994,0.0368239991,0.382813007
3283,0.187718004,0.0237146001,0.398485005
3284,0.188068002,0.0110382996,-0.390397012
3285,0.188068002,0.0110382996,0.390397012
3286,0.188152999,0.0107378,-0.382811993
3287,0.188152999,0.0107378,-0.375
3288,0.188152999,0.0107378,-0.367188007
3289,0.188152999,0.0107378,-0.359375
3290,0.188152999,0.0107378,-0.351561993
3291,0.188152999,0.0107378,-0.34375
3292,0.188152999,0.0107378,-0.335938007
3293,0.188152999,0.0107378,-0.328125
3294,0.188152999,0.0107378,-0.320311993
3295,0.188152999,0.0107378,-0.3125
3296,0.188152999,0.0107378,-0.304688007
3297,0.188152999,0.0107378,-0.296875
3298,0.188152999,0.0107378,-0.289061993
3299,0.188152999,0.0107378,-0.28125
3300,0.188152999,0.0107378,-0.273438007
3301,0.188152999,0.0107378,-0.265625
3302,0.188152999,0.0107378,-0.257811993
3303,0.188152999,0.0107378,-0.25
3304,0.188152999,0.0107378,-0.242188007
3305,0.188152999,0.0107378,-0.234375
3306,0.188152999,0.0107378,-0.226561993
3307,0.188152999,0.0107378,-0.21875
3308,0.188152999,0.0107378,-0.210936993
3309,0.188152999,0.0107378,-0.203125
3310,0.188152999,0.0107378,-0.195311993
3311,0.188152999,0.0107378,-0.1875
3312,0.188152999,0.0107378,-0.179688007
3313,0.188152999,0.0107378,-0.171875
3314,0.188152999,0.0107378,-0.164061993
3315,0.188152999,0.0107378,-0.15625
3316,0.188152999,0.0107378,-0.148436993
3317,0.188152999,0.0107378,-0.140625
3318,0.188152999,0.0107378,-0.132811993
3319,0.188152999,0.0107378,-0.125
3320,0.188152999,0.0107378,-0.117187001
3321,0.188152999,0.0107378,-0.109375
3322,0.188152999,0.0107378,-0.101562001
3323,0.188152999,0.0107378,-0.09375
3324,0.188152999,0.0107378,-0.0859375
3325,0.188152999,0.0107378,-0.078125
3326,0.188152999,0.0107378,-0.0703125
3327,0.188152999,0.0107378,-0.0625
3328,0.188152999,0.0107378,-0.0546875
3329,0.188152999,0.0107378,-0.046875
3330,0.188152999,0.0107378,-0.0390625
3331,0.188152999,0.0107378,-0.03125
3332,0.188152999,0.0107378,-0.0234375
3333,0.188152999,0.0107378,-0.015625
3334,0.188152999,0.0107378,-0.0078125
3335,0.188152999,0.0107378,0
3336,0.188152999,0.0107378,0.0078125
3337,0.188152999,0.0107378,0.015625
3338,0.188152999,0.0107378,0.0234375
3339,0.188152999,0.0107378,0.03125
3340,0.188152999,0.0107378,0.0390625
3341,0.188152999,0.0107378,0.046875
3342,0.188152999,0.0107378,0.0546875
3343,0.188152999,0.0107378,0.0625
3344,0.188152999,0.0107378,0.0703125
3345,0.188152999,0.0107378,0.078125
3346,0.188152999,0.0107378,0.0859375
3347,0.188152999,0.0107378,0.09375
3348,0.188152999,0.0107378,0.101562999
3349,0.188152999,0.0107378,0.109375
3350,0.188152999,0.0107378,0.117187001
3351,0.188152999,0.0107378,0.125
3352,0.188152999,0.0107378,0.132813007
3353,0.188152999,0.0107378,0.140625
3354,0.188152999,0.0107378,0.148438007
3355,0.188152999,0.0107378,0.15625
3356,0.188152999,0.0107378,0.164063007
3357,0.188152999,0.0107378,0.171875
3358,0.188152999,0.0107378,0.179686993
3359,0.188152999,0.0107378,0.1875
3360,0.188152999,0.0107378,0.195313007
3361,0.188152999,0.0107378,0.203125
3362,0.188152999,0.0107378,0.210938007
3363,0.188152999,0.0107378,0.21875
3364,0.188152999,0.0107378,0.226561993
3365,0.188152999,0.0107378,0.234375
3366,0.188152999,0.0107378,0.242188007
3367,0.188152999,0.0107378,0.25
3368,0.188152999,0.0107378,0.257813007
3369,0.188152999,0.0107378,0.265625
3370,0.188152999,0.0107378,0.273436993
3371,0.188152999,0.0107378,0.28125
3372,0.188152999,0.0107378,0.289063007
3373,0.188152999,0.0107378,0.296875
3374,0.188152999,0.0107378,0.304686993
3375,0.188152999,0.0107378,0.3125
3376,0.188152999,0.0107378,0.320313007
3377,0.188152999,0.0107378,0.328125
3378,0.188152999,0.0107378,0.335936993
3379,0.188152999,0.0107378,0.34375
3380,0.188152999,0.0107378,0.351561993
3381,0.188152999,0.0107378,0.359375
3382,0.188152999,0.0107378,0.367186993
3383,0.188152999,0.0107378,0.375
3384,0.188152999,0.0107378,0.382813007
3385,0.188821003,0.0110595003,-0.396531999
3386,0.188821003,0.0110595003,0.396531999
3387,0.198934004,0.0140551999,-0.382811993
3388,0.198934004,0.0140551999,-0.375
3389,0.198934004,0.0140551999,-0.367188007
3390,0.198934004,0.0140551999,-0.359375
3391,0.198934004,0.0140551999,-0.351561993
3392,0.198934004,0.0140551999,-0.34375
3393,0.198934004,0.0140551999,-0.335938007
3394,0.198934004,0.0140551999,-0.328125
3395,0.198934004,0.0140551999,-0.320311993
3396,0.198934004,0.0140551999,-0.3125
3397,0.198934004,0.0140551999,-0.304688007
3398,0.198934004,0.0140551999,-0.296875
3399,0.198934004,0.0140551999,-0.289061993
3400,0.198934004,0.0140551999,-0.28125
3401,0.198934004,0.0140551999,-0.273436993
3402,0.198934004,0.0140551999,-0.265625
3403,0.198934004,0.0140551999,-0.257811993
3404,0.198934004,0.0140551999,-0.25
3405,0.198934004,0.0140551999,-0.242188007
3406,0.198934004,0.0140551999,-0.234375
3407,0.198934004,0.0140551999,-0.226561993
3408,0.198934004,0.0140551999,-0.21875
3409,0.198934004,0.0140551999,-0.210938007
3410,0.198934004,0.0140551999,-0.203125
3411,0.198934004,0.0140551999,-0.195311993
3412,0.198934004,0.0140551999,-0.1875
3413,0.198934004,0.0140551999,-0.179688007
3414,0.198934004,0.0140551999,-0.171875
3415,0.198934004,0.0140551999,-0.164061993
3416,0.198934004,0.0140551999,-0.15625
3417,0.198934004,0.0140551999,-0.148438007
3418,0.198934004,0.0140551999,-0.140625
3419,0.198934004,0.0140551999,-0.132813007
3420,0.198934004,0.0140551999,-0.125
3421,0.198934004,0.0140551999,-0.117187999
3422,0.198934004,0.0140551999,-0.109375
3423,0.198934004,0.0140551999,-0.101562001
3424,0.198934004,0.0140551999,-0.09375
3425,0.198934004,0.0140551999,-0.0859375
3426,0.198934004,0.0140551999,-0.078125
3427,0.198934004,0.0140551999,-0.0703125
3428,0.198934004,0.0140551999,-0.0625
3429,0.198934004,0.0140551999,-0.0546875
3430,0.198934004,0.0140551999,-0.046875
3431,0.198934004,0.0140551999,-0.0390625
3432,0.198934004,0.0140551999,-0.03125
3433,0.198934004,0.0140551999,-0.0234375
3434,0.198934004,0.0140551999,-0.015625
3435,0.198934004,0.0140551999,-0.0078125
3436,0.198934004,0.0140551999,-1e-12
3437,0.198934004,0.0140551999,0.0078125
3438,0.198934004,0.0140551999,0.015625
3439,0.198934004,0.0140551999,0.0234375
3440,0.198934004,0.0140551999,0.03125
3441,0.198934004,0.0140551999,0.0390625
3442,0.198934004,0.0140551999,0.046875
3443,0.198934004,0.0140551999,0.0546875
3444,0.198934004,0.0140551999,0.0625
3445,0.198934004,0.0140551999,0.0703125
3446,0.198934004,0.0140551999,0.078125
3447,0.198934004,0.0140551999,0.0859375
3448,0.198934004,0.0140551999,0.09375
3449,0.198934004,0.0140551999,0.101562999
3450,0.198934004,0.0140551999,0.109375
3451,0.198934004,0.0140551999,0.117187999
3452,0.198934004,0.0140551999,0.125
3453,0.198934004,0.0140551999,0.132811993
3454,0.198934004,0.0140551999,0.140625
3455,0.198934004,0.0140551999,0.148436993
3456,0.198934004,0.0140551999,0.15625
3457,0.198934004,0.0140551999,0.164063007
3458,0.198934004,0.0140551999,0.171875
3459,0.198934004,0.0140551999,0.179688007
3460,0.198934004,0.0140551999,0.1875
3461,0.198934004,0.0140551999,0.195313007
3462,0.198934004,0.0140551999,0.203125
3463,0.198934004,0.0140551999,0.210936993
3464,0.198934004,0.0140551999,0.21875
3465,0.198934004,0.0140551999,0.226561993
3466,0.198934004,0.0140551999,0.234375
3467,0.198934004,0.0140551999,0.242188007
3468,0.198934004,0.0140551999,0.25
3469,0.198934004,0.0140551999,0.257811993
3470,0.198934004,0.0140551999,0.265625
3471,0.198934004,0.0140551999,0.273436993
3472,0.198934004,0.0140551999,0.28125
3473,0.198934004,0.0140551999,0.289061993
3474,0.198934004,0.0140551999,0.296875
3475,0.198934004,0.0140551999,0.304688007
3476,0.198934004,0.0140551999,0.3125
3477,0.198934004,0.0140551999,0.320313007
3478,0.198934004,0.0140551999,0.328125
3479,0.198934004,0.0140551999,0.335938007
3480,0.198934004,0.0140551999,0.34375
3481,0.198934004,0.0140551999,0.351563007
3482,0.198934004,0.0140551999,0.359375
3483,0.198934004,0.0140551999,0.367186993
3484,0.198934004,0.0140551999,0.375
3485,0.198934004,0.0140551999,0.382811993
3486,0.199009001,0.0140784997,-0.390347004
3487,0.199009001,0.0140784997,0.390347004
3488,0.199522004,0.0267280992,-0.398317993
3489,0.199596003,0.0381277986,-0.396461993
3490,0.199597001,0.0381202996,0.396461993
3491,0.199631006,0.0262311008,0.398317993
3492,0.199973002,0.0144870998,-0.396495014
3493,0.199973002,0.0144870998,0.396495014
3494,0.200008005,0.0380061008,-0.390374988
3495,0.200008005,0.0380063988,0.390374988
3496,0.200036004,0.0382815003,0.351561993
3497,0.200036004,0.0382822007,0.382811993
3498,0.200036004,0.0382830016,0.359375
3499,0.200036004,0.0382834002,0.375
3500,0.200036004,0.0382838994,0.367188007
3501,0.200037003,0.0382803008,-0.382811993
3502,0.200037003,0.0382803008,-0.375
3503,0.200037003,0.0382803008,-0.367188007
3504,0.200037003,0.0382803008,-0.359375
3505,0.200037003,0.0382803008,-0.351561993
3506,0.200037003,0.0382803008,-0.34375
3507,0.200037003,0.0382803008,-0.335938007
3508,0.200037003,0.0382803008,-0.328125
3509,0.200037003,0.0382803008,-0.320311993
3510,0.200037003,0.0382803008,-0.3125
3511,0.200037003,0.0382803008,-0.304688007
3512,0.200037003,0.0382803008,-0.296875
3513,0.200037003,0.0382803008,-0.289063007
3514,0.200037003,0.0382803008,-0.28125
3515,0.200037003,0.0382803008,-0.273438007
3516,0.200037003,0.0382803008,-0.265625
3517,0.200037003,0.0382803008,-0.257813007
3518,0.200037003,0.0382803008,-0.25
3519,0.200037003,0.0382803008,-0.242188007
3520,0.200037003,0.0382803008,-0.234375
3521,0.200037003,0.0382803008,-0.226563007
3522,0.200037003,0.0382803008,-0.21875
3523,0.200037003,0.0382803008,-0.210938007
3524,0.200037003,0.0382803008,-0.203125
3525,0.200037003,0.0382803008,-0.195313007
3526,0.200037003,0.0382803008,-0.1875
3527,0.200037003,0.0382803008,-0.179688007
3528,0.200037003,0.0382803008,-0.171875
3529,0.200037003,0.0382803008,-0.164063007
3530,0.200037003,0.0382803008,-0.15625
3531,0.200037003,0.0382803008,-0.148436993
3532,0.200037003,0.0382803008,-0.140625
3533,0.200037003,0.0382803008,-0.132811993
3534,0.200037003,0.0382803008,-0.125
3535,0.200037003,0.0382803008,-0.117187999
3536,0.200037003,0.0382803008,-0.109375
3537,0.200037003,0.0382803008,-0.101562001
3538,0.200037003,0.0382803008,-0.09375
3539,0.200037003,0.0382803008,-0.0859375
3540,0.200037003,0.0382803008,-0.078125
3541,0.200037003,0.0382803008,-0.0703125
3542,0.200037003,0.0382803008,-0.0625
3543,0.200037003,0.0382803008,-0.0546875
3544,0.200037003,0.0382803008,-0.046875
3545,0.200037003,0.0382803008,-0.0390625
3546,0.200037003,0.0382803008,-0.03125
3547,0.200037003,0.0382803008,-0.0234375
3548,0.200037003,0.0382803008,-0.015625
3549,0.200037003,0.0382803008,-0.0078125
3550,0.200037003,0.0382803008,0
3551,0.200037003,0.0382803008,0.0078125
3552,0.200037003,0.0382803008,0.015625
3553,0.200037003,0.0382803008,0.0234375
3554,0.200037003,0.0382803008,0.03125
3555,0.200037003,0.0382803008,0.0390625
3556,0.200037003,0.0382803008,0.046875
3557,0.200037003,0.0382803008,0.0546875
3558,0.200037003,0.0382803008,0.0625
3559,0.200037003,0.0382803008,0.0703125
3560,0.200037003,0.0382803008,0.078125
3561,0.200037003,0.0382803008,0.0859375
3562,0.200037003,0.0382803008,0.09375
3563,0.200037003,0.0382803008,0.101562999
3564,0.200037003,0.0382803008,0.109375
3565,0.200037003,0.0382803008,0.117187001
3566,0.200037003,0.0382803008,0.125
3567,0.200037003,0.0382803008,0.132811993
3568,0.200037003,0.0382803008,0.140625
3569,0.200037003,0.0382803008,0.148436993
3570,0.200037003,0.0382803008,0.15625
3571,0.200037003,0.0382803008,0.164061993
3572,0.200037003,0.0382803008,0.171875
3573,0.200037003,0.0382803008,0.179688007
3574,0.200037003,0.0382803008,0.1875
3575,0.200037003,0.0382803008,0.195311993
3576,0.200037003,0.0382803008,0.203125
3577,0.200037003,0.0382803008,0.210938007
3578,0.200037003,0.0382803008,0.21875
3579,0.200037003,0.0382803008,0.226563007
3580,0.200037003,0.0382803008,0.234375
3581,0.200037003,0.0382803008,0.242186993
3582,0.200037003,0.0382803008,0.25
3583,0.200037003,0.0382803008,0.257813007
3584,0.200037003,0.0382803008,0.265625
3585,0.200037003,0.0382803008,0.273436993
3586,0.200037003,0.0382803008,0.28125
3587,0.200037003,0.0382803008,0.289061993
3588,0.200037003,0.0382803008,0.296875
3589,0.200037003,0.0382803008,0.304688007
3590,0.200037003,0.0382803008,0.3125
3591,0.200037003,0.0382803008,0.320311993
3592,0.200037003,0.0382803008,0.328125
3593,0.200037003,0.0382804014,0.335936993
3594,0.200037003,0.0382806994,0.34375
3595,0.208799005,0.0171470009,0.396117002
3596,0.208799005,0.0171470996,-0.396117002
3597,0.209198996,0.0172734,0.390363008
3598,0.209198996,0.0172735006,-0.390363008
3599,0.209278002,0.0172984991,-0.382813007
3600,0.209278002,0.0172984991,-0.375
3601,0.209278002,0.0172984991,-0.367188007
3602,0.209278002,0.0172984991,-0.359375
3603,0.209278002,0.0172984991,-0.351561993
3604,0.209278002,0.0172984991,-0.34375
3605,0.209278002,0.0172984991,-0.335938007
3606,0.209278002,0.0172984991,-0.328125
3607,0.209278002,0.0172984991,-0.320311993
3608,0.209278002,0.0172984991,-0.3125
3609,0.209278002,0.0172984991,-0.304686993
3610,0.209278002,0.0172984991,-0.296875
3611,0.209278002,0.0172984991,-0.289063007
3612,0.209278002,0.0172984991,-0.28125
3613,0.209278002,0.0172984991,-0.273436993
3614,0.209278002,0.0172984991,-0.265625
3615,0.209278002,0.0172984991,-0.257811993
3616,0.209278002,0.0172984991,-0.25
3617,0.209278002,0.0172984991,-0.242188007
3618,0.209278002,0.0172984991,-0.234375
3619,0.209278002,0.0172984991,-0.226561993
3620,0.209278002,0.0172984991,-0.21875
3621,0.209278002,0.0172984991,-0.210938007
3622,0.209278002,0.0172984991,-0.203125
3623,0.209278002,0.0172984991,-0.195311993
3624,0.209278002,0.0172984991,-0.1875
3625,0.209278002,0.0172984991,-0.179686993
3626,0.209278002,0.0172984991,-0.171875
3627,0.209278002,0.0172984991,-0.164063007
3628,0.209278002,0.0172984991,-0.15625
3629,0.209278002,0.0172984991,-0.148436993
3630,0.209278002,0.0172984991,-0.140625
3631,0.209278002,0.0172984991,-0.132813007
3632,0.209278002,0.0172984991,-0.125
3633,0.209278002,0.0172984991,-0.117187001
3634,0.209278002,0.0172984991,-0.109375
3635,0.209278002,0.0172984991,-0.101562001
3636,0.209278002,0.0172984991,-0.09375
3637,0.209278002,0.0172984991,-0.0859375
3638,0.209278002,0.0172984991,-0.078125
3639,0.209278002,0.0172984991,-0.0703125
3640,0.209278002,0.0172984991,-0.0625
3641,0.209278002,0.0172984991,-0.0546875
3642,0.209278002,0.0172984991,-0.046875
3643,0.209278002,0.0172984991,-0.0390625
3644,0.209278002,0.0172984991,-0.03125
3645,0.209278002,0.0172984991,-0.0234375
3646,0.209278002,0.0172984991,-0.015625
3647,0.209278002,0.0172984991,-0.0078125
3648,0.209278002,0.0172984991,0
3649,0.209278002,0.0172984991,0.0078125
3650,0.209278002,0.0172984991,0.015625
3651,0.209278002,0.0172984991,0.0234375
3652,0.209278002,0.0172984991,0.03125
3653,0.209278002,0.0172984991,0.0390625
3654,0.209278002,0.0172984991,0.046875
3655,0.209278002,0.0172984991,0.0546875
3656,0.209278002,0.0172984991,0.0625
3657,0.209278002,0.0172984991,0.0703125
3658,0.209278002,0.0172984991,0.078125
3659,0.209278002,0.0172984991,0.0859375
3660,0.209278002,0.0172984991,0.09375
3661,0.209278002,0.0172984991,0.101562001
3662,0.209278002,0.0172984991,0.109375
3663,0.209278002,0.0172984991,0.117187999
3664,0.209278002,0.0172984991,0.125
3665,0.209278002,0.0172984991,0.132813007
3666,0.209278002,0.0172984991,0.140625
3667,0.209278002,0.0172984991,0.148436993
3668,0.209278002,0.0172984991,0.15625
3669,0.209278002,0.0172984991,0.164063007
3670,0.209278002,0.0172984991,0.171875
3671,0.209278002,0.0172984991,0.179686993
3672,0.209278002,0.0172984991,0.1875
3673,0.209278002,0.0172984991,0.195313007
3674,0.209278002,0.0172984991,0.203125
3675,0.209278002,0.0172984991,0.210938007
3676,0.209278002,0.0172984991,0.21875
3677,0.209278002,0.0172984991,0.226563007
3678,0.209278002,0.0172984991,0.234375
3679,0.209278002,0.0172984991,0.242188007
3680,0.209278002,0.0172984991,0.25
3681,0.209278002,0.0172984991,0.257811993
3682,0.209278002,0.0172984991,0.265625
3683,0.209278002,0.0172984991,0.273436993
3684,0.209278002,0.0172984991,0.28125
3685,0.209278002,0.0172984991,0.289063007
3686,0.209278002,0.0172984991,0.296875
3687,0.209278002,0.0172984991,0.304686993
3688,0.209278002,0.0172984991,0.3125
3689,0.209278002,0.0172984991,0.320311993
3690,0.209278002,0.0172984991,0.328125
3691,0.209278002,0.0172984991,0.335936993
3692,0.209278002,0.0172984991,0.34375
3693,0.209278002,0.0172984991,0.351563007
3694,0.209278002,0.0172984991,0.359375
3695,0.209278002,0.0172984991,0.367188007
3696,0.209278002,0.0172984991,0.375
3697,0.209278002,0.0172984991,0.382813007
3698,0.211593002,0.0293097999,-0.396699011
3699,0.211715996,0.0287801996,0.396699011
3700,0.211934999,0.0395223014,-0.396295995
3701,0.211942002,0.0394629985,0.396297991
3702,0.212307006,0.0394104011,-0.390338004
3703,0.212310001,0.0393853001,0.390338987
3704,0.212347001,0.0392213985,-0.38279599
3705,0.212350994,0.0392026007,0.382797003
3706,0.212384,0.0396666005,-0.3125
3707,0.212384,0.0396666005,-0.304688007
3708,0.212384,0.0396666005,-0.296875
3709,0.212384,0.0396666005,-0.289063007
3710,0.212384,0.0396666005,-0.28125
3711,0.212384,0.0396666005,-0.273438007
3712,0.212384,0.0396666005,-0.265625
3713,0.212384,0.0396666005,-0.257811993
3714,0.212384,0.0396666005,-0.25
3715,0.212384,0.0396666005,-0.242188007
3716,0.212384,0.0396666005,-0.234375
3717,0.212384,0.0396666005,-0.226563007
3718,0.212384,0.0396666005,-0.21875
3719,0.212384,0.0396666005,-0.210938007
3720,0.212384,0.0396666005,-0.203125
3721,0.212384,0.0396666005,-0.195311993
3722,0.212384,0.0396666005,-0.1875
3723,0.212384,0.0396666005,-0.179688007
3724,0.212384,0.0396666005,-0.171875
3725,0.212384,0.0396666005,-0.164063007
3726,0.212384,0.0396666005,-0.15625
3727,0.212384,0.0396666005,-0.148438007
3728,0.212384,0.0396666005,-0.140625
3729,0.212384,0.0396666005,-0.132813007
3730,0.212384,0.0396666005,-0.125
3731,0.212384,0.0396666005,-0.117187001
3732,0.212384,0.0396666005,-0.109375
3733,0.212384,0.0396666005,-0.101562999
3734,0.212384,0.0396666005,-0.09375
3735,0.212384,0.0396666005,-0.0859375
3736,0.212384,0.0396666005,-0.078125
3737,0.212384,0.0396666005,-0.0703125
3738,0.212384,0.0396666005,-0.0625
3739,0.212384,0.0396666005,-0.0546875
3740,0.212384,0.0396666005,-0.046875
3741,0.212384,0.0396666005,-0.0390625
3742,0.212384,0.0396666005,-0.03125
3743,0.212384,0.0396666005,-0.0234375
3744,0.212384,0.0396666005,-0.015625
3745,0.212384,0.0396666005,-0.0078125
3746,0.212384,0.0396666005,0
3747,0.212384,0.0396666005,0.0078125
3748,0.212384,0.0396666005,0.015625
3749,0.212384,0.0396666005,0.0234375
3750,0.212384,0.0396666005,0.03125
3751,0.212384,0.0396666005,0.0390625
3752,0.212384,0.0396666005,0.046875
3753,0.212384,0.0396666005,0.0546875
3754,0.212384,0.0396666005,0.0625
3755,0.212384,0.0396666005,0.0703125
3756,0.212384,0.0396666005,0.078125
3757,0.212384,0.0396666005,0.0859375
3758,0.212384,0.0396666005,0.09375
3759,0.212384,0.0396666005,0.101562001
3760,0.212384,0.0396666005,0.109375
3761,0.212384,0.0396666005,0.117187001
3762,0.212384,0.0396666005,0.125
3763,0.212384,0.0396666005,0.132811993
3764,0.212384,0.0396666005,0.140625
3765,0.212384,0.0396666005,0.148436993
3766,0.212384,0.0396666005,0.15625
3767,0.212384,0.0396666005,0.164063007
3768,0.212384,0.0396666005,0.171875
3769,0.212384,0.0396666005,0.179688007
3770,0.212384,0.0396666005,0.1875
3771,0.212384,0.0396666005,0.195311993
3772,0.212384,0.0396666005,0.203125
3773,0.212384,0.0396666005,0.210936993
3774,0.212384,0.0396666005,0.21875
3775,0.212384,0.0396666005,0.226561993
3776,0.212384,0.0396666005,0.234375
3777,0.212384,0.0396666005,0.242186993
3778,0.212384,0.0396666005,0.25
3779,0.212384,0.0396666005,0.257811993
3780,0.212384,0.0396666005,0.265625
3781,0.212384,0.0396666005,0.273436993
3782,0.212384,0.0396666005,0.28125
3783,0.212384,0.0396666005,0.289061993
3784,0.212384,0.0396666005,0.296875
3785,0.212384,0.0396666005,0.304688007
3786,0.212384,0.0396666005,0.3125
3787,0.212387994,0.0390257016,-0.374989003
3788,0.212394997,0.0390018001,0.374989003
3789,0.21243,0.0388300009,-0.367181003
3790,0.212433994,0.0388154015,0.367181987
3791,0.212486997,0.0386394002,-0.359373987
3792,0.212487996,0.0386373997,0.359373987
3793,0.212547004,0.0384528004,0.351565987
3794,0.212548003,0.0384498984,-0.351567
3795,0.212607995,0.0382621996,0.343759
3796,0.212608993,0.0382602997,-0.343759
3797,0.212669,0.0380714983,0.335952014
3798,0.212669998,0.0380708016,-0.335952014
3799,0.212730005,0.0378812999,-0.328144014
3800,0.212730005,0.0378812999,0.328144014
3801,0.212790996,0.0376918018,-0.320336998
3802,0.212790996,0.0376918018,0.320336998
3803,0.224205002,0.0313741006,0.396367997
3804,0.224677995,0.0407606997,-0.390300989
3805,0.224739999,0.0405714996,0.390316993
3806,0.224753007,0.0409856997,-0.179688007
3807,0.224753007,0.0409856997,-0.171875
3808,0.224753007,0.0409856997,-0.164063007
3809,0.224753007,0.0409856997,-0.15625
3810,0.224753007,0.0409856997,-0.148438007
3811,0.224753007,0.0409856997,-0.140625
3812,0.224753007,0.0409856997,-0.132811993
3813,0.224753007,0.0409856997,-0.125
3814,0.224753007,0.0409856997,-0.117187001
3815,0.224753007,0.0409856997,-0.109375
3816,0.224753007,0.0409856997,-0.101562001
3817,0.224753007,0.0409856997,-0.09375
3818,0.224753007,0.0409856997,-0.0859375
3819,0.224753007,0.0409856997,-0.078125
3820,0.224753007,0.0409856997,-0.0703125
3821,0.224753007,0.0409856997,-0.0625
3822,0.224753007,0.0409856997,-0.0546875
3823,0.224753007,0.0409856997,-0.046875
3824,0.224753007,0.0409856997,-0.0390625
3825,0.224753007,0.0409856997,-0.03125
3826,0.224753007,0.0409856997,-0.0234375
3827,0.224753007,0.0409856997,-0.015625
3828,0.224753007,0.0409856997,-0.0078125
3829,0.224753007,0.0409856997,0
3830,0.224753007,0.0409856997,0.0078125
3831,0.224753007,0.0409856997,0.015625
3832,0.224753007,0.0409856997,0.0234375
3833,0.224753007,0.0409856997,0.03125
3834,0.224753007,0.0409856997,0.0390625
3835,0.224753007,0.0409856997,0.046875
3836,0.224753007,0.0409856997,0.0546875
3837,0.224753007,0.0409856997,0.0625
3838,0.224753007,0.0409856997,0.0703125
3839,0.224753007,0.0409856997,0.078125
3840,0.224753007,0.0409856997,0.0859375
3841,0.224753007,0.0409856997,0.09375
3842,0.224753007,0.0409856997,0.101562001
3843,0.224753007,0.0409856997,0.109375
3844,0.224753007,0.0409856997,0.117187001
3845,0.224753007,0.0409856997,0.125
3846,0.224753007,0.0409856997,0.132811993
3847,0.224753007,0.0409856997,0.140625
3848,0.224753007,0.0409856997,0.148438007
3849,0.224753007,0.0409856997,0.15625
3850,0.224753007,0.0409856997,0.164063007
3851,0.224753007,0.0409856997,0.171875
3852,0.224753007,0.0409856997,0.179688007
3853,0.224791005,0.0406038985,-0.382768005
3854,0.224809006,0.0404310003,-0.374958992
3855,0.224818006,0.0403422005,0.382773012
3856,0.224827006,0.0402580984,-0.367150009
3857,0.224845007,0.0400852002,-0.359342009
3858,0.224861994,0.0399165004,0.374971002
3859,0.224862993,0.0399122983,-0.351532996
3860,0.224876001,0.0397875011,0.351536006
3861,0.224879995,0.0397441015,0.367161989
3862,0.224880993,0.0397392996,-0.343724012
3863,0.224884003,0.0397147015,0.343724996
3864,0.224886,0.0396868996,0.359351009
3865,0.224898994,0.039562799,0.335916013
3866,0.224898994,0.0395664014,-0.335916013
3867,0.224916995,0.0393934995,-0.328106999
3868,0.224916995,0.0393934995,0.328106999
3869,0.224934995,0.0392206013,-0.320299
3870,0.224934995,0.0392206013,0.320299
3871,0.224952996,0.0390476994,-0.312489986
3872,0.224952996,0.0390476994,0.312489986
3873,0.224970996,0.0388748012,-0.304681003
3874,0.224970996,0.0388748012,0.304681003
3875,0.224988997,0.0387018993,-0.296873003
3876,0.224988997,0.0387018993,0.296873003
3877,0.225006998,0.0385290012,-0.28906399
3878,0.225006998,0.0385290012,0.28906399
3879,0.225024998,0.0383560993,-0.281255007
3880,0.225024998,0.0383560993,0.281255007
3881,0.225042999,0.0381832011,-0.273447007
3882,0.225042999,0.0381832011,0.273447007
3883,0.225061998,0.0380102992,-0.265637994
3884,0.225061998,0.0380102992,0.265637994
3885,0.225079998,0.037837401,-0.257829994
3886,0.225079998,0.037837401,0.257829994
3887,0.225097999,0.0376644991,-0.250021011
3888,0.225097999,0.0376644991,0.250021011
3889,0.225116,0.037491601,-0.242211998
3890,0.225116,0.037491601,0.242211998
3891,0.225134,0.0373186991,-0.234403998
3892,0.225134,0.0373186991,0.234403998
3893,0.225152001,0.0371458009,-0.226594999
3894,0.225152001,0.0371458009,0.226594999
3895,0.225170001,0.036972899,-0.218786001
3896,0.225170001,0.036972899,0.218786001
3897,0.225188002,0.0368000008,-0.210978001
3898,0.225188002,0.0368000008,0.210978001
3899,0.225206003,0.0366270989,-0.203169003
3900,0.225206003,0.0366270989,0.203169003
3901,0.225224003,0.0364542007,-0.195361003
3902,0.225224003,0.0364542007,0.195361003
3903,0.225242004,0.0362812988,-0.187552005
3904,0.225242004,0.0362812988,0.187552005
3905,0.225392997,0.0240515992,-0.335952997
3906,0.225392997,0.0240515992,0.335952997
3907,0.225448996,0.0238764994,-0.343760997
3908,0.225448996,0.0238764994,0.343760997
3909,0.225486994,0.0322813988,-0.396358013
3910,0.225505993,0.0237013996,-0.35157001
3911,0.225505993,0.0237013996,0.35157001
3912,0.225563005,0.0235262997,-0.35937801
3913,0.225563005,0.0235262997,0.35937801
3914,0.225591004,0.0319061987,0.396337003
3915,0.225620002,0.0233513005,-0.36718601
3916,0.225620002,0.0233513005,0.36718601
3917,0.225676998,0.0231762007,-0.37499401
3918,0.225676998,0.0231762007,0.37499401
3919,0.225732997,0.0230011009,-0.38280201
3920,0.225732997,0.0230011009,0.38280201
3921,0.225756004,0.0228208005,-0.390374005
3922,0.225803003,0.0228383001,0.390383989
3923,0.225858003,0.0226154998,-0.328125
3924,0.225858003,0.0226154998,-0.320311993
3925,0.225858003,0.0226154998,-0.3125
3926,0.225858003,0.0226154998,-0.304688007
3927,0.225858003,0.0226154998,-0.296875
3928,0.225858003,0.0226154998,-0.289063007
3929,0.225858003,0.0226154998,-0.28125
3930,0.225858003,0.0226154998,-0.273436993
3931,0.225858003,0.0226154998,-0.265625
3932,0.225858003,0.0226154998,-0.257811993
3933,0.225858003,0.0226154998,-0.25
3934,0.225858003,0.0226154998,-0.242186993
3935,0.225858003,0.0226154998,-0.234375
3936,0.225858003,0.0226154998,-0.226561993
3937,0.225858003,0.0226154998,-0.21875
3938,0.225858003,0.0226154998,-0.210936993
3939,0.225858003,0.0226154998,-0.203125
3940,0.225858003,0.0226154998,-0.195311993
3941,0.225858003,0.0226154998,-0.1875
3942,0.225858003,0.0226154998,-0.179686993
3943,0.225858003,0.0226154998,-0.171875
3944,0.225858003,0.0226154998,-0.164061993
3945,0.225858003,0.0226154998,-0.15625
3946,0.225858003,0.0226154998,-0.148436993
3947,0.225858003,0.0226154998,-0.140625
3948,0.225858003,0.0226154998,-0.132813007
3949,0.225858003,0.0226154998,-0.125
3950,0.225858003,0.0226154998,-0.117187001
3951,0.225858003,0.0226154998,-0.109375
3952,0.225858003,0.0226154998,-0.101562001
3953,0.225858003,0.0226154998,-0.09375
3954,0.225858003,0.0226154998,-0.0859375
3955,0.225858003,0.0226154998,-0.078125
3956,0.225858003,0.0226154998,-0.0703125
3957,0.225858003,0.0226154998,-0.0625
3958,0.225858003,0.0226154998,-0.0546875
3959,0.225858003,0.0226154998,-0.046875
3960,0.225858003,0.0226154998,-0.0390625
3961,0.225858003,0.0226154998,-0.03125
3962,0.225858003,0.0226154998,-0.0234375
3963,0.225858003,0.0226154998,-0.015625
3964,0.225858003,0.0226154998,-0.0078125
3965,0.225858003,0.0226154998,-1e-12
3966,0.225858003,0.0226154998,0.0078125
3967,0.225858003,0.0226154998,0.015625
3968,0.225858003,0.0226154998,0.0234375
3969,0.225858003,0.0226154998,0.03125
3970,0.225858003,0.0226154998,0.0390625
3971,0.225858003,0.0226154998,0.046875
3972,0.225858003,0.0226154998,0.0546875
3973,0.225858003,0.0226154998,0.0625
3974,0.225858003,0.0226154998,0.0703125
3975,0.225858003,0.0226154998,0.078125
3976,0.225858003,0.0226154998,0.0859375
3977,0.225858003,0.0226154998,0.09375
3978,0.225858003,0.0226154998,0.101562001
3979,0.225858003,0.0226154998,0.109375
3980,0.225858003,0.0226154998,0.117187001
3981,0.225858003,0.0226154998,0.125
3982,0.225858003,0.0226154998,0.132813007
3983,0.225858003,0.0226154998,0.140625
3984,0.225858003,0.0226154998,0.148436993
3985,0.225858003,0.0226154998,0.15625
3986,0.225858003,0.0226154998,0.164061993
3987,0.225858003,0.0226154998,0.171875
3988,0.225858003,0.0226154998,0.179688007
3989,0.225858003,0.0226154998,0.1875
3990,0.225858003,0.0226154998,0.195311993
3991,0.225858003,0.0226154998,0.203125
3992,0.225858003,0.0226154998,0.210938007
3993,0.225858003,0.0226154998,0.21875
3994,0.225858003,0.0226154998,0.226561993
3995,0.225858003,0.0226154998,0.234375
3996,0.225858003,0.0226154998,0.242188007
3997,0.225858003,0.0226154998,0.25
3998,0.225858003,0.0226154998,0.257813007
3999,0.225858003,0.0226154998,0.265625
4000,0.225858003,0.0226154998,0.273438007
4001,0.225858003,0.0226154998,0.28125
4002,0.225858003,0.0226154998,0.289063007
4003,0.225858003,0.0226154998,0.296875
4004,0.225858003,0.0226154998,0.304686993
4005,0.225858003,0.0226154998,0.3125
4006,0.225858003,0.0226154998,0.320313007
4007,0.225858003,0.0226154998,0.328125
4008,0.226438001,0.0228934009,-0.396286994
4009,0.236250997,0.0409681983,0.382786989
4010,0.236386001,0.0395937003,0.375001013
4011,0.236411005,0.0395869985,0.367193997
4012,0.236443996,0.0413680002,0.390320987
4013,0.236513004,0.0261064004,0.367211014
4014,0.236518994,0.0261084996,0.359423012
4015,0.236521006,0.0261090007,-0.382811993
4016,0.236521006,0.0261090007,-0.375
4017,0.236521006,0.0261090007,-0.367188007
4018,0.236521006,0.0261090007,-0.359375
4019,0.236521006,0.0261090007,-0.351561993
4020,0.236521006,0.0261090007,-0.34375
4021,0.236521006,0.0261090007,-0.335938007
4022,0.236521006,0.0261090007,-0.328125
4023,0.236521006,0.0261090007,-0.320311993
4024,0.236521006,0.0261090007,-0.3125
4025,0.236521006,0.0261090007,-0.304688007
4026,0.236521006,0.0261090007,-0.296875
4027,0.236521006,0.0261090007,-0.289063007
4028,0.236521006,0.0261090007,-0.28125
4029,0.236521006,0.0261090007,-0.273438007
4030,0.236521006,0.0261090007,-0.265625
4031,0.236521006,0.0261090007,-0.257811993
4032,0.236521006,0.0261090007,-0.25
4033,0.236521006,0.0261090007,-0.242186993
4034,0.236521006,0.0261090007,-0.234375
4035,0.236521006,0.0261090007,-0.226561993
4036,0.236521006,0.0261090007,-0.21875
4037,0.236521006,0.0261090007,-0.210936993
4038,0.236521006,0.0261090007,-0.203125
4039,0.236521006,0.0261090007,-0.195311993
4040,0.236521006,0.0261090007,-0.1875
4041,0.236521006,0.0261090007,-0.179688007
4042,0.236521006,0.0261090007,-0.171875
4043,0.236521006,0.0261090007,-0.164063007
4044,0.236521006,0.0261090007,-0.15625
4045,0.236521006,0.0261090007,-0.148438007
4046,0.236521006,0.0261090007,-0.140625
4047,0.236521006,0.0261090007,-0.132813007
4048,0.236521006,0.0261090007,-0.125
4049,0.236521006,0.0261090007,-0.117187999
4050,0.236521006,0.0261090007,-0.109375
4051,0.236521006,0.0261090007,-0.101562001
4052,0.236521006,0.0261090007,-0.09375
4053,0.236521006,0.0261090007,-0.0859375
4054,0.236521006,0.0261090007,-0.078125
4055,0.236521006,0.0261090007,-0.0703125
4056,0.236521006,0.0261090007,-0.0625
4057,0.236521006,0.0261090007,-0.0546875
4058,0.236521006,0.0261090007,-0.046875
4059,0.236521006,0.0261090007,-0.0390625
4060,0.236521006,0.0261090007,-0.03125
4061,0.236521006,0.0261090007,-0.0234375
4062,0.236521006,0.0261090007,-0.015625
4063,0.236521006,0.0261090007,-0.0078125
4064,0.236521006,0.0261090007,0
4065,0.236521006,0.0261090007,0.0078125
4066,0.236521006,0.0261090007,0.015625
4067,0.236521006,0.0261090007,0.0234375
4068,0.236521006,0.0261090007,0.03125
4069,0.236521006,0.0261090007,0.0390625
4070,0.236521006,0.0261090007,0.046875
4071,0.236521006,0.0261090007,0.0546875
4072,0.236521006,0.0261090007,0.0625
4073,0.236521006,0.0261090007,0.0703125
4074,0.236521006,0.0261090007,0.078125
4075,0.236521006,0.0261090007,0.0859375
4076,0.236521006,0.0261090007,0.09375
4077,0.236521006,0.0261090007,0.101562999
4078,0.236521006,0.0261090007,0.109375
4079,0.236521006,0.0261090007,0.117187001
4080,0.236521006,0.0261090007,0.125
4081,0.236521006,0.0261090007,0.132813007
4082,0.236521006,0.0261090007,0.140625
4083,0.236521006,0.0261090007,0.148436993
4084,0.236521006,0.0261090007,0.15625
4085,0.236521006,0.0261090007,0.164061993
4086,0.236521006,0.0261090007,0.171875
4087,0.236521006,0.0261090007,0.179686993
4088,0.236521006,0.0261090007,0.1875
4089,0.236521006,0.0261090007,0.195311993
4090,0.236521006,0.0261090007,0.203125
4091,0.236521006,0.0261090007,0.210936993
4092,0.236521006,0.0261090007,0.21875
4093,0.236521006,0.0261090007,0.226563007
4094,0.236521006,0.0261090007,0.234375
4095,0.236521006,0.0261090007,0.242186993
4096,0.236521006,0.0261090007,0.25
4097,0.236521006,0.0261090007,0.257813007
4098,0.236521006,0.0261090007,0.265625
4099,0.236521006,0.0261090007,0.273438007
4100,0.236521006,0.0261090007,0.28125
4101,0.236521006,0.0261090007,0.289061993
4102,0.236521006,0.0261090007,0.296875
4103,0.236521006,0.0261090007,0.304686993
4104,0.236521006,0.0261090007,0.3125
4105,0.236521006,0.0261090007,0.320313007
4106,0.236521006,0.0261090007,0.328125
4107,0.236521006,0.0261090007,0.335938007
4108,0.236521006,0.0261090007,0.34375
4109,0.236534998,0.0261138994,0.351585001
4110,0.236536995,0.0261144005,0.375
4111,0.236537993,0.0261124,0.382811993
4112,0.236550003,0.0261186007,-0.390388995
4113,0.236555994,0.0393928997,0.359360009
4114,0.236580998,0.0421831012,-0.0390625
4115,0.236580998,0.0421831012,-0.03125
4116,0.236580998,0.0421831012,-0.0234375
4117,0.236580998,0.0421831012,-0.015625
4118,0.236580998,0.0421831012,-0.0078125
4119,0.236580998,0.0421831012,-1e-12
4120,0.236580998,0.0421831012,0.0078125
4121,0.236580998,0.0421831012,0.015625
4122,0.236580998,0.0421831012,0.0234375
4123,0.236580998,0.0421831012,0.03125
4124,0.236580998,0.0421831012,0.0390625
4125,0.236610994,0.0261228997,0.390341014
4126,0.236613005,0.0418593995,-0.382755011
4127,0.236626998,0.0417127982,-0.374945015
4128,0.236638993,0.0346666016,-0.396421999
4129,0.236642003,0.0415662006,-0.367134988
4130,0.236653,0.0406006984,0.351516992
4131,0.236655995,0.0414195992,-0.359324992
4132,0.236671001,0.0412730016,-0.351516008
4133,0.236684993,0.0411264002,-0.343706012
4134,0.236697003,0.0262439009,-0.396414995
4135,0.236699,0.0409862995,0.343708992
4136,0.236699998,0.0409798995,-0.335895985
4137,0.236701995,0.0409605987,0.335896999
4138,0.236714005,0.0408333018,-0.328087002
4139,0.236714005,0.0408333018,0.328087002
4140,0.236728996,0.0406867005,-0.320277005
4141,0.236728996,0.0406867005,0.320277005
4142,0.236743003,0.0405400991,-0.312467009
4143,0.236743003,0.0405400991,0.312467009
4144,0.236757994,0.0403935015,-0.304657012
4145,0.236757994,0.0403935015,0.304657012
4146,0.236772001,0.0402469002,-0.296847999
4147,0.236772001,0.0402469002,0.296847999
4148,0.236774996,0.0346958004,-0.398086995
4149,0.236787006,0.0401002988,-0.289038002
4150,0.236787006,0.0401002988,0.289038002
4151,0.236800998,0.0399538018,-0.281228006
4152,0.236800998,0.0399538018,0.281228006
4153,0.236816004,0.0398072004,-0.273418009
4154,0.236816004,0.0398072004,0.273418009
4155,0.236829996,0.0396605991,-0.265608996
4156,0.236829996,0.0396605991,0.265608996
4157,0.236845002,0.0395140015,-0.257799
4158,0.236845002,0.0395140015,0.257799
4159,0.236858994,0.0393674001,-0.249989003
4160,0.236858994,0.0393674001,0.249989003
4161,0.236873999,0.0392207988,-0.242180005
4162,0.236873999,0.0392207988,0.242180005
4163,0.236888006,0.0390743017,-0.234369993
4164,0.236888006,0.0390743017,0.234369993
4165,0.236902997,0.0389277004,-0.226559997
4166,0.236902997,0.0389277004,0.226559997
4167,0.236917004,0.038781099,-0.21875
4168,0.236917004,0.038781099,0.21875
4169,0.236931995,0.0386345014,-0.210941002
4170,0.236931995,0.0386345014,0.210941002
4171,0.236946002,0.0384879,-0.203131005
4172,0.236946002,0.0384879,0.203131005
4173,0.236961007,0.0383412987,-0.195320994
4174,0.236961007,0.0383412987,0.195320994
4175,0.236974999,0.0381947011,-0.187511995
4176,0.236974999,0.0381947011,0.187511995
4177,0.236990005,0.0380482003,-0.179701999
4178,0.236990005,0.0380482003,0.179701999
4179,0.237003997,0.037901599,-0.171892002
4180,0.237003997,0.037901599,0.171892002
4181,0.237019002,0.0377550013,-0.164082006
4182,0.237019002,0.0377550013,0.164082006
4183,0.237032995,0.0376084,-0.156273007
4184,0.237032995,0.0376084,0.156273007
4185,0.237048,0.0374617986,-0.148462996
4186,0.237048,0.0374617986,0.148462996
4187,0.237062007,0.037315201,-0.140652999
4188,0.237062007,0.037315201,0.140652999
4189,0.237076998,0.0371685997,-0.132843003
4190,0.237076998,0.0371685997,0.132843003
4191,0.237091005,0.0370220989,-0.125034004
4192,0.237091005,0.0370220989,0.125034004
4193,0.237105995,0.0368755013,-0.117224
4194,0.237105995,0.0368755013,0.117224
4195,0.237120003,0.0367288999,-0.109413996
4196,0.237120003,0.0367288999,0.109413996
4197,0.237134993,0.0365822986,-0.101604998
4198,0.237134993,0.0365822986,0.101604998
4199,0.237149,0.036435701,-0.0937948972
4200,0.237149,0.036435701,0.0937948972
4201,0.237164006,0.0362890996,-0.0859851018
4202,0.237164006,0.0362890996,0.0859851018
4203,0.237177998,0.0361424983,-0.0781754032
4204,0.237177998,0.0361424983,0.0781754032
4205,0.237193003,0.0359960012,-0.0703656971
4206,0.237193003,0.0359960012,0.0703656971
4207,0.237206995,0.0358493999,-0.0625559986
4208,0.237206995,0.0358493999,0.0625559986
4209,0.237222001,0.0357027985,-0.0547463
4210,0.237222001,0.0357027985,0.0547463
4211,0.237256005,0.0355582014,-0.0469366014
4212,0.237256005,0.0355582014,0.0469366014
4213,0.237342998,0.0345087014,0.396266997
4214,0.237506002,0.0265884008,0.396228999
4215,0.237705007,0.0348947011,-0.390424013
4216,0.242985994,0.0282553993,-0.397056997
4217,0.243365005,0.0361053012,-0.397224993
4218,0.244457006,0.0287820008,-0.398164988
4219,0.245995998,0.0292622,-0.382813007
4220,0.245995998,0.0292622,-0.375
4221,0.245995998,0.0292622,-0.367188007
4222,0.245995998,0.0292622,-0.359375
4223,0.245995998,0.0292622,-0.351561993
4224,0.245995998,0.0292622,-0.34375
4225,0.245995998,0.0292622,-0.335938007
4226,0.245995998,0.0292622,-0.328125
4227,0.245995998,0.0292622,-0.320311993
4228,0.245995998,0.0292622,-0.3125
4229,0.245995998,0.0292622,-0.304688007
4230,0.245995998,0.0292622,-0.296875
4231,0.245995998,0.0292622,-0.289063007
4232,0.245995998,0.0292622,-0.28125
4233,0.245995998,0.0292622,-0.273438007
4234,0.245995998,0.0292622,-0.265625
4235,0.245995998,0.0292622,-0.257811993
4236,0.245995998,0.0292622,-0.25
4237,0.245995998,0.0292622,-0.242186993
4238,0.245995998,0.0292622,-0.234375
4239,0.245995998,0.0292622,-0.226561993
4240,0.245995998,0.0292622,-0.21875
4241,0.245995998,0.0292622,-0.210936993
4242,0.245995998,0.0292622,-0.203125
4243,0.245995998,0.0292622,-0.195313007
4244,0.245995998,0.0292622,-0.1875
4245,0.245995998,0.0292622,-0.179688007
4246,0.245995998,0.0292622,-0.171875
4247,0.245995998,0.0292622,-0.164061993
4248,0.245995998,0.0292622,-0.15625
4249,0.245995998,0.0292622,-0.148438007
4250,0.245995998,0.0292622,-0.140625
4251,0.245995998,0.0292622,-0.132813007
4252,0.245995998,0.0292622,-0.125
4253,0.245995998,0.0292622,-0.117187001
4254,0.245995998,0.0292622,-0.109375
4255,0.245995998,0.0292622,-0.101562999
4256,0.245995998,0.0292622,-0.09375
4257,0.245995998,0.0292622,-0.0859375
4258,0.245995998,0.0292622,-0.078125
4259,0.245995998,0.0292622,-0.0703125
4260,0.245995998,0.0292622,-0.0625
4261,0.245995998,0.0292622,-0.0546875
4262,0.245995998,0.0292622,-0.046875
4263,0.245995998,0.0292622,-0.0390625
4264,0.245995998,0.0292622,-0.03125
4265,0.245995998,0.0292622,-0.0234375
4266,0.245995998,0.0292622,-0.015625
4267,0.245995998,0.0292622,-0.0078125
4268,0.245995998,0.0292622,0
4269,0.245995998,0.0292622,0.0078125
4270,0.245995998,0.0292622,0.015625
4271,0.245995998,0.0292622,0.0234375
4272,0.245995998,0.0292622,0.03125
4273,0.245995998,0.0292622,0.0390625
4274,0.245995998,0.0292622,0.046875
4275,0.245995998,0.0292622,0.0546875
4276,0.245995998,0.0292622,0.0625
4277,0.245995998,0.0292622,0.0703125
4278,0.245995998,0.0292622,0.078125
4279,0.245995998,0.0292622,0.0859375
4280,0.245995998,0.0292622,0.09375
4281,0.245995998,0.0292622,0.101562001
4282,0.245995998,0.0292622,0.109375
4283,0.245995998,0.0292622,0.117187001
4284,0.245995998,0.0292622,0.125
4285,0.245995998,0.0292622,0.132811993
4286,0.245995998,0.0292622,0.140625
4287,0.245995998,0.0292622,0.148436993
4288,0.245995998,0.0292622,0.15625
4289,0.245995998,0.0292622,0.164061993
4290,0.245995998,0.0292622,0.171875
4291,0.245995998,0.0292622,0.179688007
4292,0.245995998,0.0292622,0.1875
4293,0.245995998,0.0292622,0.195311993
4294,0.245995998,0.0292622,0.203125
4295,0.245995998,0.0292622,0.210938007
4296,0.245995998,0.0292622,0.21875
4297,0.245995998,0.0292622,0.226563007
4298,0.245995998,0.0292622,0.234375
4299,0.245995998,0.0292622,0.242186993
4300,0.245995998,0.0292622,0.25
4301,0.245995998,0.0292622,0.257811993
4302,0.245995998,0.0292622,0.265625
4303,0.245995998,0.0292622,0.273438007
4304,0.245995998,0.0292622,0.28125
4305,0.245995998,0.0292622,0.289063007
4306,0.245995998,0.0292622,0.296875
4307,0.245995998,0.0292622,0.304688007
4308,0.245995998,0.0292622,0.3125
4309,0.245995998,0.0292622,0.320313007
4310,0.245995998,0.0292622,0.328125
4311,0.245995998,0.0292622,0.335938007
4312,0.245995998,0.0292622,0.34375
4313,0.245998994,0.0292629991,-0.390529007
4314,0.246011004,0.0292671993,0.351586014
4315,0.246132001,0.0292827003,0.395844012
4316,0.246362001,0.0293847006,-0.396690995
4317,0.246482998,0.0294253994,0.359966993
4318,0.246529996,0.0367822014,-0.0078125
4319,0.246529996,0.0367822014,0
4320,0.246529996,0.0367822014,0.0078125
4321,0.246696994,0.0373886004,-0.0469175987
4322,0.246696994,0.0373886004,0.0469175987
4323,0.246739,0.037264701,-0.0391073003
4324,0.246739,0.037264701,0.0391073003
4325,0.246779993,0.0371408015,-0.0312969983
4326,0.246779993,0.0371408015,0.0312969983
4327,0.246822,0.0370168984,-0.0234866999
4328,0.246822,0.0370168984,0.0234866999
4329,0.246864006,0.036892999,-0.0156763997
4330,0.246864006,0.036892999,0.0156763997
4331,0.246933997,0.0295503009,0.390334994
4332,0.247012004,0.0296029001,0.367256999
4333,0.247102007,0.0296327006,0.375
4334,0.247104004,0.0296279993,0.382813007
4335,0.247132003,0.0296430998,-0.39427799
4336,0.247134998,0.0296442006,-0.386718988
4337,0.247134998,0.0296442006,-0.378906012
4338,0.247134998,0.0296442006,-0.371093988
4339,0.247134998,0.0296442006,-0.363281012
4340,0.247134998,0.0296442006,-0.355468988
4341,0.247134998,0.0296442006,-0.347656012
4342,0.247134998,0.0296442006,-0.339843988
4343,0.247134998,0.0296442006,-0.332031012
4344,0.247134998,0.0296442006,-0.324218988
4345,0.247134998,0.0296442006,-0.316406012
4346,0.247134998,0.0296442006,-0.308593988
4347,0.247134998,0.0296442006,-0.300781012
4348,0.247134998,0.0296442006,-0.292968988
4349,0.247134998,0.0296442006,-0.285156012
4350,0.247134998,0.0296442006,-0.277343988
4351,0.247134998,0.0296442006,-0.269531012
4352,0.247134998,0.0296442006,-0.261718988
4353,0.247134998,0.0296442006,-0.253906012
4354,0.247134998,0.0296442006,-0.246094003
4355,0.247134998,0.0296442006,-0.238280997
4356,0.247134998,0.0296442006,-0.230469003
4357,0.247134998,0.0296442006,-0.222655997
4358,0.247134998,0.0296442006,-0.214844003
4359,0.247134998,0.0296442006,-0.207030997
4360,0.247134998,0.0296442006,-0.199219003
4361,0.247134998,0.0296442006,-0.191405997
4362,0.247134998,0.0296442006,-0.183594003
4363,0.247134998,0.0296442006,-0.175780997
4364,0.247134998,0.0296442006,-0.167969003
4365,0.247134998,0.0296442006,-0.160155997
4366,0.247134998,0.0296442006,-0.152344003
4367,0.247134998,0.0296442006,-0.144530997
4368,0.247134998,0.0296442006,-0.136719003
4369,0.247134998,0.0296442006,-0.128905997
4370,0.247134998,0.0296442006,-0.121094003
4371,0.247134998,0.0296442006,-0.113280997
4372,0.247134998,0.0296442006,-0.105469003
4373,0.247134998,0.0296442006,-0.0976563022
4374,0.247134998,0.0296442006,-0.0898436978
4375,0.247134998,0.0296442006,-0.0820313022
4376,0.247134998,0.0296442006,-0.0742188022
4377,0.247134998,0.0296442006,-0.0664063022
4378,0.247134998,0.0296442006,-0.0585937016
4379,0.247134998,0.0296442006,-0.0507812016
4380,0.247134998,0.0296442006,-0.0429687984
4381,0.247134998,0.0296442006,-0.0351562984
4382,0.247134998,0.0296442006,-0.0273436997
4383,0.247134998,0.0296442006,-0.0195313003
4384,0.247134998,0.0296442006,-0.0117186997
4385,0.247134998,0.0296442006,-0.00390625
4386,0.247134998,0.0296442006,0.00390625
4387,0.247134998,0.0296442006,0.0117188003
4388,0.247134998,0.0296442006,0.0195313003
4389,0.247134998,0.0296442006,0.0273438003
4390,0.247134998,0.0296442006,0.0351562016
4391,0.247134998,0.0296442006,0.0429687984
4392,0.247134998,0.0296442006,0.0507812016
4393,0.247134998,0.0296442006,0.0585937984
4394,0.247134998,0.0296442006,0.0664063022
4395,0.247134998,0.0296442006,0.0742188022
4396,0.247134998,0.0296442006,0.0820313022
4397,0.247134998,0.0296442006,0.0898436978
4398,0.247134998,0.0296442006,0.0976561978
4399,0.247134998,0.0296442006,0.105469003
4400,0.247134998,0.0296442006,0.113280997
4401,0.247134998,0.0296442006,0.121094003
4402,0.247134998,0.0296442006,0.128905997
4403,0.247134998,0.0296442006,0.136719003
4404,0.247134998,0.0296442006,0.144530997
4405,0.247134998,0.0296442006,0.152344003
4406,0.247134998,0.0296442006,0.160155997
4407,0.247134998,0.0296442006,0.167969003
4408,0.247134998,0.0296442006,0.175780997
4409,0.247134998,0.0296442006,0.183594003
4410,0.247134998,0.0296442006,0.191405997
4411,0.247134998,0.0296442006,0.199219003
4412,0.247134998,0.0296442006,0.207030997
4413,0.247134998,0.0296442006,0.214844003
4414,0.247134998,0.0296442006,0.222655997
4415,0.247134998,0.0296442006,0.230469003
4416,0.247134998,0.0296442006,0.238280997
4417,0.247134998,0.0296442006,0.246094003
4418,0.247134998,0.0296442006,0.253906012
4419,0.247134998,0.0296442006,0.261718988
4420,0.247134998,0.0296442006,0.269531012
4421,0.247134998,0.0296442006,0.277343988
4422,0.247134998,0.0296442006,0.285156012
4423,0.247134998,0.0296442006,0.292968988
4424,0.247134998,0.0296442006,0.300781012
4425,0.247134998,0.0296442006,0.308593988
4426,0.247134998,0.0296442006,0.316406012
4427,0.247134998,0.0296442006,0.324218988
4428,0.247134998,0.0296442006,0.332031012
4429,0.247134998,0.0296442006,0.339843988
4430,0.247134998,0.0296442006,0.347656012
4431,0.247235,0.0296778008,0.355547994
4432,0.248125002,0.0301424991,0.396270007
4433,0.249206007,0.0373544991,-0.396728009
4434,0.249275997,0.0368217006,0.395599008
4435,0.250151008,0.0307014994,-0.397496015
4436,0.250883013,0.0445868,0.366636008
4437,0.250968993,0.0432331003,0.359373987
4438,0.251224995,0.0428650007,0.351581991
4439,0.25128001,0.0435849018,-0.265625
4440,0.25128001,0.0435849018,-0.257813007
4441,0.25128001,0.0435849018,-0.25
4442,0.25128001,0.0435849018,-0.242186993
4443,0.25128001,0.0435849018,-0.234375
4444,0.25128001,0.0435849018,-0.226561993
4445,0.25128001,0.0435849018,-0.21875
4446,0.25128001,0.0435849018,-0.210938007
4447,0.25128001,0.0435849018,-0.203125
4448,0.25128001,0.0435849018,-0.195313007
4449,0.25128001,0.0435849018,-0.1875
4450,0.25128001,0.0435849018,-0.179688007
4451,0.25128001,0.0435849018,-0.171875
4452,0.25128001,0.0435849018,-0.164063007
4453,0.25128001,0.0435849018,-0.15625
4454,0.25128001,0.0435849018,-0.148438007
4455,0.25128001,0.0435849018,-0.140625
4456,0.25128001,0.0435849018,-0.132813007
4457,0.25128001,0.0435849018,-0.125
4458,0.25128001,0.0435849018,-0.117187001
4459,0.25128001,0.0435849018,-0.109375
4460,0.25128001,0.0435849018,-0.101562001
4461,0.25128001,0.0435849018,-0.09375
4462,0.25128001,0.0435849018,-0.0859375
4463,0.25128001,0.0435849018,-0.078125
4464,0.25128001,0.0435849018,-0.0703125
4465,0.25128001,0.0435849018,-0.0625
4466,0.25128001,0.0435849018,-0.0546875
4467,0.25128001,0.0435849018,-0.046875
4468,0.25128001,0.0435849018,-0.0390625
4469,0.25128001,0.0435849018,-0.03125
4470,0.25128001,0.0435849018,-0.0234375
4471,0.25128001,0.0435849018,-0.015625
4472,0.25128001,0.0435849018,-0.0078125
4473,0.25128001,0.0435849018,0
4474,0.25128001,0.0435849018,0.0078125
4475,0.25128001,0.0435849018,0.015625
4476,0.25128001,0.0435849018,0.0234375
4477,0.25128001,0.0435849018,0.03125
4478,0.25128001,0.0435849018,0.0390625
4479,0.25128001,0.0435849018,0.046875
4480,0.25128001,0.0435849018,0.0546875
4481,0.25128001,0.0435849018,0.0625
4482,0.25128001,0.0435849018,0.0703125
4483,0.25128001,0.0435849018,0.078125
4484,0.25128001,0.0435849018,0.0859375
4485,0.25128001,0.0435849018,0.09375
4486,0.25128001,0.0435849018,0.101562999
4487,0.25128001,0.0435849018,0.109375
4488,0.25128001,0.0435849018,0.117187001
4489,0.25128001,0.0435849018,0.125
4490,0.25128001,0.0435849018,0.132811993
4491,0.25128001,0.0435849018,0.140625
4492,0.25128001,0.0435849018,0.148438007
4493,0.25128001,0.0435849018,0.15625
4494,0.25128001,0.0435849018,0.164063007
4495,0.25128001,0.0435849018,0.171875
4496,0.25128001,0.0435849018,0.179688007
4497,0.25128001,0.0435849018,0.1875
4498,0.25128001,0.0435849018,0.195311993
4499,0.25128001,0.0435849018,0.203125
4500,0.25128001,0.0435849018,0.210938007
4501,0.25128001,0.0435849018,0.21875
4502,0.25128001,0.0435849018,0.226563007
4503,0.25128001,0.0435849018,0.234375
4504,0.25128001,0.0435849018,0.242186993
4505,0.25128001,0.0435849018,0.25
4506,0.25128001,0.0435849018,0.257811993
4507,0.25128001,0.0435849018,0.265625
4508,0.251302987,0.0433356985,-0.38280201
4509,0.251314014,0.0432224981,-0.374991
4510,0.251323998,0.0431092009,-0.36717999
4511,0.251334012,0.0429960005,-0.359369993
4512,0.251345009,0.0428828001,-0.351559013
4513,0.251354992,0.0427685007,0.343748003
4514,0.251354992,0.0427695997,-0.343748003
4515,0.251365989,0.0426563993,-0.335936993
4516,0.251365989,0.0426563993,0.335936993
4517,0.251376003,0.0425431989,-0.328126013
4518,0.251376003,0.0425431989,0.328126013
4519,0.251387,0.0424299985,-0.320315003
4520,0.251387,0.0424299985,0.320315003
4521,0.251397014,0.0423168018,-0.312503994
4522,0.251397014,0.0423168018,0.312503994
4523,0.251397997,0.0434568003,-0.390491992
4524,0.251406997,0.0422036014,-0.304693997
4525,0.251406997,0.0422036014,0.304693997
4526,0.251417994,0.0420904011,-0.296882987
4527,0.251417994,0.0420904011,0.296882987
4528,0.251428008,0.0419772007,-0.289072007
4529,0.251428008,0.0419772007,0.289072007
4530,0.251439005,0.0418640003,-0.281260997
4531,0.251439005,0.0418640003,0.281260997
4532,0.251448989,0.0417506993,-0.273449987
4533,0.251448989,0.0417506993,0.273449987
4534,0.251644999,0.0435689986,-0.396609008
4535,0.251681,0.047770299,0.37508601
4536,0.251837999,0.0435663983,0.39684999
4537,0.25188899,0.0437633991,0.363164991
4538,0.251902997,0.0450048,0.382811993
4539,0.252032995,0.0476805009,0.369367987
4540,0.252059996,0.0431060009,0.355498999
4541,0.252137005,0.0443246998,0.390412003
4542,0.252169013,0.0436668992,-0.316406012
4543,0.252169013,0.0436668992,-0.308593988
4544,0.252169013,0.0436668992,-0.300781012
4545,0.252169013,0.0436668992,-0.292968988
4546,0.252169013,0.0436668992,-0.285156012
4547,0.252169013,0.0436668992,-0.277343988
4548,0.252169013,0.0436668992,-0.269531012
4549,0.252169013,0.0436668992,-0.261718988
4550,0.252169013,0.0436668992,-0.253906012
4551,0.252169013,0.0436668992,-0.246094003
4552,0.252169013,0.0436668992,-0.238280997
4553,0.252169013,0.0436668992,-0.230469003
4554,0.252169013,0.0436668992,-0.222655997
4555,0.252169013,0.0436668992,-0.214844003
4556,0.252169013,0.0436668992,-0.207030997
4557,0.252169013,0.0436668992,-0.199219003
4558,0.252169013,0.0436668992,-0.191405997
4559,0.252169013,0.0436668992,-0.183594003
4560,0.252169013,0.0436668992,-0.175780997
4561,0.252169013,0.0436668992,-0.167969003
4562,0.252169013,0.0436668992,-0.160155997
4563,0.252169013,0.0436668992,-0.152344003
4564,0.252169013,0.0436668992,-0.144530997
4565,0.252169013,0.0436668992,-0.136719003
4566,0.252169013,0.0436668992,-0.128905997
4567,0.252169013,0.0436668992,-0.121094003
4568,0.252169013,0.0436668992,-0.113280997
4569,0.252169013,0.0436668992,-0.105469003
4570,0.252169013,0.0436668992,-0.0976563022
4571,0.252169013,0.0436668992,-0.0898438022
4572,0.252169013,0.0436668992,-0.0820313022
4573,0.252169013,0.0436668992,-0.0742186978
4574,0.252169013,0.0436668992,-0.0664063022
4575,0.252169013,0.0436668992,-0.0585937984
4576,0.252169013,0.0436668992,-0.0507812016
4577,0.252169013,0.0436668992,-0.0429687016
4578,0.252169013,0.0436668992,-0.0351562984
4579,0.252169013,0.0436668992,-0.0273438003
4580,0.252169013,0.0436668992,-0.0195311997
4581,0.252169013,0.0436668992,-0.0117188003
4582,0.252169013,0.0436668992,-0.00390625
4583,0.252169013,0.0436668992,0.00390625
4584,0.252169013,0.0436668992,0.0117186997
4585,0.252169013,0.0436668992,0.0195313003
4586,0.252169013,0.0436668992,0.0273438003
4587,0.252169013,0.0436668992,0.0351562016
4588,0.252169013,0.0436668992,0.0429687016
4589,0.252169013,0.0436668992,0.0507812016
4590,0.252169013,0.0436668992,0.0585937016
4591,0.252169013,0.0436668992,0.0664063022
4592,0.252169013,0.0436668992,0.0742186978
4593,0.252169013,0.0436668992,0.0820313022
4594,0.252169013,0.0436668992,0.0898438022
4595,0.252169013,0.0436668992,0.0976561978
4596,0.252169013,0.0436668992,0.105469003
4597,0.252169013,0.0436668992,0.113280997
4598,0.252169013,0.0436668992,0.121094003
4599,0.252169013,0.0436668992,0.128905997
4600,0.252169013,0.0436668992,0.136719003
4601,0.252169013,0.0436668992,0.144530997
4602,0.252169013,0.0436668992,0.152344003
4603,0.252169013,0.0436668992,0.160155997
4604,0.252169013,0.0436668992,0.167969003
4605,0.252169013,0.0436668992,0.175780997
4606,0.252169013,0.0436668992,0.183594003
4607,0.252169013,0.0436668992,0.191405997
4608,0.252169013,0.0436668992,0.199219003
4609,0.252169013,0.0436668992,0.207030997
4610,0.252169013,0.0436668992,0.214844003
4611,0.252169013,0.0436668992,0.222655997
4612,0.252169013,0.0436668992,0.230469003
4613,0.252169013,0.0436668992,0.238280997
4614,0.252169013,0.0436668992,0.246094003
4615,0.252169013,0.0436668992,0.253906012
4616,0.252169013,0.0436668992,0.261718988
4617,0.252169013,0.0436668992,0.269531012
4618,0.252169013,0.0436668992,0.277343988
4619,0.252169013,0.0436668992,0.285156012
4620,0.252169013,0.0436668992,0.292968988
4621,0.252169013,0.0436668992,0.300781012
4622,0.252169013,0.0436668992,0.308593988
4623,0.252169013,0.0436668992,0.316406012
4624,0.252187014,0.0434743017,-0.386712998
4625,0.252198011,0.0433611013,-0.378901988
4626,0.252207994,0.0432479009,-0.371091008
4627,0.252218008,0.0431347005,-0.363279998
4628,0.252229005,0.0430215001,-0.355468988
4629,0.252238989,0.0429082997,-0.347658992
4630,0.252238989,0.0429109,0.347658008
4631,0.252249002,0.0445735008,0.396026999
4632,0.252249986,0.0427950993,-0.339848012
4633,0.252249986,0.0427954011,0.339848012
4634,0.25226,0.0426818989,-0.332037002
4635,0.25226,0.0426818989,0.332037002
4636,0.252270997,0.0425686985,-0.324225992
4637,0.252270997,0.0425686985,0.324225992
4638,0.252310991,0.0435955003,-0.394225001
4639,0.255699009,0.0325390995,-0.394412011
4640,0.255717009,0.0325452015,-0.390625
4641,0.255717009,0.0325452015,-0.382811993
4642,0.255717009,0.0325452015,-0.375
4643,0.255717009,0.0325452015,-0.367188007
4644,0.255717009,0.0325452015,-0.359375
4645,0.255717009,0.0325452015,-0.351561993
4646,0.255717009,0.0325452015,-0.34375
4647,0.255717009,0.0325452015,-0.335938007
4648,0.255717009,0.0325452015,-0.328125
4649,0.255717009,0.0325452015,-0.320311993
4650,0.255717009,0.0325452015,-0.3125
4651,0.255717009,0.0325452015,-0.304688007
4652,0.255717009,0.0325452015,-0.296875
4653,0.255717009,0.0325452015,-0.289063007
4654,0.255717009,0.0325452015,-0.28125
4655,0.255717009,0.0325452015,-0.273438007
4656,0.255717009,0.0325452015,-0.265625
4657,0.255717009,0.0325452015,-0.257813007
4658,0.255717009,0.0325452015,-0.25
4659,0.255717009,0.0325452015,-0.242186993
4660,0.255717009,0.0325452015,-0.234375
4661,0.255717009,0.0325452015,-0.226561993
4662,0.255717009,0.0325452015,-0.21875
4663,0.255717009,0.0325452015,-0.210936993
4664,0.255717009,0.0325452015,-0.203125
4665,0.255717009,0.0325452015,-0.195313007
4666,0.255717009,0.0325452015,-0.1875
4667,0.255717009,0.0325452015,-0.179686993
4668,0.255717009,0.0325452015,-0.171875
4669,0.255717009,0.0325452015,-0.164061993
4670,0.255717009,0.0325452015,-0.15625
4671,0.255717009,0.0325452015,-0.148438007
4672,0.255717009,0.0325452015,-0.140625
4673,0.255717009,0.0325452015,-0.132811993
4674,0.255717009,0.0325452015,-0.125
4675,0.255717009,0.0325452015,-0.117187001
4676,0.255717009,0.0325452015,-0.109375
4677,0.255717009,0.0325452015,-0.101562001
4678,0.255717009,0.0325452015,-0.09375
4679,0.255717009,0.0325452015,-0.0859375
4680,0.255717009,0.0325452015,-0.078125
4681,0.255717009,0.0325452015,-0.0703125
4682,0.255717009,0.0325452015,-0.0625
4683,0.255717009,0.0325452015,-0.0546875
4684,0.255717009,0.0325452015,-0.046875
4685,0.255717009,0.0325452015,-0.0390625
4686,0.255717009,0.0325452015,-0.03125
4687,0.255717009,0.0325452015,-0.0234375
4688,0.255717009,0.0325452015,-0.015625
4689,0.255717009,0.0325452015,-0.0078125
4690,0.255717009,0.0325452015,0
4691,0.255717009,0.0325452015,0.0078125
4692,0.255717009,0.0325452015,0.015625
4693,0.255717009,0.0325452015,0.0234375
4694,0.255717009,0.0325452015,0.03125
4695,0.255717009,0.0325452015,0.0390625
4696,0.255717009,0.0325452015,0.046875
4697,0.255717009,0.0325452015,0.0546875
4698,0.255717009,0.0325452015,0.0625
4699,0.255717009,0.0325452015,0.0703125
4700,0.255717009,0.0325452015,0.078125
4701,0.255717009,0.0325452015,0.0859375
4702,0.255717009,0.0325452015,0.09375
4703,0.255717009,0.0325452015,0.101562999
4704,0.255717009,0.0325452015,0.109375
4705,0.255717009,0.0325452015,0.117187001
4706,0.255717009,0.0325452015,0.125
4707,0.255717009,0.0325452015,0.132811993
4708,0.255717009,0.0325452015,0.140625
4709,0.255717009,0.0325452015,0.148438007
4710,0.255717009,0.0325452015,0.15625
4711,0.255717009,0.0325452015,0.164063007
4712,0.255717009,0.0325452015,0.171875
4713,0.255717009,0.0325452015,0.179688007
4714,0.255717009,0.0325452015,0.1875
4715,0.255717009,0.0325452015,0.195313007
4716,0.255717009,0.0325452015,0.203125
4717,0.255717009,0.0325452015,0.210938007
4718,0.255717009,0.0325452015,0.21875
4719,0.255717009,0.0325452015,0.226563007
4720,0.255717009,0.0325452015,0.234375
4721,0.255717009,0.0325452015,0.242186993
4722,0.255717009,0.0325452015,0.25
4723,0.255717009,0.0325452015,0.257811993
4724,0.255717009,0.0325452015,0.265625
4725,0.255717009,0.0325452015,0.273438007
4726,0.255717009,0.0325452015,0.28125
4727,0.255717009,0.0325452015,0.289061993
4728,0.255717009,0.0325452015,0.296875
4729,0.255717009,0.0325452015,0.304688007
4730,0.255717009,0.0325452015,0.3125
4731,0.255717009,0.0325452015,0.320311993
4732,0.255717009,0.0325452015,0.328125
4733,0.255717009,0.0325452015,0.335938007
4734,0.255717009,0.0325452015,0.34375
4735,0.255717009,0.0325452015,0.351563007
4736,0.255724996,0.0325478017,-0.386718988
4737,0.255724996,0.0325478017,-0.378906012
4738,0.255724996,0.0325478017,-0.371093988
4739,0.255724996,0.0325478017,-0.363281012
4740,0.255724996,0.0325478017,-0.355468988
4741,0.255724996,0.0325478017,-0.347656012
4742,0.255724996,0.0325478017,-0.339843988
4743,0.255724996,0.0325478017,-0.332031012
4744,0.255724996,0.0325478017,-0.324218988
4745,0.255724996,0.0325478017,-0.316406012
4746,0.255724996,0.0325478017,-0.308593988
4747,0.255724996,0.0325478017,-0.300781012
4748,0.255724996,0.0325478017,-0.292968988
4749,0.255724996,0.0325478017,-0.285156012
4750,0.255724996,0.0325478017,-0.277343988
4751,0.255724996,0.0325478017,-0.269531012
4752,0.255724996,0.0325478017,-0.261718988
4753,0.255724996,0.0325478017,-0.253906012
4754,0.255724996,0.0325478017,-0.246094003
4755,0.255724996,0.0325478017,-0.238280997
4756,0.255724996,0.0325478017,-0.230469003
4757,0.255724996,0.0325478017,-0.222655997
4758,0.255724996,0.0325478017,-0.214844003
4759,0.255724996,0.0325478017,-0.207030997
4760,0.255724996,0.0325478017,-0.199219003
4761,0.255724996,0.0325478017,-0.191405997
4762,0.255724996,0.0325478017,-0.183594003
4763,0.255724996,0.0325478017,-0.175780997
4764,0.255724996,0.0325478017,-0.167969003
4765,0.255724996,0.0325478017,-0.160155997
4766,0.255724996,0.0325478017,-0.152344003
4767,0.255724996,0.0325478017,-0.144530997
4768,0.255724996,0.0325478017,-0.136719003
4769,0.255724996,0.0325478017,-0.128905997
4770,0.255724996,0.0325478017,-0.121094003
4771,0.255724996,0.0325478017,-0.113280997
4772,0.255724996,0.0325478017,-0.105469003
4773,0.255724996,0.0325478017,-0.0976561978
4774,0.255724996,0.0325478017,-0.0898436978
4775,0.255724996,0.0325478017,-0.0820311978
4776,0.255724996,0.0325478017,-0.0742186978
4777,0.255724996,0.0325478017,-0.0664063022
4778,0.255724996,0.0325478017,-0.0585937016
4779,0.255724996,0.0325478017,-0.0507812016
4780,0.255724996,0.0325478017,-0.0429687984
4781,0.255724996,0.0325478017,-0.0351562984
4782,0.255724996,0.0325478017,-0.0273438003
4783,0.255724996,0.0325478017,-0.0195311997
4784,0.255724996,0.0325478017,-0.0117186997
4785,0.255724996,0.0325478017,-0.00390625
4786,0.255724996,0.0325478017,0.00390625
4787,0.255724996,0.0325478017,0.0117186997
4788,0.255724996,0.0325478017,0.0195311997
4789,0.255724996,0.0325478017,0.0273436997
4790,0.255724996,0.0325478017,0.0351562016
4791,0.255724996,0.0325478017,0.0429687016
4792,0.255724996,0.0325478017,0.0507812016
4793,0.255724996,0.0325478017,0.0585937016
4794,0.255724996,0.0325478017,0.0664061978
4795,0.255724996,0.0325478017,0.0742188022
4796,0.255724996,0.0325478017,0.0820311978
4797,0.255724996,0.0325478017,0.0898436978
4798,0.255724996,0.0325478017,0.0976561978
4799,0.255724996,0.0325478017,0.105469003
4800,0.255724996,0.0325478017,0.113280997
4801,0.255724996,0.0325478017,0.121094003
4802,0.255724996,0.0325478017,0.128905997
4803,0.255724996,0.0325478017,0.136719003
4804,0.255724996,0.0325478017,0.144530997
4805,0.255724996,0.0325478017,0.152344003
4806,0.255724996,0.0325478017,0.160155997
4807,0.255724996,0.0325478017,0.167969003
4808,0.255724996,0.0325478017,0.175780997
4809,0.255724996,0.0325478017,0.183594003
4810,0.255724996,0.0325478017,0.191405997
4811,0.255724996,0.0325478017,0.199219003
4812,0.255724996,0.0325478017,0.207030997
4813,0.255724996,0.0325478017,0.214844003
4814,0.255724996,0.0325478017,0.222655997
4815,0.255724996,0.0325478017,0.230469003
4816,0.255724996,0.0325478017,0.238280997
4817,0.255724996,0.0325478017,0.246094003
4818,0.255724996,0.0325478017,0.253906012
4819,0.255724996,0.0325478017,0.261718988
4820,0.255724996,0.0325478017,0.269531012
4821,0.255724996,0.0325478017,0.277343988
4822,0.255724996,0.0325478017,0.285156012
4823,0.255724996,0.0325478017,0.292968988
4824,0.255724996,0.0325478017,0.300781012
4825,0.255724996,0.0325478017,0.308593988
4826,0.255724996,0.0325478017,0.316406012
4827,0.255724996,0.0325478017,0.324218988
4828,0.255724996,0.0325478017,0.332031012
4829,0.255724996,0.0325478017,0.339843988
4830,0.255724996,0.0325478017,0.347656012
4831,0.25574401,0.0325544998,0.355293989
4832,0.255892992,0.0387847014,-0.398216009
4833,0.256071001,0.0326655991,-0.397439986
4834,0.256143004,0.0326901004,0.358049989
4835,0.256307006,0.0440074988,-0.397365004
4836,0.256309003,0.0439626984,0.398068011
4837,0.256514996,0.0382985994,0.397136986
4838,0.256554008,0.0440642014,-0.390625
4839,0.256554008,0.0440642014,-0.382811993
4840,0.256554008,0.0440642014,-0.375
4841,0.256554008,0.0440642014,-0.367188007
4842,0.256554008,0.0440642014,-0.359375
4843,0.256554008,0.0440642014,-0.351563007
4844,0.256554008,0.0440642014,-0.34375
4845,0.256554008,0.0440642014,-0.335938007
4846,0.256554008,0.0440642014,-0.328125
4847,0.256554008,0.0440642014,-0.320311993
4848,0.256554008,0.0440642014,-0.3125
4849,0.256554008,0.0440642014,-0.304688007
4850,0.256554008,0.0440642014,-0.296875
4851,0.256554008,0.0440642014,-0.289063007
4852,0.256554008,0.0440642014,-0.28125
4853,0.256554008,0.0440642014,-0.273438007
4854,0.256554008,0.0440642014,-0.265625
4855,0.256554008,0.0440642014,-0.257811993
4856,0.256554008,0.0440642014,-0.25
4857,0.256554008,0.0440642014,-0.242186993
4858,0.256554008,0.0440642014,-0.234375
4859,0.256554008,0.0440642014,-0.226561993
4860,0.256554008,0.0440642014,-0.21875
4861,0.256554008,0.0440642014,-0.210938007
4862,0.256554008,0.0440642014,-0.203125
4863,0.256554008,0.0440642014,-0.195311993
4864,0.256554008,0.0440642014,-0.1875
4865,0.256554008,0.0440642014,-0.179688007
4866,0.256554008,0.0440642014,-0.171875
4867,0.256554008,0.0440642014,-0.164063007
4868,0.256554008,0.0440642014,-0.15625
4869,0.256554008,0.0440642014,-0.148438007
4870,0.256554008,0.0440642014,-0.140625
4871,0.256554008,0.0440642014,-0.132811993
4872,0.256554008,0.0440642014,-0.125
4873,0.256554008,0.0440642014,-0.117187001
4874,0.256554008,0.0440642014,-0.109375
4875,0.256554008,0.0440642014,-0.101562999
4876,0.256554008,0.0440642014,-0.09375
4877,0.256554008,0.0440642014,-0.0859375
4878,0.256554008,0.0440642014,-0.078125
4879,0.256554008,0.0440642014,-0.0703125
4880,0.256554008,0.0440642014,-0.0625
4881,0.256554008,0.0440642014,-0.0546875
4882,0.256554008,0.0440642014,-0.046875
4883,0.256554008,0.0440642014,-0.0390625
4884,0.256554008,0.0440642014,-0.03125
4885,0.256554008,0.0440642014,-0.0234375
4886,0.256554008,0.0440642014,-0.015625
4887,0.256554008,0.0440642014,-0.0078125
4888,0.256554008,0.0440642014,-0
4889,0.256554008,0.0440642014,0.0078125
4890,0.256554008,0.0440642014,0.015625
4891,0.256554008,0.0440642014,0.0234375
4892,0.256554008,0.0440642014,0.03125
4893,0.256554008,0.0440642014,0.0390625
4894,0.256554008,0.0440642014,0.046875
4895,0.256554008,0.0440642014,0.0546875
4896,0.256554008,0.0440642014,0.0625
4897,0.256554008,0.0440642014,0.0703125
4898,0.256554008,0.0440642014,0.078125
4899,0.256554008,0.0440642014,0.0859375
4900,0.256554008,0.0440642014,0.09375
4901,0.256554008,0.0440642014,0.101562999
4902,0.256554008,0.0440642014,0.109375
4903,0.256554008,0.0440642014,0.117187999
4904,0.256554008,0.0440642014,0.125
4905,0.256554008,0.0440642014,0.132813007
4906,0.256554008,0.0440642014,0.140625
4907,0.256554008,0.0440642014,0.148438007
4908,0.256554008,0.0440642014,0.15625
4909,0.256554008,0.0440642014,0.164061993
4910,0.256554008,0.0440642014,0.171875
4911,0.256554008,0.0440642014,0.179686993
4912,0.256554008,0.0440642014,0.1875
4913,0.256554008,0.0440642014,0.195313007
4914,0.256554008,0.0440642014,0.203125
4915,0.256554008,0.0440642014,0.210936993
4916,0.256554008,0.0440642014,0.21875
4917,0.256554008,0.0440642014,0.226563007
4918,0.256554008,0.0440642014,0.234375
4919,0.256554008,0.0440642014,0.242186993
4920,0.256554008,0.0440642014,0.25
4921,0.256554008,0.0440642014,0.257811993
4922,0.256554008,0.0440642014,0.265625
4923,0.256554008,0.0440642014,0.273438007
4924,0.256554008,0.0440642014,0.28125
4925,0.256554008,0.0440642014,0.289063007
4926,0.256554008,0.0440642014,0.296875
4927,0.256554008,0.0440642014,0.304688007
4928,0.256554008,0.0440642014,0.3125
4929,0.256554008,0.0440642014,0.320313007
4930,0.256554008,0.0440642014,0.328125
4931,0.256554008,0.0440642014,0.335936993
4932,0.256554008,0.0440642014,0.34375
4933,0.256554008,0.0440643989,0.351561993
4934,0.256554008,0.0440663993,0.359375
4935,0.256558001,0.0440646,-0.386718988
4936,0.256558001,0.0440646,-0.378906012
4937,0.256558001,0.0440646,-0.371093988
4938,0.256558001,0.0440646,-0.363281012
4939,0.256558001,0.0440646,-0.355468988
4940,0.256558001,0.0440646,-0.347656012
4941,0.256558001,0.0440646,-0.339843988
4942,0.256558001,0.0440646,-0.332031012
4943,0.256558001,0.0440646,-0.324218988
4944,0.256558001,0.0440646,-0.316406012
4945,0.256558001,0.0440646,-0.308593988
4946,0.256558001,0.0440646,-0.300781012
4947,0.256558001,0.0440646,-0.292968988
4948,0.256558001,0.0440646,-0.285156012
4949,0.256558001,0.0440646,-0.277343988
4950,0.256558001,0.0440646,-0.269531012
4951,0.256558001,0.0440646,-0.261718988
4952,0.256558001,0.0440646,-0.253906012
4953,0.256558001,0.0440646,-0.246094003
4954,0.256558001,0.0440646,-0.238280997
4955,0.256558001,0.0440646,-0.230469003
4956,0.256558001,0.0440646,-0.222655997
4957,0.256558001,0.0440646,-0.214844003
4958,0.256558001,0.0440646,-0.207030997
4959,0.256558001,0.0440646,-0.199219003
4960,0.256558001,0.0440646,-0.191405997
4961,0.256558001,0.0440646,-0.183594003
4962,0.256558001,0.0440646,-0.175780997
4963,0.256558001,0.0440646,-0.167969003
4964,0.256558001,0.0440646,-0.160155997
4965,0.256558001,0.0440646,-0.152344003
4966,0.256558001,0.0440646,-0.144530997
4967,0.256558001,0.0440646,-0.136719003
4968,0.256558001,0.0440646,-0.128905997
4969,0.256558001,0.0440646,-0.121094003
4970,0.256558001,0.0440646,-0.113280997
4971,0.256558001,0.0440646,-0.105469003
4972,0.256558001,0.0440646,-0.0976563022
4973,0.256558001,0.0440646,-0.0898438022
4974,0.256558001,0.0440646,-0.0820313022
4975,0.256558001,0.0440646,-0.0742188022
4976,0.256558001,0.0440646,-0.0664063022
4977,0.256558001,0.0440646,-0.0585937984
4978,0.256558001,0.0440646,-0.0507812016
4979,0.256558001,0.0440646,-0.0429687984
4980,0.256558001,0.0440646,-0.0351562984
4981,0.256558001,0.0440646,-0.0273438003
4982,0.256558001,0.0440646,-0.0195311997
4983,0.256558001,0.0440646,-0.0117188003
4984,0.256558001,0.0440646,-0.00390625
4985,0.256558001,0.0440646,0.00390625
4986,0.256558001,0.0440646,0.0117186997
4987,0.256558001,0.0440646,0.0195313003
4988,0.256558001,0.0440646,0.0273438003
4989,0.256558001,0.0440646,0.0351562016
4990,0.256558001,0.0440646,0.0429687016
4991,0.256558001,0.0440646,0.0507812984
4992,0.256558001,0.0440646,0.0585937984
4993,0.256558001,0.0440646,0.0664061978
4994,0.256558001,0.0440646,0.0742186978
4995,0.256558001,0.0440646,0.0820313022
4996,0.256558001,0.0440646,0.0898438022
4997,0.256558001,0.0440646,0.0976561978
4998,0.256558001,0.0440646,0.105469003
4999,0.256558001,0.0440646,0.113280997
5000,0.256558001,0.0440646,0.121094003
5001,0.256558001,0.0440646,0.128905997
5002,0.256558001,0.0440646,0.136719003
5003,0.256558001,0.0440646,0.144530997
5004,0.256558001,0.0440646,0.152344003
5005,0.256558001,0.0440646,0.160155997
5006,0.256558001,0.0440646,0.167969003
5007,0.256558001,0.0440646,0.175780997
5008,0.256558001,0.0440646,0.183594003
5009,0.256558001,0.0440646,0.191405997
5010,0.256558001,0.0440646,0.199219003
5011,0.256558001,0.0440646,0.207030997
5012,0.256558001,0.0440646,0.214844003
5013,0.256558001,0.0440646,0.222655997
5014,0.256558001,0.0440646,0.230469003
5015,0.256558001,0.0440646,0.238280997
5016,0.256558001,0.0440646,0.246094003
5017,0.256558001,0.0440646,0.253906012
5018,0.256558001,0.0440646,0.261718988
5019,0.256558001,0.0440646,0.269531012
5020,0.256558001,0.0440646,0.277343988
5021,0.256558001,0.0440646,0.285156012
5022,0.256558001,0.0440646,0.292968988
5023,0.256558001,0.0440646,0.300781012
5024,0.256558001,0.0440646,0.308593988
5025,0.256558001,0.0440646,0.316406012
5026,0.256558001,0.0440646,0.324218988
5027,0.256558001,0.0440646,0.332031012
5028,0.256558001,0.0440646,0.339843988
5029,0.256558001,0.0440646,0.347656012
5030,0.256558001,0.0440657996,0.355468988
5031,0.256561995,0.0454472005,0.368445992
5032,0.256574005,0.0439920984,-0.39436999
5033,0.256588995,0.0441490002,0.363162011
5034,0.256642014,0.0446599014,0.397107989
5035,0.259734988,0.0339163989,0.358363986
5036,0.260282993,0.0449147001,0.375104994
5037,0.260295004,0.0446537994,0.390529007
5038,0.260304987,0.0445641987,0.382813007
5039,0.260311007,0.0452835001,0.396688998
5040,0.260327011,0.0447641984,0.368842989
5041,0.260435998,0.0341568999,-0.397276998
5042,0.260517001,0.0341847986,0.355334014
5043,0.260621011,0.0342202,-0.394400001
5044,0.260655999,0.0342321992,-0.390625
5045,0.260655999,0.0342321992,-0.386718988
5046,0.260655999,0.0342321992,-0.382813007
5047,0.260655999,0.0342321992,-0.378906012
5048,0.260655999,0.0342321992,-0.375
5049,0.260655999,0.0342321992,-0.371093988
5050,0.260655999,0.0342321992,-0.367188007
5051,0.260655999,0.0342321992,-0.363281012
5052,0.260655999,0.0342321992,-0.359375
5053,0.260655999,0.0342321992,-0.355468988
5054,0.260655999,0.0342321992,-0.351561993
5055,0.260655999,0.0342321992,-0.347656012
5056,0.260655999,0.0342321992,-0.34375
5057,0.260655999,0.0342321992,-0.339843988
5058,0.260655999,0.0342321992,-0.335938007
5059,0.260655999,0.0342321992,-0.332031012
5060,0.260655999,0.0342321992,-0.328125
5061,0.260655999,0.0342321992,-0.324218988
5062,0.260655999,0.0342321992,-0.320311993
5063,0.260655999,0.0342321992,-0.316406012
5064,0.260655999,0.0342321992,-0.3125
5065,0.260655999,0.0342321992,-0.308593988
5066,0.260655999,0.0342321992,-0.304688007
5067,0.260655999,0.0342321992,-0.300781012
5068,0.260655999,0.0342321992,-0.296875
5069,0.260655999,0.0342321992,-0.292968988
5070,0.260655999,0.0342321992,-0.289063007
5071,0.260655999,0.0342321992,-0.285156012
5072,0.260655999,0.0342321992,-0.28125
5073,0.260655999,0.0342321992,-0.277343988
5074,0.260655999,0.0342321992,-0.273438007
5075,0.260655999,0.0342321992,-0.269531012
5076,0.260655999,0.0342321992,-0.265625
5077,0.260655999,0.0342321992,-0.261718988
5078,0.260655999,0.0342321992,-0.257811993
5079,0.260655999,0.0342321992,-0.253906012
5080,0.260655999,0.0342321992,-0.25
5081,0.260655999,0.0342321992,-0.246094003
5082,0.260655999,0.0342321992,-0.242186993
5083,0.260655999,0.0342321992,-0.238280997
5084,0.260655999,0.0342321992,-0.234375
5085,0.260655999,0.0342321992,-0.230469003
5086,0.260655999,0.0342321992,-0.226561993
5087,0.260655999,0.0342321992,-0.222655997
5088,0.260655999,0.0342321992,-0.21875
5089,0.260655999,0.0342321992,-0.214844003
5090,0.260655999,0.0342321992,-0.210936993
5091,0.260655999,0.0342321992,-0.207030997
5092,0.260655999,0.0342321992,-0.203125
5093,0.260655999,0.0342321992,-0.199219003
5094,0.260655999,0.0342321992,-0.195311993
5095,0.260655999,0.0342321992,-0.191405997
5096,0.260655999,0.0342321992,-0.1875
5097,0.260655999,0.0342321992,-0.183594003
5098,0.260655999,0.0342321992,-0.179688007
5099,0.260655999,0.0342321992,-0.175780997
5100,0.260655999,0.0342321992,-0.171875
5101,0.260655999,0.0342321992,-0.167969003
5102,0.260655999,0.0342321992,-0.164061993
5103,0.260655999,0.0342321992,-0.160155997
5104,0.260655999,0.0342321992,-0.15625
5105,0.260655999,0.0342321992,-0.152344003
5106,0.260655999,0.0342321992,-0.148436993
5107,0.260655999,0.0342321992,-0.144530997
5108,0.260655999,0.0342321992,-0.140625
5109,0.260655999,0.0342321992,-0.136719003
5110,0.260655999,0.0342321992,-0.132813007
5111,0.260655999,0.0342321992,-0.128905997
5112,0.260655999,0.0342321992,-0.125
5113,0.260655999,0.0342321992,-0.121094003
5114,0.260655999,0.0342321992,-0.117187001
5115,0.260655999,0.0342321992,-0.113280997
5116,0.260655999,0.0342321992,-0.109375
5117,0.260655999,0.0342321992,-0.105469003
5118,0.260655999,0.0342321992,-0.101562001
5119,0.260655999,0.0342321992,-0.0976563022
5120,0.260655999,0.0342321992,-0.09375
5121,0.260655999,0.0342321992,-0.0898438022
5122,0.260655999,0.0342321992,-0.0859375
5123,0.260655999,0.0342321992,-0.0820313022
5124,0.260655999,0.0342321992,-0.078125
5125,0.260655999,0.0342321992,-0.0742188022
5126,0.260655999,0.0342321992,-0.0703125
5127,0.260655999,0.0342321992,-0.0664063022
5128,0.260655999,0.0342321992,-0.0625
5129,0.260655999,0.0342321992,-0.0585937016
5130,0.260655999,0.0342321992,-0.0546875
5131,0.260655999,0.0342321992,-0.0507812016
5132,0.260655999,0.0342321992,-0.046875
5133,0.260655999,0.0342321992,-0.0429687016
5134,0.260655999,0.0342321992,-0.0390625
5135,0.260655999,0.0342321992,-0.0351562016
5136,0.260655999,0.0342321992,-0.03125
5137,0.260655999,0.0342321992,-0.0273436997
5138,0.260655999,0.0342321992,-0.0234375
5139,0.260655999,0.0342321992,-0.0195311997
5140,0.260655999,0.0342321992,-0.015625
5141,0.260655999,0.0342321992,-0.0117188003
5142,0.260655999,0.0342321992,-0.0078125
5143,0.260655999,0.0342321992,-0.00390625
5144,0.260655999,0.0342321992,0
5145,0.260655999,0.0342321992,0.00390625
5146,0.260655999,0.0342321992,0.0078125
5147,0.260655999,0.0342321992,0.0117186997
5148,0.260655999,0.0342321992,0.015625
5149,0.260655999,0.0342321992,0.0195313003
5150,0.260655999,0.0342321992,0.0234375
5151,0.260655999,0.0342321992,0.0273436997
5152,0.260655999,0.0342321992,0.03125
5153,0.260655999,0.0342321992,0.0351562016
5154,0.260655999,0.0342321992,0.0390625
5155,0.260655999,0.0342321992,0.0429687984
5156,0.260655999,0.0342321992,0.046875
5157,0.260655999,0.0342321992,0.0507812016
5158,0.260655999,0.0342321992,0.0546875
5159,0.260655999,0.0342321992,0.0585937016
5160,0.260655999,0.0342321992,0.0625
5161,0.260655999,0.0342321992,0.0664063022
5162,0.260655999,0.0342321992,0.0703125
5163,0.260655999,0.0342321992,0.0742186978
5164,0.260655999,0.0342321992,0.078125
5165,0.260655999,0.0342321992,0.0820311978
5166,0.260655999,0.0342321992,0.0859375
5167,0.260655999,0.0342321992,0.0898438022
5168,0.260655999,0.0342321992,0.09375
5169,0.260655999,0.0342321992,0.0976561978
5170,0.260655999,0.0342321992,0.101562999
5171,0.260655999,0.0342321992,0.105469003
5172,0.260655999,0.0342321992,0.109375
5173,0.260655999,0.0342321992,0.113280997
5174,0.260655999,0.0342321992,0.117187999
5175,0.260655999,0.0342321992,0.121094003
5176,0.260655999,0.0342321992,0.125
5177,0.260655999,0.0342321992,0.128905997
5178,0.260655999,0.0342321992,0.132813007
5179,0.260655999,0.0342321992,0.136719003
5180,0.260655999,0.0342321992,0.140625
5181,0.260655999,0.0342321992,0.144530997
5182,0.260655999,0.0342321992,0.148436993
5183,0.260655999,0.0342321992,0.152344003
5184,0.260655999,0.0342321992,0.15625
5185,0.260655999,0.0342321992,0.160155997
5186,0.260655999,0.0342321992,0.164063007
5187,0.260655999,0.0342321992,0.167969003
5188,0.260655999,0.0342321992,0.171875
5189,0.260655999,0.0342321992,0.175780997
5190,0.260655999,0.0342321992,0.179686993
5191,0.260655999,0.0342321992,0.183594003
5192,0.260655999,0.0342321992,0.1875
5193,0.260655999,0.0342321992,0.191405997
5194,0.260655999,0.0342321992,0.195313007
5195,0.260655999,0.0342321992,0.199219003
5196,0.260655999,0.0342321992,0.203125
5197,0.260655999,0.0342321992,0.207030997
5198,0.260655999,0.0342321992,0.210938007
5199,0.260655999,0.0342321992,0.214844003
5200,0.260655999,0.0342321992,0.21875
5201,0.260655999,0.0342321992,0.222655997
5202,0.260655999,0.0342321992,0.226561993
5203,0.260655999,0.0342321992,0.230469003
5204,0.260655999,0.0342321992,0.234375
5205,0.260655999,0.0342321992,0.238280997
5206,0.260655999,0.0342321992,0.242186993
5207,0.260655999,0.0342321992,0.246094003
5208,0.260655999,0.0342321992,0.25
5209,0.260655999,0.0342321992,0.253906012
5210,0.260655999,0.0342321992,0.257813007
5211,0.260655999,0.0342321992,0.261718988
5212,0.260655999,0.0342321992,0.265625
5213,0.260655999,0.0342321992,0.269531012
5214,0.260655999,0.0342321992,0.273436993
5215,0.260655999,0.0342321992,0.277343988
5216,0.260655999,0.0342321992,0.28125
5217,0.260655999,0.0342321992,0.285156012
5218,0.260655999,0.0342321992,0.289061993
5219,0.260655999,0.0342321992,0.292968988
5220,0.260655999,0.0342321992,0.296875
5221,0.260655999,0.0342321992,0.300781012
5222,0.260655999,0.0342321992,0.304688007
5223,0.260655999,0.0342321992,0.308593988
5224,0.260655999,0.0342321992,0.3125
5225,0.260655999,0.0342321992,0.316406012
5226,0.260655999,0.0342321992,0.320311993
5227,0.260655999,0.0342321992,0.324218988
5228,0.260655999,0.0342321992,0.328125
5229,0.260655999,0.0342321992,0.332031012
5230,0.260655999,0.0342321992,0.335936993
5231,0.260655999,0.0342321992,0.339843988
5232,0.260655999,0.0342321992,0.34375
5233,0.260655999,0.0342321992,0.347656012
5234,0.260655999,0.0342321992,0.351563007
5235,0.26127401,0.0449563004,0.39428401
5236,0.261319995,0.0446735993,0.371325999
5237,0.261361003,0.0446175002,0.378906012
5238,0.261364013,0.044587601,0.386718988
5239,0.261725008,0.0393067002,0.396968991
5240,0.261891991,0.0351764001,0.360038996
5241,0.261965007,0.0348151997,0.390558004
5242,0.262116998,0.0350591987,0.374989986
5243,0.262147993,0.0349688008,0.382800996
5244,0.262154013,0.0351715013,0.367341012
5245,0.262353003,0.0443540998,0.397486001
5246,0.262457997,0.0445251018,-0.394400001
5247,0.262475014,0.0445871018,-0.34375
5248,0.262475014,0.0445871018,-0.339843988
5249,0.262475014,0.0445871018,-0.335938007
5250,0.262475014,0.0445871018,-0.332031012
5251,0.262475014,0.0445871018,-0.328125
5252,0.262475014,0.0445871018,-0.324218988
5253,0.262475014,0.0445871018,-0.320311993
5254,0.262475014,0.0445871018,-0.316406012
5255,0.262475014,0.0445871018,-0.3125
5256,0.262475014,0.0445871018,-0.308593988
5257,0.262475014,0.0445871018,-0.304688007
5258,0.262475014,0.0445871018,-0.300781012
5259,0.262475014,0.0445871018,-0.296875
5260,0.262475014,0.0445871018,-0.292968988
5261,0.262475014,0.0445871018,-0.289063007
5262,0.262475014,0.0445871018,-0.285156012
5263,0.262475014,0.0445871018,-0.28125
5264,0.262475014,0.0445871018,-0.277343988
5265,0.262475014,0.0445871018,-0.273438007
5266,0.262475014,0.0445871018,-0.269531012
5267,0.262475014,0.0445871018,-0.265625
5268,0.262475014,0.0445871018,-0.261718988
5269,0.262475014,0.0445871018,-0.257811993
5270,0.262475014,0.0445871018,-0.253906012
5271,0.262475014,0.0445871018,-0.25
5272,0.262475014,0.0445871018,-0.246094003
5273,0.262475014,0.0445871018,-0.242186993
5274,0.262475014,0.0445871018,-0.238280997
5275,0.262475014,0.0445871018,-0.234375
5276,0.262475014,0.0445871018,-0.230469003
5277,0.262475014,0.0445871018,-0.226561993
5278,0.262475014,0.0445871018,-0.222655997
5279,0.262475014,0.0445871018,-0.21875
5280,0.262475014,0.0445871018,-0.214844003
5281,0.262475014,0.0445871018,-0.210938007
5282,0.262475014,0.0445871018,-0.207030997
5283,0.262475014,0.0445871018,-0.203125
5284,0.262475014,0.0445871018,-0.199219003
5285,0.262475014,0.0445871018,-0.195311993
5286,0.262475014,0.0445871018,-0.191405997
5287,0.262475014,0.0445871018,-0.1875
5288,0.262475014,0.0445871018,-0.183594003
5289,0.262475014,0.0445871018,-0.179686993
5290,0.262475014,0.0445871018,-0.175780997
5291,0.262475014,0.0445871018,-0.171875
5292,0.262475014,0.0445871018,-0.167969003
5293,0.262475014,0.0445871018,-0.164061993
5294,0.262475014,0.0445871018,-0.160155997
5295,0.262475014,0.0445871018,-0.15625
5296,0.262475014,0.0445871018,-0.152344003
5297,0.262475014,0.0445871018,-0.148438007
5298,0.262475014,0.0445871018,-0.144530997
5299,0.262475014,0.0445871018,-0.140625
5300,0.262475014,0.0445871018,-0.136719003
5301,0.262475014,0.0445871018,-0.132811993
5302,0.262475014,0.0445871018,-0.128905997
5303,0.262475014,0.0445871018,-0.125
5304,0.262475014,0.0445871018,-0.121094003
5305,0.262475014,0.0445871018,-0.117187999
5306,0.262475014,0.0445871018,-0.113280997
5307,0.262475014,0.0445871018,-0.109375
5308,0.262475014,0.0445871018,-0.105469003
5309,0.262475014,0.0445871018,-0.101562001
5310,0.262475014,0.0445871018,-0.0976561978
5311,0.262475014,0.0445871018,-0.09375
5312,0.262475014,0.0445871018,-0.0898438022
5313,0.262475014,0.0445871018,-0.0859375
5314,0.262475014,0.0445871018,-0.0820311978
5315,0.262475014,0.0445871018,-0.078125
5316,0.262475014,0.0445871018,-0.0742188022
5317,0.262475014,0.0445871018,-0.0703125
5318,0.262475014,0.0445871018,-0.0664063022
5319,0.262475014,0.0445871018,-0.0625
5320,0.262475014,0.0445871018,-0.0585937016
5321,0.262475014,0.0445871018,-0.0546875
5322,0.262475014,0.0445871018,-0.0507812016
5323,0.262475014,0.0445871018,-0.046875
5324,0.262475014,0.0445871018,-0.0429687984
5325,0.262475014,0.0445871018,-0.0390625
5326,0.262475014,0.0445871018,-0.0351562984
5327,0.262475014,0.0445871018,-0.03125
5328,0.262475014,0.0445871018,-0.0273438003
5329,0.262475014,0.0445871018,-0.0234375
5330,0.262475014,0.0445871018,-0.0195311997
5331,0.262475014,0.0445871018,-0.015625
5332,0.262475014,0.0445871018,-0.0117186997
5333,0.262475014,0.0445871018,-0.0078125
5334,0.262475014,0.0445871018,-0.00390625
5335,0.262475014,0.0445871018,0
5336,0.262475014,0.0445871018,0.00390625
5337,0.262475014,0.0445871018,0.0078125
5338,0.262475014,0.0445871018,0.0117186997
5339,0.262475014,0.0445871018,0.015625
5340,0.262475014,0.0445871018,0.0195311997
5341,0.262475014,0.0445871018,0.0234375
5342,0.262475014,0.0445871018,0.0273438003
5343,0.262475014,0.0445871018,0.03125
5344,0.262475014,0.0445871018,0.0351562016
5345,0.262475014,0.0445871018,0.0390625
5346,0.262475014,0.0445871018,0.0429687016
5347,0.262475014,0.0445871018,0.046875
5348,0.262475014,0.0445871018,0.0507812016
5349,0.262475014,0.0445871018,0.0546875
5350,0.262475014,0.0445871018,0.0585937016
5351,0.262475014,0.0445871018,0.0625
5352,0.262475014,0.0445871018,0.0664061978
5353,0.262475014,0.0445871018,0.0703125
5354,0.262475014,0.0445871018,0.0742186978
5355,0.262475014,0.0445871018,0.078125
5356,0.262475014,0.0445871018,0.0820311978
5357,0.262475014,0.0445871018,0.0859375
5358,0.262475014,0.0445871018,0.0898436978
5359,0.262475014,0.0445871018,0.09375
5360,0.262475014,0.0445871018,0.0976563022
5361,0.262475014,0.0445871018,0.101562001
5362,0.262475014,0.0445871018,0.105469003
5363,0.262475014,0.0445871018,0.109375
5364,0.262475014,0.0445871018,0.113280997
5365,0.262475014,0.0445871018,0.117187001
5366,0.262475014,0.0445871018,0.121094003
5367,0.262475014,0.0445871018,0.125
5368,0.262475014,0.0445871018,0.128905997
5369,0.262475014,0.0445871018,0.132813007
5370,0.262475014,0.0445871018,0.136719003
5371,0.262475014,0.0445871018,0.140625
5372,0.262475014,0.0445871018,0.144530997
5373,0.262475014,0.0445871018,0.148436993
5374,0.262475014,0.0445871018,0.152344003
5375,0.262475014,0.0445871018,0.15625
5376,0.262475014,0.0445871018,0.160155997
5377,0.262475014,0.0445871018,0.164063007
5378,0.262475014,0.0445871018,0.167969003
5379,0.262475014,0.0445871018,0.171875
5380,0.262475014,0.0445871018,0.175780997
5381,0.262475014,0.0445871018,0.179686993
5382,0.262475014,0.0445871018,0.183594003
5383,0.262475014,0.0445871018,0.1875
5384,0.262475014,0.0445871018,0.191405997
5385,0.262475014,0.0445871018,0.195311993
5386,0.262475014,0.0445871018,0.199219003
5387,0.262475014,0.0445871018,0.203125
5388,0.262475014,0.0445871018,0.207030997
5389,0.262475014,0.0445871018,0.210938007
5390,0.262475014,0.0445871018,0.214844003
5391,0.262475014,0.0445871018,0.21875
5392,0.262475014,0.0445871018,0.222655997
5393,0.262475014,0.0445871018,0.226561993
5394,0.262475014,0.0445871018,0.230469003
5395,0.262475014,0.0445871018,0.234375
5396,0.262475014,0.0445871018,0.238280997
5397,0.262475014,0.0445871018,0.242186993
5398,0.262475014,0.0445871018,0.246094003
5399,0.262475014,0.0445871018,0.25
5400,0.262475014,0.0445871018,0.253906012
5401,0.262475014,0.0445871018,0.257811993
5402,0.262475014,0.0445871018,0.261718988
5403,0.262475014,0.0445871018,0.265625
5404,0.262475014,0.0445871018,0.269531012
5405,0.262475014,0.0445871018,0.273438007
5406,0.262475014,0.0445871018,0.277343988
5407,0.262475014,0.0445871018,0.28125
5408,0.262475014,0.0445871018,0.285156012
5409,0.262475014,0.0445871018,0.289061993
5410,0.262475014,0.0445871018,0.292968988
5411,0.262475014,0.0445871018,0.296875
5412,0.262475014,0.0445871018,0.300781012
5413,0.262475014,0.0445871018,0.304688007
5414,0.262475014,0.0445871018,0.308593988
5415,0.262475014,0.0445871018,0.3125
5416,0.262475014,0.0445871018,0.316406012
5417,0.262475014,0.0445871018,0.320311993
5418,0.262475014,0.0445871018,0.324218988
5419,0.262475014,0.0445871018,0.328125
5420,0.262475014,0.0445871018,0.332031012
5421,0.262475014,0.0445871018,0.335938007
5422,0.262475014,0.0445871018,0.339843988
5423,0.262475014,0.0445871018,0.34375
5424,0.262484014,0.0444865003,-0.390623003
5425,0.262488008,0.0444445014,-0.386716992
5426,0.262490988,0.0444025993,-0.38281101
5427,0.262495011,0.044360701,-0.378906012
5428,0.262497991,0.0443187989,-0.375
5429,0.262502015,0.0442768,-0.371093988
5430,0.262504011,0.0445799008,0.363238007
5431,0.262506008,0.0442349017,-0.367188007
5432,0.262524009,0.0441941991,-0.363281995
5433,0.262542993,0.0441607982,0.359376997
5434,0.26254499,0.0441537984,-0.359376997
5435,0.262564003,0.0441160016,0.355470985
5436,0.262564987,0.0441128016,-0.355470985
5437,0.262566,0.0446597002,0.367186993
5438,0.262578994,0.0440701991,-0.351565003
5439,0.262578994,0.0440711007,0.351565003
5440,0.262594014,0.0440276004,-0.347660005
5441,0.262594014,0.0440278985,0.347660005
5442,0.262923002,0.0402887985,-0.397428989
5443,0.263224989,0.0352163985,0.394320995
5444,0.263298988,0.0355171002,0.371084005
5445,0.263301015,0.035174001,-0.39753899
5446,0.263330996,0.0354261994,0.378895015
5447,0.263359994,0.0356364995,0.363519013
5448,0.26336199,0.0353360996,0.386707008
5449,0.268601,0.0369741991,0.390625
5450,0.268601,0.0369742997,0.367188007
5451,0.268601,0.0369742997,0.375
5452,0.268601,0.0369742997,0.382811993
5453,0.268608004,0.0369765982,0.371093988
5454,0.268608004,0.0369765982,0.378906012
5455,0.268608004,0.0369765982,0.386718988
5456,0.268615991,0.0369793996,0.363301992
5457,0.268637002,0.0369868018,0.359425008
5458,0.268664002,0.0450620987,-0.394396007
5459,0.26868099,0.0451169014,-0.21875
5460,0.26868099,0.0451169014,-0.214844003
5461,0.26868099,0.0451169014,-0.210938007
5462,0.26868099,0.0451169014,-0.207030997
5463,0.26868099,0.0451169014,-0.203125
5464,0.26868099,0.0451169014,-0.199219003
5465,0.26868099,0.0451169014,-0.195313007
5466,0.26868099,0.0451169014,-0.191405997
5467,0.26868099,0.0451169014,-0.1875
5468,0.26868099,0.0451169014,-0.183594003
5469,0.26868099,0.0451169014,-0.179688007
5470,0.26868099,0.0451169014,-0.175780997
5471,0.26868099,0.0451169014,-0.171875
5472,0.26868099,0.0451169014,-0.167969003
5473,0.26868099,0.0451169014,-0.164063007
5474,0.26868099,0.0451169014,-0.160155997
5475,0.26868099,0.0451169014,-0.15625
5476,0.26868099,0.0451169014,-0.152344003
5477,0.26868099,0.0451169014,-0.148438007
5478,0.26868099,0.0451169014,-0.144530997
5479,0.26868099,0.0451169014,-0.140625
5480,0.26868099,0.0451169014,-0.136719003
5481,0.26868099,0.0451169014,-0.132813007
5482,0.26868099,0.0451169014,-0.128905997
5483,0.26868099,0.0451169014,-0.125
5484,0.26868099,0.0451169014,-0.121094003
5485,0.26868099,0.0451169014,-0.117187999
5486,0.26868099,0.0451169014,-0.113280997
5487,0.26868099,0.0451169014,-0.109375
5488,0.26868099,0.0451169014,-0.105469003
5489,0.26868099,0.0451169014,-0.101562001
5490,0.26868099,0.0451169014,-0.0976563022
5491,0.26868099,0.0451169014,-0.09375
5492,0.26868099,0.0451169014,-0.0898438022
5493,0.26868099,0.0451169014,-0.0859375
5494,0.26868099,0.0451169014,-0.0820313022
5495,0.26868099,0.0451169014,-0.078125
5496,0.26868099,0.0451169014,-0.0742188022
5497,0.26868099,0.0451169014,-0.0703125
5498,0.26868099,0.0451169014,-0.0664063022
5499,0.26868099,0.0451169014,-0.0625
5500,0.26868099,0.0451169014,-0.0585937984
5501,0.26868099,0.0451169014,-0.0546875
5502,0.26868099,0.0451169014,-0.0507812984
5503,0.26868099,0.0451169014,-0.046875
5504,0.26868099,0.0451169014,-0.0429687984
5505,0.26868099,0.0451169014,-0.0390625
5506,0.26868099,0.0451169014,-0.0351562016
5507,0.26868099,0.0451169014,-0.03125
5508,0.26868099,0.0451169014,-0.0273438003
5509,0.26868099,0.0451169014,-0.0234375
5510,0.26868099,0.0451169014,-0.0195313003
5511,0.26868099,0.0451169014,-0.015625
5512,0.26868099,0.0451169014,-0.0117186997
5513,0.26868099,0.0451169014,-0.0078125
5514,0.26868099,0.0451169014,-0.00390625
5515,0.26868099,0.0451169014,-1e-12
5516,0.26868099,0.0451169014,0.00390625
5517,0.26868099,0.0451169014,0.0078125
5518,0.26868099,0.0451169014,0.0117186997
5519,0.26868099,0.0451169014,0.015625
5520,0.26868099,0.0451169014,0.0195311997
5521,0.26868099,0.0451169014,0.0234375
5522,0.26868099,0.0451169014,0.0273436997
5523,0.26868099,0.0451169014,0.03125
5524,0.26868099,0.0451169014,0.0351562984
5525,0.26868099,0.0451169014,0.0390625
5526,0.26868099,0.0451169014,0.0429687016
5527,0.26868099,0.0451169014,0.046875
5528,0.26868099,0.0451169014,0.0507812984
5529,0.26868099,0.0451169014,0.0546875
5530,0.26868099,0.0451169014,0.0585937016
5531,0.26868099,0.0451169014,0.0625
5532,0.26868099,0.0451169014,0.0664063022
5533,0.26868099,0.0451169014,0.0703125
5534,0.26868099,0.0451169014,0.0742188022
5535,0.26868099,0.0451169014,0.078125
5536,0.26868099,0.0451169014,0.0820311978
5537,0.26868099,0.0451169014,0.0859375
5538,0.26868099,0.0451169014,0.0898436978
5539,0.26868099,0.0451169014,0.09375
5540,0.26868099,0.0451169014,0.0976563022
5541,0.26868099,0.0451169014,0.101562999
5542,0.26868099,0.0451169014,0.105469003
5543,0.26868099,0.0451169014,0.109375
5544,0.26868099,0.0451169014,0.113280997
5545,0.26868099,0.0451169014,0.117187001
5546,0.26868099,0.0451169014,0.121094003
5547,0.26868099,0.0451169014,0.125
5548,0.26868099,0.0451169014,0.128905997
5549,0.26868099,0.0451169014,0.132813007
5550,0.26868099,0.0451169014,0.136719003
5551,0.26868099,0.0451169014,0.140625
5552,0.26868099,0.0451169014,0.144530997
5553,0.26868099,0.0451169014,0.148438007
5554,0.26868099,0.0451169014,0.152344003
5555,0.26868099,0.0451169014,0.15625
5556,0.26868099,0.0451169014,0.160155997
5557,0.26868099,0.0451169014,0.164063007
5558,0.26868099,0.0451169014,0.167969003
5559,0.26868099,0.0451169014,0.171875
5560,0.26868099,0.0451169014,0.175780997
5561,0.26868099,0.0451169014,0.179688007
5562,0.26868099,0.0451169014,0.183594003
5563,0.26868099,0.0451169014,0.1875
5564,0.26868099,0.0451169014,0.191405997
5565,0.26868099,0.0451169014,0.195313007
5566,0.26868099,0.0451169014,0.199219003
5567,0.26868099,0.0451169014,0.203125
5568,0.26868099,0.0451169014,0.207030997
5569,0.26868099,0.0451169014,0.210936993
5570,0.26868099,0.0451169014,0.214844003
5571,0.26868099,0.0451169014,0.21875
5572,0.268689007,0.0450306982,-0.390617996
5573,0.268691987,0.0449948981,-0.386712015
5574,0.268694997,0.0449591018,-0.382806003
5575,0.268698007,0.0449232012,-0.378899992
5576,0.268700987,0.0448874012,-0.374994993
5577,0.268703997,0.0448515005,-0.371089011
5578,0.268707007,0.0448157005,-0.367183
5579,0.268709987,0.0447797999,-0.363276988
5580,0.268712997,0.0447405986,0.359371006
5581,0.268712997,0.0447438993,-0.359371006
5582,0.268714994,0.0370796993,0.394376993
5583,0.268714994,0.0447747,0.363274992
5584,0.268716007,0.0447070003,0.355464995
5585,0.268716007,0.0447080992,-0.355464995
5586,0.268718988,0.0446719006,0.351559013
5587,0.268718988,0.0446721986,-0.351559013
5588,0.268721998,0.0446363017,0.347653002
5589,0.268721998,0.0446363986,-0.347653002
5590,0.268725008,0.0446005017,-0.34374699
5591,0.268725008,0.0446005017,0.34374699
5592,0.268727988,0.044564601,-0.339841008
5593,0.268727988,0.044564601,0.339841008
5594,0.268730998,0.044528801,-0.335934997
5595,0.268730998,0.044528801,0.335934997
5596,0.268734008,0.0444929004,-0.332029015
5597,0.268734008,0.0444929004,0.332029015
5598,0.268736988,0.0444571003,-0.328123987
5599,0.268736988,0.0444571003,0.328123987
5600,0.268739998,0.0444211997,-0.324218005
5601,0.268739998,0.0444211997,0.324218005
5602,0.268743008,0.0443852991,-0.320311993
5603,0.268743008,0.0443852991,0.320311993
5604,0.268745989,0.044349499,-0.316406012
5605,0.268745989,0.044349499,0.316406012
5606,0.268748999,0.0443135984,-0.3125
5607,0.268748999,0.0443135984,0.3125
5608,0.268752009,0.0442777984,-0.308593988
5609,0.268752009,0.0442777984,0.308593988
5610,0.268754989,0.0442419015,-0.304688007
5611,0.268754989,0.0442419015,0.304688007
5612,0.268757999,0.0442060009,-0.300781995
5613,0.268757999,0.0442060009,0.300781995
5614,0.268761009,0.0441702008,-0.296876013
5615,0.268761009,0.0441702008,0.296876013
5616,0.268763989,0.0441343002,-0.292970002
5617,0.268763989,0.0441343002,0.292970002
5618,0.268766999,0.0440985002,-0.28906399
5619,0.268766999,0.0440985002,0.28906399
5620,0.268770009,0.0440625995,-0.285158008
5621,0.268770009,0.0440625995,0.285158008
5622,0.26877299,0.0440267995,-0.28125301
5623,0.26877299,0.0440267995,0.28125301
5624,0.268776,0.0439908989,-0.277346998
5625,0.268776,0.0439908989,0.277346998
5626,0.26877901,0.0439549983,-0.273440987
5627,0.26877901,0.0439549983,0.273440987
5628,0.26878199,0.0439191982,-0.269535005
5629,0.26878199,0.0439191982,0.269535005
5630,0.268785,0.0438833013,-0.265628994
5631,0.268785,0.0438833013,0.265628994
5632,0.268786013,0.0448165983,0.367172003
5633,0.26878801,0.0438475013,-0.261723012
5634,0.26878801,0.0438475013,0.261723012
5635,0.26879099,0.0438116007,-0.257817
5636,0.26879099,0.0438116007,0.257817
5637,0.268794,0.0437757,-0.253910989
5638,0.268794,0.0437757,0.253910989
5639,0.268795997,0.0370419994,0.35551399
5640,0.26879701,0.0437399,-0.250005007
5641,0.26879701,0.0437399,0.250005007
5642,0.26879999,0.0437039994,-0.246098995
5643,0.26879999,0.0437039994,0.246098995
5644,0.268803,0.0436681993,-0.242192999
5645,0.268803,0.0436681993,0.242192999
5646,0.26880601,0.0436322987,-0.238287002
5647,0.26880601,0.0436322987,0.238287002
5648,0.268808991,0.0435964018,-0.234382004
5649,0.268808991,0.0435964018,0.234382004
5650,0.268812001,0.0435606018,-0.230476007
5651,0.268812001,0.0435606018,0.230476007
5652,0.268815011,0.0435247011,-0.226569995
5653,0.268815011,0.0435247011,0.226569995
5654,0.268817991,0.0434889011,-0.222663999
5655,0.268817991,0.0434889011,0.222663999
5656,0.268907994,0.0449937992,0.394418001
5657,0.268916011,0.0415752009,-0.397386998
5658,0.268918991,0.0370844007,-0.390625
5659,0.268918991,0.0370844007,-0.386718988
5660,0.268918991,0.0370844007,-0.382811993
5661,0.268918991,0.0370844007,-0.378906012
5662,0.268918991,0.0370844007,-0.375
5663,0.268918991,0.0370844007,-0.371093988
5664,0.268918991,0.0370844007,-0.367188007
5665,0.268918991,0.0370844007,-0.363281012
5666,0.268918991,0.0370844007,-0.359375
5667,0.268918991,0.0370844007,-0.355468988
5668,0.268918991,0.0370844007,-0.351561993
5669,0.268918991,0.0370844007,-0.347656012
5670,0.268918991,0.0370844007,-0.34375
5671,0.268918991,0.0370844007,-0.339843988
5672,0.268918991,0.0370844007,-0.335938007
5673,0.268918991,0.0370844007,-0.332031012
5674,0.268918991,0.0370844007,-0.328125
5675,0.268918991,0.0370844007,-0.324218988
5676,0.268918991,0.0370844007,-0.320313007
5677,0.268918991,0.0370844007,-0.316406012
5678,0.268918991,0.0370844007,-0.3125
5679,0.268918991,0.0370844007,-0.308593988
5680,0.268918991,0.0370844007,-0.304688007
5681,0.268918991,0.0370844007,-0.300781012
5682,0.268918991,0.0370844007,-0.296875
5683,0.268918991,0.0370844007,-0.292968988
5684,0.268918991,0.0370844007,-0.289063007
5685,0.268918991,0.0370844007,-0.285156012
5686,0.268918991,0.0370844007,-0.28125
5687,0.268918991,0.0370844007,-0.277343988
5688,0.268918991,0.0370844007,-0.273436993
5689,0.268918991,0.0370844007,-0.269531012
5690,0.268918991,0.0370844007,-0.265625
5691,0.268918991,0.0370844007,-0.261718988
5692,0.268918991,0.0370844007,-0.257813007
5693,0.268918991,0.0370844007,-0.253906012
5694,0.268918991,0.0370844007,-0.25
5695,0.268918991,0.0370844007,-0.246094003
5696,0.268918991,0.0370844007,-0.242186993
5697,0.268918991,0.0370844007,-0.238280997
5698,0.268918991,0.0370844007,-0.234375
5699,0.268918991,0.0370844007,-0.230469003
5700,0.268918991,0.0370844007,-0.226563007
5701,0.268918991,0.0370844007,-0.222655997
5702,0.268918991,0.0370844007,-0.21875
5703,0.268918991,0.0370844007,-0.214844003
5704,0.268918991,0.0370844007,-0.210936993
5705,0.268918991,0.0370844007,-0.207030997
5706,0.268918991,0.0370844007,-0.203125
5707,0.268918991,0.0370844007,-0.199219003
5708,0.268918991,0.0370844007,-0.195313007
5709,0.268918991,0.0370844007,-0.191405997
5710,0.268918991,0.0370844007,-0.1875
5711,0.268918991,0.0370844007,-0.183594003
5712,0.268918991,0.0370844007,-0.179688007
5713,0.268918991,0.0370844007,-0.175780997
5714,0.268918991,0.0370844007,-0.171875
5715,0.268918991,0.0370844007,-0.167969003
5716,0.268918991,0.0370844007,-0.164061993
5717,0.268918991,0.0370844007,-0.160155997
5718,0.268918991,0.0370844007,-0.15625
5719,0.268918991,0.0370844007,-0.152344003
5720,0.268918991,0.0370844007,-0.148438007
5721,0.268918991,0.0370844007,-0.144530997
5722,0.268918991,0.0370844007,-0.140625
5723,0.268918991,0.0370844007,-0.136719003
5724,0.268918991,0.0370844007,-0.132813007
5725,0.268918991,0.0370844007,-0.128905997
5726,0.268918991,0.0370844007,-0.125
5727,0.268918991,0.0370844007,-0.121094003
5728,0.268918991,0.0370844007,-0.117187999
5729,0.268918991,0.0370844007,-0.113280997
5730,0.268918991,0.0370844007,-0.109375
5731,0.268918991,0.0370844007,-0.105469003
5732,0.268918991,0.0370844007,-0.101562999
5733,0.268918991,0.0370844007,-0.0976563022
5734,0.268918991,0.0370844007,-0.09375
5735,0.268918991,0.0370844007,-0.0898438022
5736,0.268918991,0.0370844007,-0.0859375
5737,0.268918991,0.0370844007,-0.0820311978
5738,0.268918991,0.0370844007,-0.078125
5739,0.268918991,0.0370844007,-0.0742186978
5740,0.268918991,0.0370844007,-0.0703125
5741,0.268918991,0.0370844007,-0.0664063022
5742,0.268918991,0.0370844007,-0.0625
5743,0.268918991,0.0370844007,-0.0585937016
5744,0.268918991,0.0370844007,-0.0546875
5745,0.268918991,0.0370844007,-0.0507812016
5746,0.268918991,0.0370844007,-0.046875
5747,0.268918991,0.0370844007,-0.0429687984
5748,0.268918991,0.0370844007,-0.0390625
5749,0.268918991,0.0370844007,-0.0351562016
5750,0.268918991,0.0370844007,-0.03125
5751,0.268918991,0.0370844007,-0.0273438003
5752,0.268918991,0.0370844007,-0.0234375
5753,0.268918991,0.0370844007,-0.0195311997
5754,0.268918991,0.0370844007,-0.015625
5755,0.268918991,0.0370844007,-0.0117188003
5756,0.268918991,0.0370844007,-0.0078125
5757,0.268918991,0.0370844007,-0.00390625
5758,0.268918991,0.0370844007,-0
5759,0.268918991,0.0370844007,0.00390625
5760,0.268918991,0.0370844007,0.0078125
5761,0.268918991,0.0370844007,0.0117188003
5762,0.268918991,0.0370844007,0.015625
5763,0.268918991,0.0370844007,0.0195311997
5764,0.268918991,0.0370844007,0.0234375
5765,0.268918991,0.0370844007,0.0273436997
5766,0.268918991,0.0370844007,0.03125
5767,0.268918991,0.0370844007,0.0351562016
5768,0.268918991,0.0370844007,0.0390625
5769,0.268918991,0.0370844007,0.0429687984
5770,0.268918991,0.0370844007,0.046875
5771,0.268918991,0.0370844007,0.0507812016
5772,0.268918991,0.0370844007,0.0546875
5773,0.268918991,0.0370844007,0.0585937016
5774,0.268918991,0.0370844007,0.0625
5775,0.268918991,0.0370844007,0.0664061978
5776,0.268918991,0.0370844007,0.0703125
5777,0.268918991,0.0370844007,0.0742188022
5778,0.268918991,0.0370844007,0.078125
5779,0.268918991,0.0370844007,0.0820313022
5780,0.268918991,0.0370844007,0.0859375
5781,0.268918991,0.0370844007,0.0898438022
5782,0.268918991,0.0370844007,0.09375
5783,0.268918991,0.0370844007,0.0976563022
5784,0.268918991,0.0370844007,0.101562999
5785,0.268918991,0.0370844007,0.105469003
5786,0.268918991,0.0370844007,0.109375
5787,0.268918991,0.0370844007,0.113280997
5788,0.268918991,0.0370844007,0.117187001
5789,0.268918991,0.0370844007,0.121094003
5790,0.268918991,0.0370844007,0.125
5791,0.268918991,0.0370844007,0.128905997
5792,0.268918991,0.0370844007,0.132811993
5793,0.268918991,0.0370844007,0.136719003
5794,0.268918991,0.0370844007,0.140625
5795,0.268918991,0.0370844007,0.144530997
5796,0.268918991,0.0370844007,0.148438007
5797,0.268918991,0.0370844007,0.152344003
5798,0.268918991,0.0370844007,0.15625
5799,0.268918991,0.0370844007,0.160155997
5800,0.268918991,0.0370844007,0.164063007
5801,0.268918991,0.0370844007,0.167969003
5802,0.268918991,0.0370844007,0.171875
5803,0.268918991,0.0370844007,0.175780997
5804,0.268918991,0.0370844007,0.179688007
5805,0.268918991,0.0370844007,0.183594003
5806,0.268918991,0.0370844007,0.1875
5807,0.268918991,0.0370844007,0.191405997
5808,0.268918991,0.0370844007,0.195313007
5809,0.268918991,0.0370844007,0.199219003
5810,0.268918991,0.0370844007,0.203125
5811,0.268918991,0.0370844007,0.207030997
5812,0.268918991,0.0370844007,0.210938007
5813,0.268918991,0.0370844007,0.214844003
5814,0.268918991,0.0370844007,0.21875
5815,0.268918991,0.0370844007,0.222655997
5816,0.268918991,0.0370844007,0.226563007
5817,0.268918991,0.0370844007,0.230469003
5818,0.268918991,0.0370844007,0.234375
5819,0.268918991,0.0370844007,0.238280997
5820,0.268918991,0.0370844007,0.242188007
5821,0.268918991,0.0370844007,0.246094003
5822,0.268918991,0.0370844007,0.25
5823,0.268918991,0.0370844007,0.253906012
5824,0.268918991,0.0370844007,0.257813007
5825,0.268918991,0.0370844007,0.261718988
5826,0.268918991,0.0370844007,0.265625
5827,0.268918991,0.0370844007,0.269531012
5828,0.268918991,0.0370844007,0.273438007
5829,0.268918991,0.0370844007,0.277343988
5830,0.268918991,0.0370844007,0.28125
5831,0.268918991,0.0370844007,0.285156012
5832,0.268918991,0.0370844007,0.289061993
5833,0.268918991,0.0370844007,0.292968988
5834,0.268918991,0.0370844007,0.296875
5835,0.268918991,0.0370844007,0.300781012
5836,0.268918991,0.0370844007,0.304688007
5837,0.268918991,0.0370844007,0.308593988
5838,0.268918991,0.0370844007,0.3125
5839,0.268918991,0.0370844007,0.316406012
5840,0.268918991,0.0370844007,0.320313007
5841,0.268918991,0.0370844007,0.324218988
5842,0.268918991,0.0370844007,0.328125
5843,0.268918991,0.0370844007,0.332031012
5844,0.268918991,0.0370844007,0.335936993
5845,0.268918991,0.0370844007,0.339843988
5846,0.268918991,0.0370844007,0.34375
5847,0.268918991,0.0370844007,0.347656012
5848,0.268918991,0.0370844007,0.351561993
5849,0.268932015,0.0370888002,-0.394423991
5850,0.268945992,0.044868499,0.371073008
5851,0.268999994,0.0450366996,0.390619993
5852,0.269003987,0.0449825004,0.382808
5853,0.269008994,0.0450153016,0.386714011
5854,0.269010007,0.0449105017,0.37499699
5855,0.269014001,0.0449478999,0.378901988
5856,0.269032001,0.0413428992,0.397381991
5857,0.269199014,0.0373165011,0.39733699
5858,0.269266993,0.0372419991,-0.397388011
5859,0.274195999,0.0389261991,-0.386718988
5860,0.274195999,0.0389262997,0.390625
5861,0.274195999,0.0389265008,-0.382811993
5862,0.274195999,0.0389265008,-0.378906012
5863,0.274195999,0.0389265008,-0.375
5864,0.274195999,0.0389265008,-0.371093988
5865,0.274195999,0.0389265008,-0.367188007
5866,0.274195999,0.0389265008,-0.363281012
5867,0.274195999,0.0389265008,-0.359375
5868,0.274195999,0.0389265008,-0.355468988
5869,0.274195999,0.0389265008,-0.351561993
5870,0.274195999,0.0389265008,-0.347656012
5871,0.274195999,0.0389265008,-0.34375
5872,0.274195999,0.0389265008,-0.339843988
5873,0.274195999,0.0389265008,-0.335938007
5874,0.274195999,0.0389265008,-0.332031012
5875,0.274195999,0.0389265008,-0.328125
5876,0.274195999,0.0389265008,-0.324218988
5877,0.274195999,0.0389265008,-0.320311993
5878,0.274195999,0.0389265008,-0.316406012
5879,0.274195999,0.0389265008,-0.3125
5880,0.274195999,0.0389265008,-0.308593988
5881,0.274195999,0.0389265008,-0.304688007
5882,0.274195999,0.0389265008,-0.300781012
5883,0.274195999,0.0389265008,-0.296875
5884,0.274195999,0.0389265008,-0.292968988
5885,0.274195999,0.0389265008,-0.289061993
5886,0.274195999,0.0389265008,-0.285156012
5887,0.274195999,0.0389265008,-0.28125
5888,0.274195999,0.0389265008,-0.277343988
5889,0.274195999,0.0389265008,-0.273438007
5890,0.274195999,0.0389265008,-0.269531012
5891,0.274195999,0.0389265008,-0.265625
5892,0.274195999,0.0389265008,-0.261718988
5893,0.274195999,0.0389265008,-0.257811993
5894,0.274195999,0.0389265008,-0.253906012
5895,0.274195999,0.0389265008,-0.25
5896,0.274195999,0.0389265008,-0.246094003
5897,0.274195999,0.0389265008,-0.242186993
5898,0.274195999,0.0389265008,-0.238280997
5899,0.274195999,0.0389265008,-0.234375
5900,0.274195999,0.0389265008,-0.230469003
5901,0.274195999,0.0389265008,-0.226563007
5902,0.274195999,0.0389265008,-0.222655997
5903,0.274195999,0.0389265008,-0.21875
5904,0.274195999,0.0389265008,-0.214844003
5905,0.274195999,0.0389265008,-0.210936993
5906,0.274195999,0.0389265008,-0.207030997
5907,0.274195999,0.0389265008,-0.203125
5908,0.274195999,0.0389265008,-0.199219003
5909,0.274195999,0.0389265008,-0.195311993
5910,0.274195999,0.0389265008,-0.191405997
5911,0.274195999,0.0389265008,-0.1875
5912,0.274195999,0.0389265008,-0.183594003
5913,0.274195999,0.0389265008,-0.179688007
5914,0.274195999,0.0389265008,-0.175780997
5915,0.274195999,0.0389265008,-0.171875
5916,0.274195999,0.0389265008,-0.167969003
5917,0.274195999,0.0389265008,-0.164063007
5918,0.274195999,0.0389265008,-0.160155997
5919,0.274195999,0.0389265008,-0.15625
5920,0.274195999,0.0389265008,-0.152344003
5921,0.274195999,0.0389265008,-0.148436993
5922,0.274195999,0.0389265008,-0.144530997
5923,0.274195999,0.0389265008,-0.140625
5924,0.274195999,0.0389265008,-0.136719003
5925,0.274195999,0.0389265008,-0.132811993
5926,0.274195999,0.0389265008,-0.128905997
5927,0.274195999,0.0389265008,-0.125
5928,0.274195999,0.0389265008,-0.121094003
5929,0.274195999,0.0389265008,-0.117187999
5930,0.274195999,0.0389265008,-0.113280997
5931,0.274195999,0.0389265008,-0.109375
5932,0.274195999,0.0389265008,-0.105469003
5933,0.274195999,0.0389265008,-0.101562999
5934,0.274195999,0.0389265008,-0.0976563022
5935,0.274195999,0.0389265008,-0.09375
5936,0.274195999,0.0389265008,-0.0898436978
5937,0.274195999,0.0389265008,-0.0859375
5938,0.274195999,0.0389265008,-0.0820311978
5939,0.274195999,0.0389265008,-0.078125
5940,0.274195999,0.0389265008,-0.0742186978
5941,0.274195999,0.0389265008,-0.0703125
5942,0.274195999,0.0389265008,-0.0664063022
5943,0.274195999,0.0389265008,-0.0625
5944,0.274195999,0.0389265008,-0.0585937016
5945,0.274195999,0.0389265008,-0.0546875
5946,0.274195999,0.0389265008,-0.0507812016
5947,0.274195999,0.0389265008,-0.046875
5948,0.274195999,0.0389265008,-0.0429687016
5949,0.274195999,0.0389265008,-0.0390625
5950,0.274195999,0.0389265008,-0.0351562984
5951,0.274195999,0.0389265008,-0.03125
5952,0.274195999,0.0389265008,-0.0273436997
5953,0.274195999,0.0389265008,-0.0234375
5954,0.274195999,0.0389265008,-0.0195311997
5955,0.274195999,0.0389265008,-0.015625
5956,0.274195999,0.0389265008,-0.0117188003
5957,0.274195999,0.0389265008,-0.0078125
5958,0.274195999,0.0389265008,-0.00390625
5959,0.274195999,0.0389265008,0
5960,0.274195999,0.0389265008,0.00390625
5961,0.274195999,0.0389265008,0.0078125
5962,0.274195999,0.0389265008,0.0117186997
5963,0.274195999,0.0389265008,0.015625
5964,0.274195999,0.0389265008,0.0195311997
5965,0.274195999,0.0389265008,0.0234375
5966,0.274195999,0.0389265008,0.0273436997
5967,0.274195999,0.0389265008,0.03125
5968,0.274195999,0.0389265008,0.0351562016
5969,0.274195999,0.0389265008,0.0390625
5970,0.274195999,0.0389265008,0.0429687016
5971,0.274195999,0.0389265008,0.046875
5972,0.274195999,0.0389265008,0.0507812016
5973,0.274195999,0.0389265008,0.0546875
5974,0.274195999,0.0389265008,0.0585937016
5975,0.274195999,0.0389265008,0.0625
5976,0.274195999,0.0389265008,0.0664061978
5977,0.274195999,0.0389265008,0.0703125
5978,0.274195999,0.0389265008,0.0742186978
5979,0.274195999,0.0389265008,0.078125
5980,0.274195999,0.0389265008,0.0820311978
5981,0.274195999,0.0389265008,0.0859375
5982,0.274195999,0.0389265008,0.0898436978
5983,0.274195999,0.0389265008,0.09375
5984,0.274195999,0.0389265008,0.0976563022
5985,0.274195999,0.0389265008,0.101562001
5986,0.274195999,0.0389265008,0.105469003
5987,0.274195999,0.0389265008,0.109375
5988,0.274195999,0.0389265008,0.113280997
5989,0.274195999,0.0389265008,0.117187001
5990,0.274195999,0.0389265008,0.121094003
5991,0.274195999,0.0389265008,0.125
5992,0.274195999,0.0389265008,0.128905997
5993,0.274195999,0.0389265008,0.132811993
5994,0.274195999,0.0389265008,0.136719003
5995,0.274195999,0.0389265008,0.140625
5996,0.274195999,0.0389265008,0.144530997
5997,0.274195999,0.0389265008,0.148436993
5998,0.274195999,0.0389265008,0.152344003
5999,0.274195999,0.0389265008,0.15625
6000,0.274195999,0.0389265008,0.160155997
6001,0.274195999,0.0389265008,0.164063007
6002,0.274195999,0.0389265008,0.167969003
6003,0.274195999,0.0389265008,0.171875
6004,0.274195999,0.0389265008,0.175780997
6005,0.274195999,0.0389265008,0.179686993
6006,0.274195999,0.0389265008,0.183594003
6007,0.274195999,0.0389265008,0.1875
6008,0.274195999,0.0389265008,0.191405997
6009,0.274195999,0.0389265008,0.195311993
6010,0.274195999,0.0389265008,0.199219003
6011,0.274195999,0.0389265008,0.203125
6012,0.274195999,0.0389265008,0.207030997
6013,0.274195999,0.0389265008,0.210936993
6014,0.274195999,0.0389265008,0.214844003
6015,0.274195999,0.0389265008,0.21875
6016,0.274195999,0.0389265008,0.222655997
6017,0.274195999,0.0389265008,0.226563007
6018,0.274195999,0.0389265008,0.230469003
6019,0.274195999,0.0389265008,0.234375
6020,0.274195999,0.0389265008,0.238280997
6021,0.274195999,0.0389265008,0.242186993
6022,0.274195999,0.0389265008,0.246094003
6023,0.274195999,0.0389265008,0.25
6024,0.274195999,0.0389265008,0.253906012
6025,0.274195999,0.0389265008,0.257813007
6026,0.274195999,0.0389265008,0.261718988
6027,0.274195999,0.0389265008,0.265625
6028,0.274195999,0.0389265008,0.269531012
6029,0.274195999,0.0389265008,0.273436993
6030,0.274195999,0.0389265008,0.277343988
6031,0.274195999,0.0389265008,0.28125
6032,0.274195999,0.0389265008,0.285156012
6033,0.274195999,0.0389265008,0.289061993
6034,0.274195999,0.0389265008,0.292968988
6035,0.274195999,0.0389265008,0.296875
6036,0.274195999,0.0389265008,0.300781012
6037,0.274195999,0.0389265008,0.304686993
6038,0.274195999,0.0389265008,0.308593988
6039,0.274195999,0.0389265008,0.3125
6040,0.274195999,0.0389265008,0.316406012
6041,0.274195999,0.0389265008,0.320313007
6042,0.274195999,0.0389265008,0.324218988
6043,0.274195999,0.0389265008,0.328125
6044,0.274195999,0.0389265008,0.332031012
6045,0.274195999,0.0389265008,0.335936993
6046,0.274195999,0.0389265008,0.339843988
6047,0.274195999,0.0389265008,0.34375
6048,0.274195999,0.0389265008,0.347656012
6049,0.274195999,0.0389265008,0.351563007
6050,0.274195999,0.0389265008,0.355468988
6051,0.274195999,0.0389265008,0.359375
6052,0.274195999,0.0389265008,0.363281012
6053,0.274195999,0.0389265008,0.367188007
6054,0.274195999,0.0389265008,0.371093988
6055,0.274195999,0.0389265008,0.375
6056,0.274195999,0.0389265008,0.378906012
6057,0.274195999,0.0389265008,0.382813007
6058,0.274195999,0.0389265008,0.386718988
6059,0.274197996,0.0389216989,-0.390625
6060,0.274241,0.0389388986,0.394392014
6061,0.274250001,0.0389137007,-0.394392014
6062,0.274655998,0.0390850008,0.397354007
6063,0.274659991,0.0390737988,-0.397354007
6064,0.274733007,0.0427927002,-0.397320986
6065,0.274850011,0.0455565006,0.394315004
6066,0.274872988,0.0421365984,0.397320986
6067,0.274897009,0.0455554016,-0.390590012
6068,0.274897993,0.0455477014,0.390590012
6069,0.274901986,0.0455281995,-0.386712998
6070,0.274902999,0.0455254018,0.386712998
6071,0.27490899,0.0454978012,0.382806987
6072,0.27490899,0.0454990007,-0.382806987
6073,0.27491501,0.0454687998,0.378901005
6074,0.27491501,0.0454696007,-0.378901005
6075,0.274921,0.0454392992,0.374994993
6076,0.274921,0.0454403013,-0.374994993
6077,0.274924994,0.0456316993,-0.171875
6078,0.274924994,0.0456316993,-0.167969003
6079,0.274924994,0.0456316993,-0.164061993
6080,0.274924994,0.0456316993,-0.160155997
6081,0.274924994,0.0456316993,-0.15625
6082,0.274924994,0.0456316993,-0.152344003
6083,0.274924994,0.0456316993,-0.148438007
6084,0.274924994,0.0456316993,-0.144530997
6085,0.274924994,0.0456316993,-0.140625
6086,0.274924994,0.0456316993,-0.136719003
6087,0.274924994,0.0456316993,-0.132813007
6088,0.274924994,0.0456316993,-0.128905997
6089,0.274924994,0.0456316993,-0.125
6090,0.274924994,0.0456316993,-0.121094003
6091,0.274924994,0.0456316993,-0.117187001
6092,0.274924994,0.0456316993,-0.113280997
6093,0.274924994,0.0456316993,-0.109375
6094,0.274924994,0.0456316993,-0.105469003
6095,0.274924994,0.0456316993,-0.101562001
6096,0.274924994,0.0456316993,-0.0976563022
6097,0.274924994,0.0456316993,-0.09375
6098,0.274924994,0.0456316993,-0.0898438022
6099,0.274924994,0.0456316993,-0.0859375
6100,0.274924994,0.0456316993,-0.0820313022
6101,0.274924994,0.0456316993,-0.078125
6102,0.274924994,0.0456316993,-0.0742186978
6103,0.274924994,0.0456316993,-0.0703125
6104,0.274924994,0.0456316993,-0.0664061978
6105,0.274924994,0.0456316993,-0.0625
6106,0.274924994,0.0456316993,-0.0585937016
6107,0.274924994,0.0456316993,-0.0546875
6108,0.274924994,0.0456316993,-0.0507812016
6109,0.274924994,0.0456316993,-0.046875
6110,0.274924994,0.0456316993,-0.0429687984
6111,0.274924994,0.0456316993,-0.0390625
6112,0.274924994,0.0456316993,-0.0351562984
6113,0.274924994,0.0456316993,-0.03125
6114,0.274924994,0.0456316993,-0.0273436997
6115,0.274924994,0.0456316993,-0.0234375
6116,0.274924994,0.0456316993,-0.0195313003
6117,0.274924994,0.0456316993,-0.015625
6118,0.274924994,0.0456316993,-0.0117186997
6119,0.274924994,0.0456316993,-0.0078125
6120,0.274924994,0.0456316993,-0.00390625
6121,0.274924994,0.0456316993,-0
6122,0.274924994,0.0456316993,0.00390625
6123,0.274924994,0.0456316993,0.0078125
6124,0.274924994,0.0456316993,0.0117186997
6125,0.274924994,0.0456316993,0.015625
6126,0.274924994,0.0456316993,0.0195311997
6127,0.274924994,0.0456316993,0.0234375
6128,0.274924994,0.0456316993,0.0273436997
6129,0.274924994,0.0456316993,0.03125
6130,0.274924994,0.0456316993,0.0351562016
6131,0.274924994,0.0456316993,0.0390625
6132,0.274924994,0.0456316993,0.0429687984
6133,0.274924994,0.0456316993,0.046875
6134,0.274924994,0.0456316993,0.0507812016
6135,0.274924994,0.0456316993,0.0546875
6136,0.274924994,0.0456316993,0.0585937016
6137,0.274924994,0.0456316993,0.0625
6138,0.274924994,0.0456316993,0.0664061978
6139,0.274924994,0.0456316993,0.0703125
6140,0.274924994,0.0456316993,0.0742186978
6141,0.274924994,0.0456316993,0.078125
6142,0.274924994,0.0456316993,0.0820311978
6143,0.274924994,0.0456316993,0.0859375
6144,0.274924994,0.0456316993,0.0898436978
6145,0.274924994,0.0456316993,0.09375
6146,0.274924994,0.0456316993,0.0976561978
6147,0.274924994,0.0456316993,0.101562001
6148,0.274924994,0.0456316993,0.105469003
6149,0.274924994,0.0456316993,0.109375
6150,0.274924994,0.0456316993,0.113280997
6151,0.274924994,0.0456316993,0.117187001
6152,0.274924994,0.0456316993,0.121094003
6153,0.274924994,0.0456316993,0.125
6154,0.274924994,0.0456316993,0.128905997
6155,0.274924994,0.0456316993,0.132811993
6156,0.274924994,0.0456316993,0.136719003
6157,0.274924994,0.0456316993,0.140625
6158,0.274924994,0.0456316993,0.144530997
6159,0.274924994,0.0456316993,0.148436993
6160,0.274924994,0.0456316993,0.152344003
6161,0.274924994,0.0456316993,0.15625
6162,0.274924994,0.0456316993,0.160155997
6163,0.274924994,0.0456316993,0.164063007
6164,0.274924994,0.0456316993,0.167969003
6165,0.274924994,0.0456316993,0.171875
6166,0.27492699,0.0454109013,-0.371089011
6167,0.274928004,0.0454096012,0.371089011
6168,0.274933994,0.0453798994,0.367183
6169,0.274933994,0.0453815013,-0.367183
6170,0.274940014,0.0453509018,0.363276988
6171,0.274940014,0.0453521982,-0.363276988
6172,0.274946004,0.0453221984,0.359371006
6173,0.274946004,0.0453227982,-0.359371006
6174,0.274951994,0.0452932008,0.355464995
6175,0.274951994,0.0452933982,-0.355464995
6176,0.274953991,0.0452637002,-0.351559013
6177,0.274953991,0.0452637002,0.351559013
6178,0.274957001,0.045234099,-0.347653002
6179,0.274957001,0.045234099,0.347653002
6180,0.274958998,0.045204401,-0.34374699
6181,0.274958998,0.045204401,0.34374699
6182,0.274960995,0.0451746993,-0.339841008
6183,0.274960995,0.0451746993,0.339841008
6184,0.274964005,0.0451451018,-0.335934997
6185,0.274964005,0.0451451018,0.335934997
6186,0.274966002,0.0451154001,-0.332029015
6187,0.274966002,0.0451154001,0.332029015
6188,0.274969012,0.0450856984,-0.328123003
6189,0.274969012,0.0450856984,0.328123003
6190,0.274971008,0.0450561009,-0.324216992
6191,0.274971008,0.0450561009,0.324216992
6192,0.274973005,0.0450263992,-0.32031101
6193,0.274973005,0.0450263992,0.32031101
6194,0.274975985,0.0449967012,-0.316404015
6195,0.274975985,0.0449967012,0.316404015
6196,0.274978012,0.0449671,-0.312498003
6197,0.274978012,0.0449671,0.312498003
6198,0.274980992,0.0449373983,-0.308591992
6199,0.274980992,0.0449373983,0.308591992
6200,0.274982989,0.0449077003,-0.30468601
6201,0.274982989,0.0449077003,0.30468601
6202,0.274985999,0.0448780991,-0.300779998
6203,0.274985999,0.0448780991,0.300779998
6204,0.274987996,0.0448484011,-0.296873987
6205,0.274987996,0.0448484011,0.296873987
6206,0.274989992,0.0448186994,-0.292968005
6207,0.274989992,0.0448186994,0.292968005
6208,0.274993002,0.0447890982,-0.289061993
6209,0.274993002,0.0447890982,0.289061993
6210,0.274994999,0.0447594002,-0.285156012
6211,0.274994999,0.0447594002,0.285156012
6212,0.274998009,0.0447296984,-0.28125
6213,0.274998009,0.0447296984,0.28125
6214,0.275000006,0.0447000004,-0.277343988
6215,0.275000006,0.0447000004,0.277343988
6216,0.275002003,0.0446703993,-0.273438007
6217,0.275002003,0.0446703993,0.273438007
6218,0.275005013,0.0446407013,-0.269531995
6219,0.275005013,0.0446407013,0.269531995
6220,0.27500701,0.0446109995,-0.265626013
6221,0.27500701,0.0446109995,0.265626013
6222,0.27500999,0.0445813984,-0.261720002
6223,0.27500999,0.0445813984,0.261720002
6224,0.275011986,0.0445517004,-0.25781399
6225,0.275011986,0.0445517004,0.25781399
6226,0.275014997,0.0445219986,-0.253908008
6227,0.275014997,0.0445219986,0.253908008
6228,0.275016993,0.0444924012,-0.250001997
6229,0.275016993,0.0444924012,0.250001997
6230,0.27501899,0.0444626994,-0.246096
6231,0.27501899,0.0444626994,0.246096
6232,0.275022,0.0444330014,-0.242190003
6233,0.275022,0.0444330014,0.242190003
6234,0.275023997,0.0444034003,-0.238284007
6235,0.275023997,0.0444034003,0.238284007
6236,0.275027007,0.0443736985,-0.234377995
6237,0.275027007,0.0443736985,0.234377995
6238,0.275029004,0.0443440005,-0.230471998
6239,0.275029004,0.0443440005,0.230471998
6240,0.275031,0.0443143994,-0.226566002
6241,0.275031,0.0443143994,0.226566002
6242,0.27503401,0.0442847013,-0.222660005
6243,0.27503401,0.0442847013,0.222660005
6244,0.275036007,0.0442549996,-0.218753994
6245,0.275036007,0.0442549996,0.218753994
6246,0.275038987,0.0442253985,-0.214847997
6247,0.275038987,0.0442253985,0.214847997
6248,0.275041014,0.0441957004,-0.210942
6249,0.275041014,0.0441957004,0.210942
6250,0.275043994,0.0441659987,-0.207036003
6251,0.275043994,0.0441659987,0.207036003
6252,0.275045991,0.0441364013,-0.203130007
6253,0.275045991,0.0441364013,0.203130007
6254,0.275047988,0.0441066995,-0.199223995
6255,0.275047988,0.0441066995,0.199223995
6256,0.275050998,0.0440770015,-0.195317999
6257,0.275050998,0.0440770015,0.195317999
6258,0.275052994,0.0440474004,-0.191412002
6259,0.275052994,0.0440474004,0.191412002
6260,0.275056005,0.0440176986,-0.187506005
6261,0.275056005,0.0440176986,0.187506005
6262,0.275058001,0.0439880006,-0.183599994
6263,0.275058001,0.0439880006,0.183599994
6264,0.275059998,0.0439582989,-0.179693997
6265,0.275059998,0.0439582989,0.179693997
6266,0.275063008,0.0439287014,-0.175788
6267,0.275063008,0.0439287014,0.175788
6268,0.275209993,0.0429341011,-0.394327015
6269,0.278813004,0.0405493006,0.39715299
6270,0.278937012,0.0401997007,-0.39715299
6271,0.279141009,0.0406668,0.394315004
6272,0.279188007,0.0405322984,-0.394315004
6273,0.279220015,0.0430388004,0.397101015
6274,0.279359996,0.0407446995,0.390603989
6275,0.279368997,0.0407182984,-0.390603989
6276,0.279430002,0.0407693982,-0.382813007
6277,0.279430002,0.0407693982,-0.378906012
6278,0.279430002,0.0407693982,-0.375
6279,0.279430002,0.0407693982,-0.371093988
6280,0.279430002,0.0407693982,-0.367188007
6281,0.279430002,0.0407693982,-0.363281012
6282,0.279430002,0.0407693982,-0.359375
6283,0.279430002,0.0407693982,-0.355468988
6284,0.279430002,0.0407693982,-0.351561993
6285,0.279430002,0.0407693982,-0.347656012
6286,0.279430002,0.0407693982,-0.34375
6287,0.279430002,0.0407693982,-0.339843988
6288,0.279430002,0.0407693982,-0.335938007
6289,0.279430002,0.0407693982,-0.332031012
6290,0.279430002,0.0407693982,-0.328125
6291,0.279430002,0.0407693982,-0.324218988
6292,0.279430002,0.0407693982,-0.320311993
6293,0.279430002,0.0407693982,-0.316406012
6294,0.279430002,0.0407693982,-0.3125
6295,0.279430002,0.0407693982,-0.308593988
6296,0.279430002,0.0407693982,-0.304688007
6297,0.279430002,0.0407693982,-0.300781012
6298,0.279430002,0.0407693982,-0.296875
6299,0.279430002,0.0407693982,-0.292968988
6300,0.279430002,0.0407693982,-0.289063007
6301,0.279430002,0.0407693982,-0.285156012
6302,0.279430002,0.0407693982,-0.28125
6303,0.279430002,0.0407693982,-0.277343988
6304,0.279430002,0.0407693982,-0.273438007
6305,0.279430002,0.0407693982,-0.269531012
6306,0.279430002,0.0407693982,-0.265625
6307,0.279430002,0.0407693982,-0.261718988
6308,0.279430002,0.0407693982,-0.257811993
6309,0.279430002,0.0407693982,-0.253906012
6310,0.279430002,0.0407693982,-0.25
6311,0.279430002,0.0407693982,-0.246094003
6312,0.279430002,0.0407693982,-0.242188007
6313,0.279430002,0.0407693982,-0.238280997
6314,0.279430002,0.0407693982,-0.234375
6315,0.279430002,0.0407693982,-0.230469003
6316,0.279430002,0.0407693982,-0.226563007
6317,0.279430002,0.0407693982,-0.222655997
6318,0.279430002,0.0407693982,-0.21875
6319,0.279430002,0.0407693982,-0.214844003
6320,0.279430002,0.0407693982,-0.210936993
6321,0.279430002,0.0407693982,-0.207030997
6322,0.279430002,0.0407693982,-0.203125
6323,0.279430002,0.0407693982,-0.199219003
6324,0.279430002,0.0407693982,-0.195311993
6325,0.279430002,0.0407693982,-0.191405997
6326,0.279430002,0.0407693982,-0.1875
6327,0.279430002,0.0407693982,-0.183594003
6328,0.279430002,0.0407693982,-0.179688007
6329,0.279430002,0.0407693982,-0.175780997
6330,0.279430002,0.0407693982,-0.171875
6331,0.279430002,0.0407693982,-0.167969003
6332,0.279430002,0.0407693982,-0.164061993
6333,0.279430002,0.0407693982,-0.160155997
6334,0.279430002,0.0407693982,-0.15625
6335,0.279430002,0.0407693982,-0.152344003
6336,0.279430002,0.0407693982,-0.148438007
6337,0.279430002,0.0407693982,-0.144530997
6338,0.279430002,0.0407693982,-0.140625
6339,0.279430002,0.0407693982,-0.136719003
6340,0.279430002,0.0407693982,-0.132811993
6341,0.279430002,0.0407693982,-0.128905997
6342,0.279430002,0.0407693982,-0.125
6343,0.279430002,0.0407693982,-0.121094003
6344,0.279430002,0.0407693982,-0.117187999
6345,0.279430002,0.0407693982,-0.113280997
6346,0.279430002,0.0407693982,-0.109375
6347,0.279430002,0.0407693982,-0.105469003
6348,0.279430002,0.0407693982,-0.101562999
6349,0.279430002,0.0407693982,-0.0976563022
6350,0.279430002,0.0407693982,-0.09375
6351,0.279430002,0.0407693982,-0.0898438022
6352,0.279430002,0.0407693982,-0.0859375
6353,0.279430002,0.0407693982,-0.0820313022
6354,0.279430002,0.0407693982,-0.078125
6355,0.279430002,0.0407693982,-0.0742188022
6356,0.279430002,0.0407693982,-0.0703125
6357,0.279430002,0.0407693982,-0.0664063022
6358,0.279430002,0.0407693982,-0.0625
6359,0.279430002,0.0407693982,-0.0585937984
6360,0.279430002,0.0407693982,-0.0546875
6361,0.279430002,0.0407693982,-0.0507812984
6362,0.279430002,0.0407693982,-0.046875
6363,0.279430002,0.0407693982,-0.0429687984
6364,0.279430002,0.0407693982,-0.0390625
6365,0.279430002,0.0407693982,-0.0351562984
6366,0.279430002,0.0407693982,-0.03125
6367,0.279430002,0.0407693982,-0.0273438003
6368,0.279430002,0.0407693982,-0.0234375
6369,0.279430002,0.0407693982,-0.0195311997
6370,0.279430002,0.0407693982,-0.015625
6371,0.279430002,0.0407693982,-0.0117186997
6372,0.279430002,0.0407693982,-0.0078125
6373,0.279430002,0.0407693982,-0.00390625
6374,0.279430002,0.0407693982,-0
6375,0.279430002,0.0407693982,0.00390625
6376,0.279430002,0.0407693982,0.0078125
6377,0.279430002,0.0407693982,0.0117186997
6378,0.279430002,0.0407693982,0.015625
6379,0.279430002,0.0407693982,0.0195311997
6380,0.279430002,0.0407693982,0.0234375
6381,0.279430002,0.0407693982,0.0273436997
6382,0.279430002,0.0407693982,0.03125
6383,0.279430002,0.0407693982,0.0351562016
6384,0.279430002,0.0407693982,0.0390625
6385,0.279430002,0.0407693982,0.0429687016
6386,0.279430002,0.0407693982,0.046875
6387,0.279430002,0.0407693982,0.0507812016
6388,0.279430002,0.0407693982,0.0546875
6389,0.279430002,0.0407693982,0.0585937984
6390,0.279430002,0.0407693982,0.0625
6391,0.279430002,0.0407693982,0.0664061978
6392,0.279430002,0.0407693982,0.0703125
6393,0.279430002,0.0407693982,0.0742188022
6394,0.279430002,0.0407693982,0.078125
6395,0.279430002,0.0407693982,0.0820311978
6396,0.279430002,0.0407693982,0.0859375
6397,0.279430002,0.0407693982,0.0898436978
6398,0.279430002,0.0407693982,0.09375
6399,0.279430002,0.0407693982,0.0976561978
6400,0.279430002,0.0407693982,0.101562999
6401,0.279430002,0.0407693982,0.105469003
6402,0.279430002,0.0407693982,0.109375
6403,0.279430002,0.0407693982,0.113280997
6404,0.279430002,0.0407693982,0.117187999
6405,0.279430002,0.0407693982,0.121094003
6406,0.279430002,0.0407693982,0.125
6407,0.279430002,0.0407693982,0.128905997
6408,0.279430002,0.0407693982,0.132811993
6409,0.279430002,0.0407693982,0.136719003
6410,0.279430002,0.0407693982,0.140625
6411,0.279430002,0.0407693982,0.144530997
6412,0.279430002,0.0407693982,0.148438007
6413,0.279430002,0.0407693982,0.152344003
6414,0.279430002,0.0407693982,0.15625
6415,0.279430002,0.0407693982,0.160155997
6416,0.279430002,0.0407693982,0.164063007
6417,0.279430002,0.0407693982,0.167969003
6418,0.279430002,0.0407693982,0.171875
6419,0.279430002,0.0407693982,0.175780997
6420,0.279430002,0.0407693982,0.179688007
6421,0.279430002,0.0407693982,0.183594003
6422,0.279430002,0.0407693982,0.1875
6423,0.279430002,0.0407693982,0.191405997
6424,0.279430002,0.0407693982,0.195313007
6425,0.279430002,0.0407693982,0.199219003
6426,0.279430002,0.0407693982,0.203125
6427,0.279430002,0.0407693982,0.207030997
6428,0.279430002,0.0407693982,0.210936993
6429,0.279430002,0.0407693982,0.214844003
6430,0.279430002,0.0407693982,0.21875
6431,0.279430002,0.0407693982,0.222655997
6432,0.279430002,0.0407693982,0.226561993
6433,0.279430002,0.0407693982,0.230469003
6434,0.279430002,0.0407693982,0.234375
6435,0.279430002,0.0407693982,0.238280997
6436,0.279430002,0.0407693982,0.242186993
6437,0.279430002,0.0407693982,0.246094003
6438,0.279430002,0.0407693982,0.25
6439,0.279430002,0.0407693982,0.253906012
6440,0.279430002,0.0407693982,0.257811993
6441,0.279430002,0.0407693982,0.261718988
6442,0.279430002,0.0407693982,0.265625
6443,0.279430002,0.0407693982,0.269531012
6444,0.279430002,0.0407693982,0.273436993
6445,0.279430002,0.0407693982,0.277343988
6446,0.279430002,0.0407693982,0.28125
6447,0.279430002,0.0407693982,0.285156012
6448,0.279430002,0.0407693982,0.289063007
6449,0.279430002,0.0407693982,0.292968988
6450,0.279430002,0.0407693982,0.296875
6451,0.279430002,0.0407693982,0.300781012
6452,0.279430002,0.0407693982,0.304686993
6453,0.279430002,0.0407693982,0.308593988
6454,0.279430002,0.0407693982,0.3125
6455,0.279430002,0.0407693982,0.316406012
6456,0.279430002,0.0407693982,0.320313007
6457,0.279430002,0.0407693982,0.324218988
6458,0.279430002,0.0407693982,0.328125
6459,0.279430002,0.0407693982,0.332031012
6460,0.279430002,0.0407693982,0.335936993
6461,0.279430002,0.0407693982,0.339843988
6462,0.279430002,0.0407693982,0.34375
6463,0.279430002,0.0407693982,0.347656012
6464,0.279430002,0.0407693982,0.351563007
6465,0.279430002,0.0407693982,0.355468988
6466,0.279430002,0.0407693982,0.359375
6467,0.279430002,0.0407693982,0.363281012
6468,0.279430002,0.0407693982,0.367186993
6469,0.279430002,0.0407693982,0.371093988
6470,0.279430002,0.0407693982,0.375
6471,0.279430002,0.0407693982,0.378906012
6472,0.279430002,0.0407693982,0.382813007
6473,0.279430002,0.0407693982,0.386718988
6474,0.279430985,0.0407668985,-0.386718988
6475,0.279731989,0.0412480012,-0.397094011
6476,0.281058997,0.0440981016,-0.393669009
6477,0.281197011,0.0434600003,0.393669009
6478,0.281203002,0.0460748002,-0.390505999
6479,0.281203002,0.0460795015,0.390505999
6480,0.281233013,0.0461311005,-0.339843988
6481,0.281233013,0.0461311005,-0.335938007
6482,0.281233013,0.0461311005,-0.332031012
6483,0.281233013,0.0461311005,-0.328125
6484,0.281233013,0.0461311005,-0.324218988
6485,0.281233013,0.0461311005,-0.320311993
6486,0.281233013,0.0461311005,-0.316406012
6487,0.281233013,0.0461311005,-0.3125
6488,0.281233013,0.0461311005,-0.308593988
6489,0.281233013,0.0461311005,-0.304688007
6490,0.281233013,0.0461311005,-0.300781012
6491,0.281233013,0.0461311005,-0.296875
6492,0.281233013,0.0461311005,-0.292968988
6493,0.281233013,0.0461311005,-0.289063007
6494,0.281233013,0.0461311005,-0.285156012
6495,0.281233013,0.0461311005,-0.28125
6496,0.281233013,0.0461311005,-0.277343988
6497,0.281233013,0.0461311005,-0.273438007
6498,0.281233013,0.0461311005,-0.269531012
6499,0.281233013,0.0461311005,-0.265625
6500,0.281233013,0.0461311005,-0.261718988
6501,0.281233013,0.0461311005,-0.257811993
6502,0.281233013,0.0461311005,-0.253906012
6503,0.281233013,0.0461311005,-0.25
6504,0.281233013,0.0461311005,-0.246094003
6505,0.281233013,0.0461311005,-0.242188007
6506,0.281233013,0.0461311005,-0.238280997
6507,0.281233013,0.0461311005,-0.234375
6508,0.281233013,0.0461311005,-0.230469003
6509,0.281233013,0.0461311005,-0.226561993
6510,0.281233013,0.0461311005,-0.222655997
6511,0.281233013,0.0461311005,-0.21875
6512,0.281233013,0.0461311005,-0.214844003
6513,0.281233013,0.0461311005,-0.210936993
6514,0.281233013,0.0461311005,-0.207030997
6515,0.281233013,0.0461311005,-0.203125
6516,0.281233013,0.0461311005,-0.199219003
6517,0.281233013,0.0461311005,-0.195311993
6518,0.281233013,0.0461311005,-0.191405997
6519,0.281233013,0.0461311005,-0.1875
6520,0.281233013,0.0461311005,-0.183594003
6521,0.281233013,0.0461311005,-0.179688007
6522,0.281233013,0.0461311005,-0.175780997
6523,0.281233013,0.0461311005,-0.171875
6524,0.281233013,0.0461311005,-0.167969003
6525,0.281233013,0.0461311005,-0.164063007
6526,0.281233013,0.0461311005,-0.160155997
6527,0.281233013,0.0461311005,-0.15625
6528,0.281233013,0.0461311005,-0.152344003
6529,0.281233013,0.0461311005,-0.148438007
6530,0.281233013,0.0461311005,-0.144530997
6531,0.281233013,0.0461311005,-0.140625
6532,0.281233013,0.0461311005,-0.136719003
6533,0.281233013,0.0461311005,-0.132811993
6534,0.281233013,0.0461311005,-0.128905997
6535,0.281233013,0.0461311005,-0.125
6536,0.281233013,0.0461311005,-0.121094003
6537,0.281233013,0.0461311005,-0.117187001
6538,0.281233013,0.0461311005,-0.113280997
6539,0.281233013,0.0461311005,-0.109375
6540,0.281233013,0.0461311005,-0.105469003
6541,0.281233013,0.0461311005,-0.101562001
6542,0.281233013,0.0461311005,-0.0976561978
6543,0.281233013,0.0461311005,-0.09375
6544,0.281233013,0.0461311005,-0.0898436978
6545,0.281233013,0.0461311005,-0.0859375
6546,0.281233013,0.0461311005,-0.0820311978
6547,0.281233013,0.0461311005,-0.078125
6548,0.281233013,0.0461311005,-0.0742186978
6549,0.281233013,0.0461311005,-0.0703125
6550,0.281233013,0.0461311005,-0.0664061978
6551,0.281233013,0.0461311005,-0.0625
6552,0.281233013,0.0461311005,-0.0585937016
6553,0.281233013,0.0461311005,-0.0546875
6554,0.281233013,0.0461311005,-0.0507812016
6555,0.281233013,0.0461311005,-0.046875
6556,0.281233013,0.0461311005,-0.0429687016
6557,0.281233013,0.0461311005,-0.0390625
6558,0.281233013,0.0461311005,-0.0351562016
6559,0.281233013,0.0461311005,-0.03125
6560,0.281233013,0.0461311005,-0.0273436997
6561,0.281233013,0.0461311005,-0.0234375
6562,0.281233013,0.0461311005,-0.0195311997
6563,0.281233013,0.0461311005,-0.015625
6564,0.281233013,0.0461311005,-0.0117186997
6565,0.281233013,0.0461311005,-0.0078125
6566,0.281233013,0.0461311005,-0.00390625
6567,0.281233013,0.0461311005,-0
6568,0.281233013,0.0461311005,0.00390625
6569,0.281233013,0.0461311005,0.0078125
6570,0.281233013,0.0461311005,0.0117186997
6571,0.281233013,0.0461311005,0.015625
6572,0.281233013,0.0461311005,0.0195311997
6573,0.281233013,0.0461311005,0.0234375
6574,0.281233013,0.0461311005,0.0273436997
6575,0.281233013,0.0461311005,0.03125
6576,0.281233013,0.0461311005,0.0351562984
6577,0.281233013,0.0461311005,0.0390625
6578,0.281233013,0.0461311005,0.0429687984
6579,0.281233013,0.0461311005,0.046875
6580,0.281233013,0.0461311005,0.0507812016
6581,0.281233013,0.0461311005,0.0546875
6582,0.281233013,0.0461311005,0.0585937016
6583,0.281233013,0.0461311005,0.0625
6584,0.281233013,0.0461311005,0.0664061978
6585,0.281233013,0.0461311005,0.0703125
6586,0.281233013,0.0461311005,0.0742188022
6587,0.281233013,0.0461311005,0.078125
6588,0.281233013,0.0461311005,0.0820313022
6589,0.281233013,0.0461311005,0.0859375
6590,0.281233013,0.0461311005,0.0898436978
6591,0.281233013,0.0461311005,0.09375
6592,0.281233013,0.0461311005,0.0976563022
6593,0.281233013,0.0461311005,0.101562001
6594,0.281233013,0.0461311005,0.105469003
6595,0.281233013,0.0461311005,0.109375
6596,0.281233013,0.0461311005,0.113280997
6597,0.281233013,0.0461311005,0.117187999
6598,0.281233013,0.0461311005,0.121094003
6599,0.281233013,0.0461311005,0.125
6600,0.281233013,0.0461311005,0.128905997
6601,0.281233013,0.0461311005,0.132811993
6602,0.281233013,0.0461311005,0.136719003
6603,0.281233013,0.0461311005,0.140625
6604,0.281233013,0.0461311005,0.144530997
6605,0.281233013,0.0461311005,0.148438007
6606,0.281233013,0.0461311005,0.152344003
6607,0.281233013,0.0461311005,0.15625
6608,0.281233013,0.0461311005,0.160155997
6609,0.281233013,0.0461311005,0.164061993
6610,0.281233013,0.0461311005,0.167969003
6611,0.281233013,0.0461311005,0.171875
6612,0.281233013,0.0461311005,0.175780997
6613,0.281233013,0.0461311005,0.179688007
6614,0.281233013,0.0461311005,0.183594003
6615,0.281233013,0.0461311005,0.1875
6616,0.281233013,0.0461311005,0.191405997
6617,0.281233013,0.0461311005,0.195311993
6618,0.281233013,0.0461311005,0.199219003
6619,0.281233013,0.0461311005,0.203125
6620,0.281233013,0.0461311005,0.207030997
6621,0.281233013,0.0461311005,0.210936993
6622,0.281233013,0.0461311005,0.214844003
6623,0.281233013,0.0461311005,0.21875
6624,0.281233013,0.0461311005,0.222655997
6625,0.281233013,0.0461311005,0.226563007
6626,0.281233013,0.0461311005,0.230469003
6627,0.281233013,0.0461311005,0.234375
6628,0.281233013,0.0461311005,0.238280997
6629,0.281233013,0.0461311005,0.242188007
6630,0.281233013,0.0461311005,0.246094003
6631,0.281233013,0.0461311005,0.25
6632,0.281233013,0.0461311005,0.253906012
6633,0.281233013,0.0461311005,0.257811993
6634,0.281233013,0.0461311005,0.261718988
6635,0.281233013,0.0461311005,0.265625
6636,0.281233013,0.0461311005,0.269531012
6637,0.281233013,0.0461311005,0.273436993
6638,0.281233013,0.0461311005,0.277343988
6639,0.281233013,0.0461311005,0.28125
6640,0.281233013,0.0461311005,0.285156012
6641,0.281233013,0.0461311005,0.289063007
6642,0.281233013,0.0461311005,0.292968988
6643,0.281233013,0.0461311005,0.296875
6644,0.281233013,0.0461311005,0.300781012
6645,0.281233013,0.0461311005,0.304686993
6646,0.281233013,0.0461311005,0.308593988
6647,0.281233013,0.0461311005,0.3125
6648,0.281233013,0.0461311005,0.316406012
6649,0.281233013,0.0461311005,0.320311993
6650,0.281233013,0.0461311005,0.324218988
6651,0.281233013,0.0461311005,0.328125
6652,0.281233013,0.0461311005,0.332031012
6653,0.281233013,0.0461311005,0.335938007
6654,0.281233013,0.0461311005,0.339843988
6655,0.28123799,0.0460625999,-0.386718005
6656,0.28123799,0.0460625999,0.386718005
6657,0.281239986,0.0460424982,-0.382811993
6658,0.281239986,0.0460424982,0.382811993
6659,0.281241,0.0460222997,-0.378906012
6660,0.281241,0.0460222997,0.378906012
6661,0.281242996,0.0460022017,-0.375
6662,0.281242996,0.0460022017,0.375
6663,0.28124401,0.0459819995,-0.371093988
6664,0.28124401,0.0459819995,0.371093988
6665,0.281246006,0.0459619015,-0.367188007
6666,0.281246006,0.0459619015,0.367188007
6667,0.28124699,0.0459416993,-0.363281012
6668,0.28124699,0.0459416993,0.363281012
6669,0.281248987,0.0459216014,-0.359375
6670,0.281248987,0.0459216014,0.359375
6671,0.281251013,0.0459013991,-0.355468988
6672,0.281251013,0.0459013991,0.355468988
6673,0.281251997,0.0458813012,-0.351563007
6674,0.281251997,0.0458813012,0.351563007
6675,0.281253994,0.0458610989,-0.347656995
6676,0.281253994,0.0458610989,0.347656995
6677,0.281255007,0.045841001,-0.343751013
6678,0.281255007,0.045841001,0.343751013
6679,0.286940992,0.0434431992,0.39043799
6680,0.286942005,0.0434409007,-0.39043799
6681,0.286944985,0.0434443988,-0.386718988
6682,0.286944985,0.0434446,-0.382811993
6683,0.286944985,0.0434446,-0.378906012
6684,0.286944985,0.0434446,-0.375
6685,0.286944985,0.0434446,-0.371093988
6686,0.286944985,0.0434446,-0.367186993
6687,0.286944985,0.0434446,-0.363281012
6688,0.286944985,0.0434446,-0.359375
6689,0.286944985,0.0434446,-0.355468988
6690,0.286944985,0.0434446,-0.351561993
6691,0.286944985,0.0434446,-0.347656012
6692,0.286944985,0.0434446,-0.34375
6693,0.286944985,0.0434446,-0.339843988
6694,0.286944985,0.0434446,-0.335938007
6695,0.286944985,0.0434446,-0.332031012
6696,0.286944985,0.0434446,-0.328125
6697,0.286944985,0.0434446,-0.324218988
6698,0.286944985,0.0434446,-0.320311993
6699,0.286944985,0.0434446,-0.316406012
6700,0.286944985,0.0434446,-0.3125
6701,0.286944985,0.0434446,-0.308593988
6702,0.286944985,0.0434446,-0.304688007
6703,0.286944985,0.0434446,-0.300781012
6704,0.286944985,0.0434446,-0.296875
6705,0.286944985,0.0434446,-0.292968988
6706,0.286944985,0.0434446,-0.289063007
6707,0.286944985,0.0434446,-0.285156012
6708,0.286944985,0.0434446,-0.28125
6709,0.286944985,0.0434446,-0.277343988
6710,0.286944985,0.0434446,-0.273438007
6711,0.286944985,0.0434446,-0.269531012
6712,0.286944985,0.0434446,-0.265625
6713,0.286944985,0.0434446,-0.261718988
6714,0.286944985,0.0434446,-0.257811993
6715,0.286944985,0.0434446,-0.253906012
6716,0.286944985,0.0434446,-0.25
6717,0.286944985,0.0434446,-0.246094003
6718,0.286944985,0.0434446,-0.242188007
6719,0.286944985,0.0434446,-0.238280997
6720,0.286944985,0.0434446,-0.234375
6721,0.286944985,0.0434446,-0.230469003
6722,0.286944985,0.0434446,-0.226563007
6723,0.286944985,0.0434446,-0.222655997
6724,0.286944985,0.0434446,-0.21875
6725,0.286944985,0.0434446,-0.214844003
6726,0.286944985,0.0434446,-0.210936993
6727,0.286944985,0.0434446,-0.207030997
6728,0.286944985,0.0434446,-0.203125
6729,0.286944985,0.0434446,-0.199219003
6730,0.286944985,0.0434446,-0.195311993
6731,0.286944985,0.0434446,-0.191405997
6732,0.286944985,0.0434446,-0.1875
6733,0.286944985,0.0434446,-0.183594003
6734,0.286944985,0.0434446,-0.179688007
6735,0.286944985,0.0434446,-0.175780997
6736,0.286944985,0.0434446,-0.171875
6737,0.286944985,0.0434446,-0.167969003
6738,0.286944985,0.0434446,-0.164063007
6739,0.286944985,0.0434446,-0.160155997
6740,0.286944985,0.0434446,-0.15625
6741,0.286944985,0.0434446,-0.152344003
6742,0.286944985,0.0434446,-0.148438007
6743,0.286944985,0.0434446,-0.144530997
6744,0.286944985,0.0434446,-0.140625
6745,0.286944985,0.0434446,-0.136719003
6746,0.286944985,0.0434446,-0.132813007
6747,0.286944985,0.0434446,-0.128905997
6748,0.286944985,0.0434446,-0.125
6749,0.286944985,0.0434446,-0.121094003
6750,0.286944985,0.0434446,-0.117187999
6751,0.286944985,0.0434446,-0.113280997
6752,0.286944985,0.0434446,-0.109375
6753,0.286944985,0.0434446,-0.105469003
6754,0.286944985,0.0434446,-0.101562999
6755,0.286944985,0.0434446,-0.0976561978
6756,0.286944985,0.0434446,-0.09375
6757,0.286944985,0.0434446,-0.0898438022
6758,0.286944985,0.0434446,-0.0859375
6759,0.286944985,0.0434446,-0.0820313022
6760,0.286944985,0.0434446,-0.078125
6761,0.286944985,0.0434446,-0.0742186978
6762,0.286944985,0.0434446,-0.0703125
6763,0.286944985,0.0434446,-0.0664063022
6764,0.286944985,0.0434446,-0.0625
6765,0.286944985,0.0434446,-0.0585937016
6766,0.286944985,0.0434446,-0.0546875
6767,0.286944985,0.0434446,-0.0507812016
6768,0.286944985,0.0434446,-0.046875
6769,0.286944985,0.0434446,-0.0429687984
6770,0.286944985,0.0434446,-0.0390625
6771,0.286944985,0.0434446,-0.0351562984
6772,0.286944985,0.0434446,-0.03125
6773,0.286944985,0.0434446,-0.0273436997
6774,0.286944985,0.0434446,-0.0234375
6775,0.286944985,0.0434446,-0.0195313003
6776,0.286944985,0.0434446,-0.015625
6777,0.286944985,0.0434446,-0.0117186997
6778,0.286944985,0.0434446,-0.0078125
6779,0.286944985,0.0434446,-0.00390625
6780,0.286944985,0.0434446,-1e-12
6781,0.286944985,0.0434446,0.00390625
6782,0.286944985,0.0434446,0.0078125
6783,0.286944985,0.0434446,0.0117186997
6784,0.286944985,0.0434446,0.015625
6785,0.286944985,0.0434446,0.0195311997
6786,0.286944985,0.0434446,0.0234375
6787,0.286944985,0.0434446,0.0273436997
6788,0.286944985,0.0434446,0.03125
6789,0.286944985,0.0434446,0.0351562016
6790,0.286944985,0.0434446,0.0390625
6791,0.286944985,0.0434446,0.0429687984
6792,0.286944985,0.0434446,0.046875
6793,0.286944985,0.0434446,0.0507812984
6794,0.286944985,0.0434446,0.0546875
6795,0.286944985,0.0434446,0.0585937016
6796,0.286944985,0.0434446,0.0625
6797,0.286944985,0.0434446,0.0664063022
6798,0.286944985,0.0434446,0.0703125
6799,0.286944985,0.0434446,0.0742188022
6800,0.286944985,0.0434446,0.078125
6801,0.286944985,0.0434446,0.0820311978
6802,0.286944985,0.0434446,0.0859375
6803,0.286944985,0.0434446,0.0898438022
6804,0.286944985,0.0434446,0.09375
6805,0.286944985,0.0434446,0.0976561978
6806,0.286944985,0.0434446,0.101562001
6807,0.286944985,0.0434446,0.105469003
6808,0.286944985,0.0434446,0.109375
6809,0.286944985,0.0434446,0.113280997
6810,0.286944985,0.0434446,0.117187001
6811,0.286944985,0.0434446,0.121094003
6812,0.286944985,0.0434446,0.125
6813,0.286944985,0.0434446,0.128905997
6814,0.286944985,0.0434446,0.132811993
6815,0.286944985,0.0434446,0.136719003
6816,0.286944985,0.0434446,0.140625
6817,0.286944985,0.0434446,0.144530997
6818,0.286944985,0.0434446,0.148438007
6819,0.286944985,0.0434446,0.152344003
6820,0.286944985,0.0434446,0.15625
6821,0.286944985,0.0434446,0.160155997
6822,0.286944985,0.0434446,0.164063007
6823,0.286944985,0.0434446,0.167969003
6824,0.286944985,0.0434446,0.171875
6825,0.286944985,0.0434446,0.175780997
6826,0.286944985,0.0434446,0.179686993
6827,0.286944985,0.0434446,0.183594003
6828,0.286944985,0.0434446,0.1875
6829,0.286944985,0.0434446,0.191405997
6830,0.286944985,0.0434446,0.195311993
6831,0.286944985,0.0434446,0.199219003
6832,0.286944985,0.0434446,0.203125
6833,0.286944985,0.0434446,0.207030997
6834,0.286944985,0.0434446,0.210936993
6835,0.286944985,0.0434446,0.214844003
6836,0.286944985,0.0434446,0.21875
6837,0.286944985,0.0434446,0.222655997
6838,0.286944985,0.0434446,0.226561993
6839,0.286944985,0.0434446,0.230469003
6840,0.286944985,0.0434446,0.234375
6841,0.286944985,0.0434446,0.238280997
6842,0.286944985,0.0434446,0.242188007
6843,0.286944985,0.0434446,0.246094003
6844,0.286944985,0.0434446,0.25
6845,0.286944985,0.0434446,0.253906012
6846,0.286944985,0.0434446,0.257811993
6847,0.286944985,0.0434446,0.261718988
6848,0.286944985,0.0434446,0.265625
6849,0.286944985,0.0434446,0.269531012
6850,0.286944985,0.0434446,0.273436993
6851,0.286944985,0.0434446,0.277343988
6852,0.286944985,0.0434446,0.28125
6853,0.286944985,0.0434446,0.285156012
6854,0.286944985,0.0434446,0.289063007
6855,0.286944985,0.0434446,0.292968988
6856,0.286944985,0.0434446,0.296875
6857,0.286944985,0.0434446,0.300781012
6858,0.286944985,0.0434446,0.304686993
6859,0.286944985,0.0434446,0.308593988
6860,0.286944985,0.0434446,0.3125
6861,0.286944985,0.0434446,0.316406012
6862,0.286944985,0.0434446,0.320311993
6863,0.286944985,0.0434446,0.324218988
6864,0.286944985,0.0434446,0.328125
6865,0.286944985,0.0434446,0.332031012
6866,0.286944985,0.0434446,0.335938007
6867,0.286944985,0.0434446,0.339843988
6868,0.286944985,0.0434446,0.34375
6869,0.286944985,0.0434446,0.347656012
6870,0.286944985,0.0434446,0.351563007
6871,0.286944985,0.0434446,0.355468988
6872,0.286944985,0.0434446,0.359375
6873,0.286944985,0.0434446,0.363281012
6874,0.286944985,0.0434446,0.367188007
6875,0.286944985,0.0434446,0.371093988
6876,0.286944985,0.0434446,0.375
6877,0.286944985,0.0434446,0.378906012
6878,0.286944985,0.0434446,0.382813007
6879,0.286944985,0.0434446,0.386718988
6880,0.287028015,0.0465256982,0.386716992
6881,0.287028998,0.0465120003,0.382809997
6882,0.287039995,0.0463754982,-0.343748003
6883,0.287039995,0.0463754982,0.343748003
6884,0.287041008,0.0463619009,-0.339841992
6885,0.287041008,0.0463619009,0.339841992
6886,0.287041992,0.0463481992,-0.33593601
6887,0.287041992,0.0463481992,0.33593601
6888,0.287043005,0.0463345982,-0.332029998
6889,0.287043005,0.0463345982,0.332029998
6890,0.287043989,0.0463210009,-0.328123987
6891,0.287043989,0.0463210009,0.328123987
6892,0.287045002,0.0463072993,-0.324216992
6893,0.287045002,0.0463072993,0.324216992
6894,0.287045985,0.0462936983,-0.32031101
6895,0.287045985,0.0462936983,0.32031101
6896,0.287046999,0.0462800004,-0.316404998
6897,0.287046999,0.0462800004,0.316404998
6898,0.287048012,0.0462663993,-0.312498987
6899,0.287048012,0.0462663993,0.312498987
6900,0.287048995,0.0462527014,-0.308593005
6901,0.287048995,0.0462527014,0.308593005
6902,0.287050009,0.0462391004,-0.30468601
6903,0.287050009,0.0462391004,0.30468601
6904,0.287050992,0.0462253988,-0.300779998
6905,0.287050992,0.0462253988,0.300779998
6906,0.287052006,0.0462118015,-0.296873987
6907,0.287052006,0.0462118015,0.296873987
6908,0.287052989,0.0461980999,-0.292968005
6909,0.287052989,0.0461980999,0.292968005
6910,0.287054002,0.0461844988,-0.289061993
6911,0.287054002,0.0461844988,0.289061993
6912,0.287054986,0.0461708009,-0.285154998
6913,0.287054986,0.0461708009,0.285154998
6914,0.287055999,0.0461571999,-0.281248987
6915,0.287055999,0.0461571999,0.281248987
6916,0.287057012,0.0461434983,-0.277343005
6917,0.287057012,0.0461434983,0.277343005
6918,0.287057996,0.046129901,-0.273436993
6919,0.287057996,0.046129901,0.273436993
6920,0.287059009,0.0461161993,-0.269531012
6921,0.287059009,0.0461161993,0.269531012
6922,0.287059993,0.0461025983,-0.265623987
6923,0.287059993,0.0461025983,0.265623987
6924,0.287061006,0.0460889004,-0.261718005
6925,0.287061006,0.0460889004,0.261718005
6926,0.287061989,0.0460752994,-0.257811993
6927,0.287061989,0.0460752994,0.257811993
6928,0.287063003,0.0460616015,-0.253906012
6929,0.287063003,0.0460616015,0.253906012
6930,0.287063986,0.0460480005,-0.25
6931,0.287063986,0.0460480005,0.25
6932,0.287064999,0.0460342988,-0.246093005
6933,0.287064999,0.0460342988,0.246093005
6934,0.287066013,0.0454519987,-0.390412003
6935,0.287066013,0.0460207015,-0.242186993
6936,0.287066013,0.0460207015,0.242186993
6937,0.287066996,0.0460069999,-0.238280997
6938,0.287066996,0.0460069999,0.238280997
6939,0.287068009,0.0459933989,-0.234375
6940,0.287068009,0.0459933989,0.234375
6941,0.287068993,0.045979701,-0.230469003
6942,0.287068993,0.045979701,0.230469003
6943,0.287070006,0.0459660999,-0.226561993
6944,0.287070006,0.0459660999,0.226561993
6945,0.28707099,0.0459523983,-0.222655997
6946,0.28707099,0.0459523983,0.222655997
6947,0.287072003,0.045938801,-0.21875
6948,0.287072003,0.045938801,0.21875
6949,0.287072986,0.0459252,-0.214844003
6950,0.287072986,0.0459252,0.214844003
6951,0.287074,0.0459114984,-0.210938007
6952,0.287074,0.0459114984,0.210938007
6953,0.287075013,0.0458979011,-0.207030997
6954,0.287075013,0.0458979011,0.207030997
6955,0.287075996,0.0458841994,-0.203125
6956,0.287075996,0.0458841994,0.203125
6957,0.287077993,0.0458705984,-0.199219003
6958,0.287077993,0.0458705984,0.199219003
6959,0.287079006,0.0458569005,-0.195313007
6960,0.287079006,0.0458569005,0.195313007
6961,0.28707999,0.0458432995,-0.191406995
6962,0.28707999,0.0458432995,0.191406995
6963,0.287081003,0.0458296016,-0.1875
6964,0.287081003,0.0458296016,0.1875
6965,0.287081987,0.0458160006,-0.183594003
6966,0.287081987,0.0458160006,0.183594003
6967,0.287083,0.0458022989,-0.179688007
6968,0.287083,0.0458022989,0.179688007
6969,0.287084013,0.0457887016,-0.175781995
6970,0.287084013,0.0457887016,0.175781995
6971,0.287084997,0.045775,-0.171875998
6972,0.287084997,0.045775,0.171875998
6973,0.28708601,0.045761399,-0.167969003
6974,0.28708601,0.045761399,0.167969003
6975,0.287086993,0.0457477011,-0.164063007
6976,0.287086993,0.0457477011,0.164063007
6977,0.287088007,0.0457341,-0.160156995
6978,0.287088007,0.0457341,0.160156995
6979,0.28708899,0.0457203984,-0.156250998
6980,0.28708899,0.0457203984,0.156250998
6981,0.287090003,0.0457068011,-0.152345002
6982,0.287090003,0.0457068011,0.152345002
6983,0.287090987,0.0456930995,-0.148438007
6984,0.287090987,0.0456930995,0.148438007
6985,0.287092,0.0456794985,-0.144531995
6986,0.287092,0.0456794985,0.144531995
6987,0.287093014,0.0456658006,-0.140625998
6988,0.287093014,0.0456658006,0.140625998
6989,0.287093997,0.0456521995,-0.136720002
6990,0.287093997,0.0456521995,0.136720002
6991,0.28709501,0.0456385016,-0.132813007
6992,0.28709501,0.0456385016,0.132813007
6993,0.287095994,0.0456249006,-0.128906995
6994,0.287095994,0.0456249006,0.128906995
6995,0.287097007,0.045611199,-0.125000998
6996,0.287097007,0.045611199,0.125000998
6997,0.287097991,0.0455976017,-0.121095002
6998,0.287097991,0.0455976017,0.121095002
6999,0.287099004,0.0455839001,-0.117188998
7000,0.287099004,0.0455839001,0.117188998
7001,0.287099987,0.045570299,-0.113282003
7002,0.287099987,0.045570299,0.113282003
7003,0.287101001,0.0455566011,-0.109375998
7004,0.287101001,0.0455566011,0.109375998
7005,0.287102014,0.0455430001,-0.105470002
7006,0.287102014,0.0455430001,0.105470002
7007,0.287102997,0.0455293991,-0.101563998
7008,0.287102997,0.0455293991,0.101563998
7009,0.287104011,0.0455157012,-0.0976577029
7010,0.287104011,0.0455157012,0.0976577029
7011,0.287104994,0.0455021001,-0.0937514976
7012,0.287104994,0.0455021001,0.0937514976
7013,0.287106007,0.0454883985,-0.0898452997
7014,0.287106007,0.0454883985,0.0898452997
7015,0.287106991,0.0454748012,-0.0859391019
7016,0.287106991,0.0454748012,0.0859391019
7017,0.287169993,0.0454741009,-0.382811993
7018,0.287169993,0.0454741009,-0.378906012
7019,0.287169993,0.0454741009,-0.375
7020,0.287169993,0.0454741009,-0.371093988
7021,0.287169993,0.0454741009,-0.367188007
7022,0.287169993,0.0454741009,-0.363281012
7023,0.287169993,0.0454741009,-0.359375
7024,0.287169993,0.0454741009,-0.355468988
7025,0.287169993,0.0454741009,-0.351561993
7026,0.287169993,0.0454741009,-0.347656012
7027,0.287169993,0.0454741009,-0.0820311978
7028,0.287169993,0.0454741009,-0.078125
7029,0.287169993,0.0454741009,-0.0742188022
7030,0.287169993,0.0454741009,-0.0703125
7031,0.287169993,0.0454741009,-0.0664061978
7032,0.287169993,0.0454741009,-0.0625
7033,0.287169993,0.0454741009,-0.0585937984
7034,0.287169993,0.0454741009,-0.0546875
7035,0.287169993,0.0454741009,-0.0507812984
7036,0.287169993,0.0454741009,-0.046875
7037,0.287169993,0.0454741009,-0.0429687016
7038,0.287169993,0.0454741009,-0.0390625
7039,0.287169993,0.0454741009,-0.0351562984
7040,0.287169993,0.0454741009,-0.03125
7041,0.287169993,0.0454741009,-0.0273436997
7042,0.287169993,0.0454741009,-0.0234375
7043,0.287169993,0.0454741009,-0.0195313003
7044,0.287169993,0.0454741009,-0.015625
7045,0.287169993,0.0454741009,-0.0117186997
7046,0.287169993,0.0454741009,-0.0078125
7047,0.287169993,0.0454741009,-0.00390625
7048,0.287169993,0.0454741009,0
7049,0.287169993,0.0454741009,0.00390625
7050,0.287169993,0.0454741009,0.0078125
7051,0.287169993,0.0454741009,0.0117186997
7052,0.287169993,0.0454741009,0.015625
7053,0.287169993,0.0454741009,0.0195311997
7054,0.287169993,0.0454741009,0.0234375
7055,0.287169993,0.0454741009,0.0273436997
7056,0.287169993,0.0454741009,0.03125
7057,0.287169993,0.0454741009,0.0351562016
7058,0.287169993,0.0454741009,0.0390625
7059,0.287169993,0.0454741009,0.0429687016
7060,0.287169993,0.0454741009,0.046875
7061,0.287169993,0.0454741009,0.0507812016
7062,0.287169993,0.0454741009,0.0546875
7063,0.287169993,0.0454741009,0.0585937984
7064,0.287169993,0.0454741009,0.0625
7065,0.287169993,0.0454741009,0.0664061978
7066,0.287169993,0.0454741009,0.0703125
7067,0.287169993,0.0454741009,0.0742186978
7068,0.287169993,0.0454741009,0.078125
7069,0.287169993,0.0454741009,0.0820311978
7070,0.287169993,0.0454741009,0.347656012
7071,0.287169993,0.0454741009,0.351561993
7072,0.287169993,0.0454741009,0.355468988
7073,0.287169993,0.0454741009,0.359375
7074,0.287169993,0.0454741009,0.363281012
7075,0.287169993,0.0454741009,0.367188007
7076,0.287169993,0.0454741009,0.371093988
7077,0.287169993,0.0454741009,0.375
7078,0.287169993,0.0454742014,-0.386718988
7079,0.287218004,0.0447323993,0.390412003
7080,0.287239999,0.0435850993,-0.392681986
7081,0.287241012,0.0435842983,0.392681986
7082,0.287256986,0.0454928018,0.378872991
7083,0.290259987,0.0446356013,-0.386718988
7084,0.290259987,0.0446356013,-0.382813007
7085,0.290259987,0.0446356013,-0.378906012
7086,0.290259987,0.0446356013,-0.375
7087,0.290259987,0.0446356013,-0.371093988
7088,0.290259987,0.0446356013,-0.367188007
7089,0.290259987,0.0446356013,-0.363281012
7090,0.290259987,0.0446356013,-0.359375
7091,0.290259987,0.0446356013,-0.355468988
7092,0.290259987,0.0446356013,-0.351561993
7093,0.290259987,0.0446356013,-0.347656012
7094,0.290259987,0.0446356013,-0.34375
7095,0.290259987,0.0446356013,-0.339843988
7096,0.290259987,0.0446356013,-0.335936993
7097,0.290259987,0.0446356013,-0.332031012
7098,0.290259987,0.0446356013,-0.328125
7099,0.290259987,0.0446356013,-0.324218988
7100,0.290259987,0.0446356013,-0.320311993
7101,0.290259987,0.0446356013,-0.316406012
7102,0.290259987,0.0446356013,-0.3125
7103,0.290259987,0.0446356013,-0.308593988
7104,0.290259987,0.0446356013,-0.304686993
7105,0.290259987,0.0446356013,-0.300781012
7106,0.290259987,0.0446356013,-0.296875
7107,0.290259987,0.0446356013,-0.292968988
7108,0.290259987,0.0446356013,-0.289063007
7109,0.290259987,0.0446356013,-0.285156012
7110,0.290259987,0.0446356013,-0.28125
7111,0.290259987,0.0446356013,-0.277343988
7112,0.290259987,0.0446356013,-0.273436993
7113,0.290259987,0.0446356013,-0.269531012
7114,0.290259987,0.0446356013,-0.265625
7115,0.290259987,0.0446356013,-0.261718988
7116,0.290259987,0.0446356013,-0.257811993
7117,0.290259987,0.0446356013,-0.253906012
7118,0.290259987,0.0446356013,-0.25
7119,0.290259987,0.0446356013,-0.246094003
7120,0.290259987,0.0446356013,-0.242188007
7121,0.290259987,0.0446356013,-0.238280997
7122,0.290259987,0.0446356013,-0.234375
7123,0.290259987,0.0446356013,-0.230469003
7124,0.290259987,0.0446356013,-0.226561993
7125,0.290259987,0.0446356013,-0.222655997
7126,0.290259987,0.0446356013,-0.21875
7127,0.290259987,0.0446356013,-0.214844003
7128,0.290259987,0.0446356013,-0.210938007
7129,0.290259987,0.0446356013,-0.207030997
7130,0.290259987,0.0446356013,-0.203125
7131,0.290259987,0.0446356013,-0.199219003
7132,0.290259987,0.0446356013,-0.195313007
7133,0.290259987,0.0446356013,-0.191405997
7134,0.290259987,0.0446356013,-0.1875
7135,0.290259987,0.0446356013,-0.183594003
7136,0.290259987,0.0446356013,-0.179686993
7137,0.290259987,0.0446356013,-0.175780997
7138,0.290259987,0.0446356013,-0.171875
7139,0.290259987,0.0446356013,-0.167969003
7140,0.290259987,0.0446356013,-0.164063007
7141,0.290259987,0.0446356013,-0.160155997
7142,0.290259987,0.0446356013,-0.15625
7143,0.290259987,0.0446356013,-0.152344003
7144,0.290259987,0.0446356013,-0.148438007
7145,0.290259987,0.0446356013,-0.144530997
7146,0.290259987,0.0446356013,-0.140625
7147,0.290259987,0.0446356013,-0.136719003
7148,0.290259987,0.0446356013,-0.132811993
7149,0.290259987,0.0446356013,-0.128905997
7150,0.290259987,0.0446356013,-0.125
7151,0.290259987,0.0446356013,-0.121094003
7152,0.290259987,0.0446356013,-0.117187999
7153,0.290259987,0.0446356013,-0.113280997
7154,0.290259987,0.0446356013,-0.109375
7155,0.290259987,0.0446356013,-0.105469003
7156,0.290259987,0.0446356013,-0.101562001
7157,0.290259987,0.0446356013,-0.0976561978
7158,0.290259987,0.0446356013,-0.09375
7159,0.290259987,0.0446356013,-0.0898436978
7160,0.290259987,0.0446356013,-0.0859375
7161,0.290259987,0.0446356013,-0.0820313022
7162,0.290259987,0.0446356013,-0.078125
7163,0.290259987,0.0446356013,-0.0742188022
7164,0.290259987,0.0446356013,-0.0703125
7165,0.290259987,0.0446356013,-0.0664061978
7166,0.290259987,0.0446356013,-0.0625
7167,0.290259987,0.0446356013,-0.0585937016
7168,0.290259987,0.0446356013,-0.0546875
7169,0.290259987,0.0446356013,-0.0507812984
7170,0.290259987,0.0446356013,-0.046875
7171,0.290259987,0.0446356013,-0.0429687016
7172,0.290259987,0.0446356013,-0.0390625
7173,0.290259987,0.0446356013,-0.0351562016
7174,0.290259987,0.0446356013,-0.03125
7175,0.290259987,0.0446356013,-0.0273436997
7176,0.290259987,0.0446356013,-0.0234375
7177,0.290259987,0.0446356013,-0.0195313003
7178,0.290259987,0.0446356013,-0.015625
7179,0.290259987,0.0446356013,-0.0117188003
7180,0.290259987,0.0446356013,-0.0078125
7181,0.290259987,0.0446356013,-0.00390625
7182,0.290259987,0.0446356013,-1e-12
7183,0.290259987,0.0446356013,0.00390625
7184,0.290259987,0.0446356013,0.0078125
7185,0.290259987,0.0446356013,0.0117186997
7186,0.290259987,0.0446356013,0.015625
7187,0.290259987,0.0446356013,0.0195313003
7188,0.290259987,0.0446356013,0.0234375
7189,0.290259987,0.0446356013,0.0273438003
7190,0.290259987,0.0446356013,0.03125
7191,0.290259987,0.0446356013,0.0351562016
7192,0.290259987,0.0446356013,0.0390625
7193,0.290259987,0.0446356013,0.0429687016
7194,0.290259987,0.0446356013,0.046875
7195,0.290259987,0.0446356013,0.0507812016
7196,0.290259987,0.0446356013,0.0546875
7197,0.290259987,0.0446356013,0.0585937016
7198,0.290259987,0.0446356013,0.0625
7199,0.290259987,0.0446356013,0.0664061978
7200,0.290259987,0.0446356013,0.0703125
7201,0.290259987,0.0446356013,0.0742188022
7202,0.290259987,0.0446356013,0.078125
7203,0.290259987,0.0446356013,0.0820311978
7204,0.290259987,0.0446356013,0.0859375
7205,0.290259987,0.0446356013,0.0898436978
7206,0.290259987,0.0446356013,0.09375
7207,0.290259987,0.0446356013,0.0976563022
7208,0.290259987,0.0446356013,0.101562001
7209,0.290259987,0.0446356013,0.105469003
7210,0.290259987,0.0446356013,0.109375
7211,0.290259987,0.0446356013,0.113280997
7212,0.290259987,0.0446356013,0.117187001
7213,0.290259987,0.0446356013,0.121094003
7214,0.290259987,0.0446356013,0.125
7215,0.290259987,0.0446356013,0.128905997
7216,0.290259987,0.0446356013,0.132811993
7217,0.290259987,0.0446356013,0.136719003
7218,0.290259987,0.0446356013,0.140625
7219,0.290259987,0.0446356013,0.144530997
7220,0.290259987,0.0446356013,0.148436993
7221,0.290259987,0.0446356013,0.152344003
7222,0.290259987,0.0446356013,0.15625
7223,0.290259987,0.0446356013,0.160155997
7224,0.290259987,0.0446356013,0.164061993
7225,0.290259987,0.0446356013,0.167969003
7226,0.290259987,0.0446356013,0.171875
7227,0.290259987,0.0446356013,0.175780997
7228,0.290259987,0.0446356013,0.179686993
7229,0.290259987,0.0446356013,0.183594003
7230,0.290259987,0.0446356013,0.1875
7231,0.290259987,0.0446356013,0.191405997
7232,0.290259987,0.0446356013,0.195313007
7233,0.290259987,0.0446356013,0.199219003
7234,0.290259987,0.0446356013,0.203125
7235,0.290259987,0.0446356013,0.207030997
7236,0.290259987,0.0446356013,0.210936993
7237,0.290259987,0.0446356013,0.214844003
7238,0.290259987,0.0446356013,0.21875
7239,0.290259987,0.0446356013,0.222655997
7240,0.290259987,0.0446356013,0.226561993
7241,0.290259987,0.0446356013,0.230469003
7242,0.290259987,0.0446356013,0.234375
7243,0.290259987,0.0446356013,0.238280997
7244,0.290259987,0.0446356013,0.242186993
7245,0.290259987,0.0446356013,0.246094003
7246,0.290259987,0.0446356013,0.25
7247,0.290259987,0.0446356013,0.253906012
7248,0.290259987,0.0446356013,0.257811993
7249,0.290259987,0.0446356013,0.261718988
7250,0.290259987,0.0446356013,0.265625
7251,0.290259987,0.0446356013,0.269531012
7252,0.290259987,0.0446356013,0.273436993
7253,0.290259987,0.0446356013,0.277343988
7254,0.290259987,0.0446356013,0.28125
7255,0.290259987,0.0446356013,0.285156012
7256,0.290259987,0.0446356013,0.289061993
7257,0.290259987,0.0446356013,0.292968988
7258,0.290259987,0.0446356013,0.296875
7259,0.290259987,0.0446356013,0.300781012
7260,0.290259987,0.0446356013,0.304688007
7261,0.290259987,0.0446356013,0.308593988
7262,0.290259987,0.0446356013,0.3125
7263,0.290259987,0.0446356013,0.316406012
7264,0.290259987,0.0446356013,0.320313007
7265,0.290259987,0.0446356013,0.324218988
7266,0.290259987,0.0446356013,0.328125
7267,0.290259987,0.0446356013,0.332031012
7268,0.290259987,0.0446356013,0.335938007
7269,0.290259987,0.0446356013,0.339843988
7270,0.290259987,0.0446356013,0.34375
7271,0.290259987,0.0446356013,0.347656012
7272,0.290259987,0.0446356013,0.351563007
7273,0.290259987,0.0446356013,0.355468988
7274,0.290259987,0.0446356013,0.359375
7275,0.290259987,0.0446356013,0.363281012
7276,0.290259987,0.0446356013,0.367188007
7277,0.290259987,0.0446356013,0.371093988
7278,0.290259987,0.0446356013,0.375
7279,0.290259987,0.0446356013,0.378906012
7280,0.290259987,0.0446356013,0.382813007
7281,0.290259987,0.0446356013,0.386718988
7282,0.290279001,0.0446425006,-0.390401989
7283,0.290279001,0.0446426012,0.390401989
7284,0.290794998,0.0448288992,0.392951012
7285,0.290796012,0.0448280014,-0.392951012
*ELEMENT, TYPE=S3, ELSET=ALL_SHELL
1,2111,1895,1889
2,1893,2106,2111
3,2111,1889,1893
4,2116,2112,1896
5,1896,2124,2116
6,2104,2120,2128
7,2124,1896,2104
8,2104,2128,2124
9,1676,1468,1466
10,1466,1888,1676
11,1675,1887,1465
12,1465,1467,1675
13,1468,1359,1357
14,1357,1466,1468
15,1482,1686,1888
16,1888,1466,1482
17,1467,1465,1356
18,1356,1358,1467
19,1481,1465,1887
20,1887,1685,1481
21,832,937,1042
22,1042,624,832
23,833,1041,623
24,623,625,833
25,831,623,1041
26,1041,936,831
27,2862,2858,2551
28,2551,2654,2862
29,834,626,624
30,624,1042,834
31,2863,2655,2552
32,2552,2861,2863
33,937,1044,1250
34,1250,1042,937
35,1677,1675,1467
36,1467,1487,1677
37,1041,833,1251
38,1251,1249,1041
39,936,1041,1249
40,1249,1043,936
41,2444,2547,2654
42,2654,2551,2444
43,1678,1488,1468
44,1468,1676,1678
45,1042,1250,1252
46,1252,834,1042
47,2445,2552,2655
48,2655,2548,2445
49,2224,2121,2119
50,2119,2127,2224
51,2339,2125,2121
52,2121,2224,2339
53,2340,2225,2122
54,2122,2126,2340
55,104,207,209
56,209,102,104
57,405,209,504
58,504,415,405
59,625,728,938
60,938,833,625
61,415,504,625
62,625,623,415
63,2757,2549,2967
64,2967,2864,2757
65,3492,3488,3181
66,3181,3385,3492
67,3488,3489,3179
68,3179,3181,3488
69,2858,2967,2549
70,2549,2551,2858
71,2969,3177,2858
72,2858,2862,2969
73,206,103,210
74,210,208,206
75,406,416,505
76,505,210,406
77,626,834,939
78,939,729,626
79,416,624,626
80,626,505,416
81,2758,2865,2968
82,2968,2550,2758
83,3493,3386,3283
84,3283,3491,3493
85,3491,3283,3180
86,3180,3490,3491
87,2861,2552,2550
88,2550,2968,2861
89,2970,2863,2861
90,2861,3178,2970
91,1359,1250,1044
92,1044,1357,1359
93,1358,1360,1487
94,1487,1467,1358
95,1241,1251,833
96,833,938,1241
97,1249,1251,1360
98,1360,1358,1249
99,1358,1356,1043
100,1043,1249,1358
101,2113,1998,1685
102,1685,1887,2113
103,2551,2549,2341
104,2341,2444,2551
105,2337,2547,2444
106,2444,2329,2337
107,1359,1468,1488
108,1488,1361,1359
109,1242,939,834
110,834,1252,1242
111,1250,1359,1361
112,1361,1252,1250
113,2114,1888,1686
114,1686,1999,2114
115,2552,2445,2342
116,2342,2550,2552
117,2338,2332,2445
118,2445,2548,2338
119,3595,3493,3491
120,3491,3699,3595
121,3699,3491,3490
122,3490,3701,3699
123,4315,4214,4213
124,4315,4213,4434
125,4434,4432,4315
126,3596,3698,3488
127,3488,3492,3596
128,3698,3700,3489
129,3489,3488,3698
130,5041,5445,4832
131,4832,4833,5041
132,4833,4832,4433
133,4433,4435,4833
134,3389,3601,3600
135,3600,3388,3389
136,3405,3617,3616
137,3616,3404,3405
138,3421,3633,3632
139,3632,3420,3421
140,3648,3436,3437
141,3437,3649,3648
142,3453,3665,3664
143,3664,3452,3453
144,3469,3681,3680
145,3680,3468,3469
146,3485,3697,3696
147,3696,3484,3485
148,409,3,1
149,1,407,409
150,33,31,323
151,323,324,33
152,3389,3388,3287
153,3287,3288,3389
154,3303,3404,3403
155,3403,3302,3303
156,35,33,324
157,324,325,35
158,96,94,339
159,339,340,96
160,3405,3404,3303
161,3303,3304,3405
162,3318,3319,3420
163,3420,3419,3318
164,98,96,340
165,340,341,98
166,57,56,355
167,355,356,57
168,3421,3420,3319
169,3319,3320,3421
170,3436,3435,3334
171,3334,3335,3436
172,356,357,58
173,58,57,356
174,99,371,372
175,372,97,99
176,3335,3336,3437
177,3437,3436,3335
178,3451,3350,3351
179,3351,3452,3451
180,97,372,373
181,373,95,97
182,36,387,388
183,388,34,36
184,3453,3452,3351
185,3351,3352,3453
186,3367,3468,3467
187,3467,3366,3367
188,34,388,389
189,389,32,34
190,410,408,2
191,2,4,410
192,3469,3468,3367
193,3367,3368,3469
194,3383,3484,3483
195,3483,3382,3383
196,407,1,43
197,43,403,407
198,3387,3286,3287
199,3287,3388,3387
200,3403,3404,3616
201,3616,3615,3403
202,3419,3420,3632
203,3632,3631,3419
204,3436,3648,3647
205,3647,3435,3436
206,3451,3452,3664
207,3664,3663,3451
208,3467,3468,3680
209,3680,3679,3467
210,3695,3483,3484
211,3484,3696,3695
212,408,404,71
213,71,2,408
214,3485,3484,3383
215,3383,3384,3485
216,17,15,315
217,315,316,17
218,19,17,316
219,316,317,19
220,3295,3396,3395
221,3395,3294,3295
222,3397,3396,3295
223,3295,3296,3397
224,78,76,331
225,331,332,78
226,80,78,332
227,332,333,80
228,3311,3412,3411
229,3411,3310,3311
230,3413,3412,3311
231,3311,3312,3413
232,49,48,347
233,347,348,49
234,50,49,348
235,348,349,50
236,3327,3428,3427
237,3427,3326,3327
238,3429,3428,3327
239,3327,3328,3429
240,65,64,363
241,363,364,65
242,66,65,364
243,364,365,66
244,3343,3444,3443
245,3443,3342,3343
246,3445,3444,3343
247,3343,3344,3445
248,81,379,380
249,380,79,81
250,79,380,381
251,381,77,79
252,3459,3358,3359
253,3359,3460,3459
254,3461,3460,3359
255,3359,3360,3461
256,20,395,396
257,396,18,20
258,18,396,397
259,397,16,18
260,2112,2107,1894
261,2112,1894,1890
262,1890,1896,2112
263,3475,3374,3375
264,3375,3476,3475
265,3477,3476,3375
266,3375,3376,3477
267,3387,3388,3600
268,3600,3599,3387
269,3608,3607,3395
270,3395,3396,3608
271,3624,3623,3411
272,3411,3412,3624
273,3640,3639,3427
274,3427,3428,3640
275,3656,3655,3443
276,3443,3444,3656
277,3459,3460,3672
278,3672,3671,3459
279,3475,3476,3688
280,3688,3687,3475
281,413,312,9
282,9,7,413
283,2555,2762,2761
284,2761,2553,2555
285,2558,2765,2764
286,2764,2557,2558
287,27,25,320
288,320,321,27
289,2569,2570,2777
290,2777,2776,2569
291,2567,2774,2773
292,2773,2566,2567
293,2873,2661,2660
294,2660,2872,2873
295,3185,3502,3503
296,3503,3186,3185
297,3291,3392,3391
298,3391,3290,3291
299,2658,2657,2869
300,2869,2870,2658
301,3505,3506,3189
302,3189,3188,3505
303,2670,2669,2881
304,2881,2882,2670
305,3300,3401,3400
306,3400,3299,3300
307,3200,3517,3518
308,3518,3201,3200
309,3197,3514,3515
310,3515,3198,3197
311,2885,2673,2672
312,2672,2884,2885
313,41,39,327
314,327,328,41
315,2571,2778,2777
316,2777,2570,2571
317,2573,2574,2781
318,2781,2780,2573
319,90,88,336
320,336,337,90
321,2586,2793,2792
322,2792,2585,2586
323,2582,2583,2790
324,2790,2789,2582
325,2889,2677,2676
326,2676,2888,2889
327,3201,3518,3519
328,3519,3202,3201
329,3307,3408,3407
330,3407,3306,3307
331,3204,3521,3522
332,3522,3205,3204
333,2674,2673,2885
334,2885,2886,2674
335,2686,2685,2897
336,2897,2898,2686
337,3417,3416,3315
338,3315,3316,3417
339,3533,3534,3217
340,3217,3216,3533
341,3214,3213,3530
342,3530,3531,3214
343,2688,2900,2901
344,2901,2689,2688
345,343,344,45
346,45,44,343
347,2586,2587,2794
348,2794,2793,2586
349,2589,2590,2797
350,2797,2796,2589
351,54,53,352
352,352,353,54
353,2809,2808,2601
354,2601,2602,2809
355,2598,2599,2806
356,2806,2805,2598
357,2905,2693,2692
358,2692,2904,2905
359,3535,3218,3217
360,3217,3534,3535
361,3323,3424,3423
362,3423,3322,3323
363,3537,3538,3221
364,3221,3220,3537
365,2690,2689,2901
366,2901,2902,2690
367,2702,2701,2913
368,2913,2914,2702
369,3433,3432,3331
370,3331,3332,3433
371,3549,3550,3233
372,3233,3232,3549
373,3229,3546,3547
374,3547,3230,3229
375,2705,2704,2916
376,2916,2917,2705
377,61,60,359
378,359,360,61
379,2602,2603,2810
380,2810,2809,2602
381,2606,2813,2812
382,2812,2605,2606
383,369,70,69
384,69,368,369
385,2618,2825,2824
386,2824,2617,2618
387,2614,2615,2822
388,2822,2821,2614
389,2921,2709,2708
390,2708,2920,2921
391,3233,3550,3551
392,3551,3234,3233
393,3339,3440,3439
394,3439,3338,3339
395,3553,3554,3237
396,3237,3236,3553
397,2917,2918,2706
398,2706,2705,2917
399,2718,2717,2929
400,2929,2930,2718
401,3449,3448,3347
402,3347,3348,3449
403,3565,3566,3249
404,3249,3248,3565
405,3246,3245,3562
406,3562,3563,3246
407,2933,2721,2720
408,2720,2932,2933
409,91,375,376
410,376,89,91
411,2619,2826,2825
412,2825,2618,2619
413,2828,2621,2622
414,2622,2829,2828
415,42,384,385
416,385,40,42
417,2633,2634,2841
418,2841,2840,2633
419,2838,2837,2630
420,2630,2631,2838
421,2936,2937,2725
422,2725,2724,2936
423,3567,3250,3249
424,3249,3566,3567
425,3354,3355,3456
426,3456,3455,3354
427,3252,3569,3570
428,3570,3253,3252
429,2722,2721,2933
430,2933,2934,2722
431,2946,2734,2733
432,2733,2945,2946
433,3465,3464,3363
434,3363,3364,3465
435,3264,3581,3582
436,3582,3265,3264
437,3262,3261,3578
438,3578,3579,3262
439,2949,2737,2736
440,2736,2948,2949
441,28,391,392
442,392,26,28
443,2842,2841,2634
444,2634,2635,2842
445,2844,2637,2638
446,2638,2845,2844
447,414,8,10
448,10,400,414
449,2649,2554,2857
450,2857,2856,2649
451,2646,2647,2854
452,2854,2853,2646
453,2953,2741,2740
454,2740,2952,2953
455,3265,3582,3583
456,3583,3266,3265
457,3371,3472,3471
458,3471,3370,3371
459,3585,3586,3269
460,3269,3268,3585
461,2738,2737,2949
462,2949,2950,2738
463,2750,2749,2961
464,2961,2962,2750
465,3380,3481,3480
466,3480,3379,3380
467,3499,3281,3280
468,3280,3500,3499
469,3496,3278,3277
470,3277,3594,3496
471,2964,2965,2753
472,2753,2752,2964
473,1889,2103,2105
474,2105,1885,1889
475,3397,3609,3608
476,3608,3396,3397
477,3413,3625,3624
478,3624,3412,3413
479,3640,3428,3429
480,3429,3641,3640
481,3656,3444,3445
482,3445,3657,3656
483,3672,3460,3461
484,3461,3673,3672
485,3689,3688,3476
486,3476,3477,3689
487,1890,1886,2108
488,2108,2104,1890
489,11,9,312
490,312,313,11
491,2545,2462,2555
492,2555,2553,2545
493,2458,2456,2558
494,2558,2557,2458
495,2562,2769,2768
496,2768,2561,2562
497,2558,2559,2766
498,2766,2765,2558
499,2450,2448,2562
500,2562,2561,2450
501,2456,2454,2559
502,2559,2558,2456
503,25,23,319
504,319,320,25
505,2562,2563,2770
506,2770,2769,2562
507,2566,2773,2772
508,2772,2565,2566
509,2570,2569,2471
510,2471,2472,2570
511,2566,2468,2469
512,2469,2567,2566
513,2448,2446,2563
514,2563,2562,2448
515,2467,2468,2566
516,2566,2565,2467
517,2662,2661,2873
518,2873,2874,2662
519,3393,3392,3291
520,3291,3292,3393
521,3509,3510,3193
522,3193,3192,3509
523,3189,3506,3507
524,3507,3190,3189
525,2877,2665,2664
526,2664,2876,2877
527,2881,2669,2668
528,2668,2880,2881
529,3299,3400,3399
530,3399,3298,3299
531,3193,3510,3511
532,3511,3194,3193
533,3196,3513,3514
534,3514,3197,3196
535,2666,2665,2877
536,2877,2878,2666
537,72,41,328
538,328,329,72
539,2570,2472,2473
540,2473,2571,2570
541,2574,2573,2475
542,2475,2476,2574
543,2577,2578,2785
544,2785,2784,2577
545,2782,2781,2574
546,2574,2575,2782
547,2578,2577,2479
548,2479,2480,2578
549,2574,2476,2477
550,2477,2575,2574
551,88,86,335
552,335,336,88
553,2578,2579,2786
554,2786,2785,2578
555,2788,2581,2582
556,2582,2789,2788
557,2487,2488,2586
558,2586,2585,2487
559,2582,2484,2485
560,2485,2583,2582
561,2578,2480,2481
562,2481,2579,2578
563,2483,2484,2582
564,2582,2581,2483
565,2678,2677,2889
566,2889,2890,2678
567,3409,3408,3307
568,3307,3308,3409
569,3208,3525,3526
570,3526,3209,3208
571,3523,3206,3205
572,3205,3522,3523
573,2893,2681,2680
574,2680,2892,2893
575,2897,2685,2684
576,2684,2896,2897
577,3315,3416,3415
578,3415,3314,3315
579,3209,3526,3527
580,3527,3210,3209
581,3212,3529,3530
582,3530,3213,3212
583,2682,2681,2893
584,2893,2894,2682
585,46,45,344
586,344,345,46
587,2586,2488,2489
588,2489,2587,2586
589,2590,2589,2491
590,2491,2492,2590
591,2594,2801,2800
592,2800,2593,2594
593,2590,2591,2798
594,2798,2797,2590
595,2594,2593,2495
596,2495,2496,2594
597,2590,2492,2493
598,2493,2591,2590
599,53,52,351
600,351,352,53
601,2594,2595,2802
602,2802,2801,2594
603,2598,2805,2804
604,2804,2597,2598
605,2504,2602,2601
606,2601,2503,2504
607,2598,2500,2501
608,2501,2599,2598
609,2594,2496,2497
610,2497,2595,2594
611,2598,2597,2499
612,2499,2500,2598
613,2694,2693,2905
614,2905,2906,2694
615,3425,3424,3323
616,3323,3324,3425
617,3541,3542,3225
618,3225,3224,3541
619,3221,3538,3539
620,3539,3222,3221
621,2909,2697,2696
622,2696,2908,2909
623,2913,2701,2700
624,2700,2912,2913
625,3331,3432,3431
626,3431,3330,3331
627,3225,3542,3543
628,3543,3226,3225
629,3545,3546,3229
630,3229,3228,3545
631,2698,2697,2909
632,2909,2910,2698
633,360,361,62
634,62,61,360
635,2602,2504,2505
636,2505,2603,2602
637,2606,2605,2507
638,2507,2508,2606
639,2610,2817,2816
640,2816,2609,2610
641,2606,2607,2814
642,2814,2813,2606
643,2610,2609,2511
644,2511,2512,2610
645,2606,2508,2509
646,2509,2607,2606
647,367,368,69
648,69,68,367
649,2610,2611,2818
650,2818,2817,2610
651,2614,2821,2820
652,2820,2613,2614
653,2519,2520,2618
654,2618,2617,2519
655,2615,2614,2516
656,2516,2517,2615
657,2610,2512,2513
658,2513,2611,2610
659,2614,2613,2515
660,2515,2516,2614
661,2710,2709,2921
662,2921,2922,2710
663,3441,3440,3339
664,3339,3340,3441
665,3557,3558,3241
666,3241,3240,3557
667,3237,3554,3555
668,3555,3238,3237
669,2925,2713,2712
670,2712,2924,2925
671,2929,2717,2716
672,2716,2928,2929
673,3347,3448,3447
674,3447,3346,3347
675,3241,3558,3559
676,3559,3242,3241
677,3561,3562,3245
678,3245,3244,3561
679,2714,2713,2925
680,2925,2926,2714
681,89,376,377
682,377,87,89
683,2618,2520,2521
684,2521,2619,2618
685,2622,2621,2523
686,2523,2524,2622
687,2626,2833,2832
688,2832,2625,2626
689,2622,2623,2830
690,2830,2829,2622
691,2626,2625,2527
692,2527,2528,2626
693,2525,2623,2622
694,2622,2524,2525
695,73,383,384
696,384,42,73
697,2626,2627,2834
698,2834,2833,2626
699,2629,2630,2837
700,2837,2836,2629
701,2634,2633,2535
702,2535,2536,2634
703,2630,2532,2533
704,2533,2631,2630
705,2626,2528,2529
706,2529,2627,2626
707,2630,2629,2531
708,2531,2532,2630
709,2726,2725,2937
710,2937,2938,2726
711,3457,3456,3355
712,3355,3356,3457
713,3573,3574,3257
714,3257,3256,3573
715,3571,3254,3253
716,3253,3570,3571
717,2941,2729,2728
718,2728,2940,2941
719,2945,2733,2732
720,2732,2944,2945
721,3362,3363,3464
722,3464,3463,3362
723,3257,3574,3575
724,3575,3258,3257
725,3577,3578,3261
726,3261,3260,3577
727,2730,2729,2941
728,2941,2942,2730
729,26,392,393
730,393,24,26
731,2634,2536,2537
732,2537,2635,2634
733,2638,2637,2539
734,2539,2540,2638
735,2848,2641,2642
736,2642,2849,2848
737,2638,2639,2846
738,2846,2845,2638
739,2449,2642,2641
740,2641,2447,2449
741,2541,2639,2638
742,2638,2540,2541
743,12,399,400
744,400,10,12
745,2850,2849,2642
746,2642,2643,2850
747,2646,2853,2852
748,2852,2645,2646
749,2546,2554,2649
750,2649,2463,2546
751,2459,2647,2646
752,2646,2457,2459
753,2451,2643,2642
754,2642,2449,2451
755,2457,2646,2645
756,2645,2455,2457
757,2742,2741,2953
758,2953,2954,2742
759,3473,3472,3371
760,3371,3372,3473
761,3589,3590,3273
762,3273,3272,3589
763,3587,3270,3269
764,3269,3586,3587
765,2957,2745,2744
766,2744,2956,2957
767,2961,2749,2748
768,2748,2960,2961
769,3479,3378,3379
770,3379,3480,3479
771,3591,3274,3273
772,3273,3590,3591
773,3593,3594,3277
774,3277,3276,3593
775,2746,2745,2957
776,2957,2958,2746
777,409,407,496
778,496,498,409
779,411,409,498
780,498,500,411
781,3787,3789,3503
782,3503,3502,3787
783,3604,3603,3391
784,3391,3392,3604
785,3794,3796,3506
786,3506,3505,3794
787,4514,4133,4132
788,4132,4629,4514
789,4132,4512,4629
790,4510,4129,4127
791,4127,4626,4510
792,4127,4509,4626
793,422,423,325
794,325,324,422
795,424,326,325
796,325,423,424
797,3714,3715,3519
798,3519,3518,3714
799,3620,3619,3407
800,3407,3408,3620
801,3521,3717,3718
802,3718,3522,3521
803,4554,4445,4167
804,4444,4554,4167
805,4167,4165,4444
806,4551,4442,4161
807,4441,4551,4161
808,4161,4159,4441
809,438,439,341
810,341,340,438
811,440,342,341
812,341,439,440
813,3535,3534,3730
814,3730,3731,3535
815,3636,3635,3423
816,3423,3424,3636
817,3537,3733,3734
818,3734,3538,3537
819,4570,4461,4199
820,4460,4570,4199
821,4199,4197,4460
822,4567,4458,4193
823,4457,4567,4193
824,4193,4191,4457
825,454,455,357
826,357,356,454
827,456,358,357
828,357,455,456
829,3746,3747,3551
830,3551,3550,3746
831,3652,3651,3439
832,3439,3440,3652
833,3553,3749,3750
834,3750,3554,3553
835,4326,4123,4122
836,4122,4328,4326
837,4319,4320,4120
838,4120,4119,4319
839,470,471,373
840,373,372,470
841,472,374,373
842,373,471,472
843,3762,3763,3567
844,3567,3566,3762
845,3668,3667,3455
846,3455,3456,3668
847,3569,3765,3766
848,3766,3570,3569
849,4602,4493,4184
850,4492,4602,4184
851,4184,4186,4492
852,4599,4490,4190
853,4489,4599,4190
854,4190,4192,4489
855,487,389,388
856,388,486,487
857,389,487,488
858,488,390,389
859,3779,3583,3582
860,3582,3778,3779
861,3684,3683,3471
862,3471,3472,3684
863,3585,3781,3782
864,3782,3586,3585
865,4618,4531,4152
866,4533,4618,4152
867,4152,4154,4533
868,4615,4506,4158
869,4505,4615,4158
870,4158,4160,4505
871,411,5,3
872,3,409,411
873,31,29,322
874,322,323,31
875,2974,2975,3288
876,3288,3287,2974
877,3289,3390,3389
878,3389,3288,3289
879,3301,3302,3403
880,3403,3402,3301
881,3303,3302,2989
882,2989,2990,3303
883,37,35,325
884,325,326,37
885,94,92,338
886,338,339,94
887,3304,3303,2990
888,2990,2991,3304
889,3305,3406,3405
890,3405,3304,3305
891,3419,3418,3317
892,3317,3318,3419
893,3318,3005,3006
894,3006,3319,3318
895,100,98,341
896,341,342,100
897,354,355,56
898,56,55,354
899,3007,3320,3319
900,3319,3006,3007
901,3320,3321,3422
902,3422,3421,3320
903,3333,3334,3435
904,3435,3434,3333
905,3335,3334,3021
906,3021,3022,3335
907,59,58,357
908,357,358,59
909,101,370,371
910,371,99,101
911,3336,3335,3022
912,3022,3023,3336
913,3337,3438,3437
914,3437,3336,3337
915,3350,3451,3450
916,3450,3349,3350
917,3351,3350,3037
918,3037,3038,3351
919,95,373,374
920,374,93,95
921,38,386,387
922,387,36,38
923,3039,3352,3351
924,3351,3038,3039
925,3352,3353,3454
926,3454,3453,3352
927,3365,3366,3467
928,3467,3466,3365
929,3367,3366,3053
930,3053,3054,3367
931,32,389,390
932,390,30,32
933,412,410,4
934,4,6,412
935,3368,3367,3054
936,3054,3055,3368
937,3368,3369,3470
938,3470,3469,3368
939,3381,3382,3483
940,3483,3482,3381
941,3069,3070,3383
942,3383,3382,3069
943,2650,2553,2761
944,2761,2759,2650
945,3501,3502,3185
946,3185,3184,3501
947,2868,2869,2657
948,2657,2656,2868
949,615,617,316
950,316,315,615
951,512,615,315
952,315,314,512
953,3612,3400,3401
954,3401,3613,3612
955,3713,3714,3518
956,3518,3517,3713
957,3515,3514,3710
958,3710,3711,3515
959,4547,4532,4153
960,4530,4547,4153
961,4153,4151,4530
962,4550,4441,4159
963,4440,4550,4159
964,4159,4157,4440
965,430,332,331
966,331,429,430
967,428,429,331
968,331,330,428
969,3417,3629,3628
970,3628,3416,3417
971,3533,3729,3730
972,3730,3534,3533
973,3727,3531,3530
974,3530,3726,3727
975,4563,4454,4185
976,4453,4563,4185
977,4185,4183,4453
978,4566,4457,4191
979,4456,4566,4191
980,4191,4189,4456
981,446,348,347
982,347,445,446
983,444,445,347
984,347,346,444
985,3644,3432,3433
986,3433,3645,3644
987,3746,3550,3549
988,3549,3745,3746
989,3547,3546,3742
990,3742,3743,3547
991,4325,4327,4116
992,4116,4115,4325
993,4582,4473,4319
994,4582,4319,4318
995,4318,4472,4582
996,462,364,363
997,363,461,462
998,460,461,363
999,363,362,460
1000,3661,3660,3448
1001,3448,3449,3661
1002,3762,3566,3565
1003,3565,3761,3762
1004,3759,3563,3562
1005,3562,3758,3759
1006,4595,4486,4198
1007,4485,4595,4198
1008,4198,4200,4485
1009,4598,4489,4192
1010,4488,4598,4192
1011,4192,4194,4488
1012,478,380,379
1013,379,477,478
1014,476,477,379
1015,379,378,476
1016,3465,3677,3676
1017,3676,3464,3465
1018,3778,3582,3581
1019,3581,3777,3778
1020,3775,3579,3578
1021,3578,3774,3775
1022,4611,4502,4166
1023,4501,4611,4166
1024,4166,4168,4501
1025,4614,4505,4160
1026,4504,4614,4160
1027,4160,4162,4504
1028,618,396,395
1029,395,620,618
1030,620,395,394
1031,394,622,620
1032,3692,3480,3481
1033,3481,3693,3692
1034,3788,3499,3500
1035,3500,3790,3788
1036,3793,3496,3594
1037,3594,3795,3793
1038,4438,4130,4135
1039,4135,4630,4438
1040,4135,4513,4630
1041,4539,4535,4010
1042,4436,4539,4010
1043,4010,4011,4436
1044,2651,2760,2857
1045,2857,2554,2651
1046,3497,3282,3281
1047,3281,3499,3497
1048,2754,2753,2965
1049,2965,2966,2754
1050,1477,1259,1260
1051,1260,1479,1477
1052,1475,1258,1259
1053,1259,1477,1475
1054,15,13,314
1055,314,315,15
1056,1490,1489,1264
1057,1264,1265,1490
1058,2222,2226,1899
1059,1899,1903,2222
1060,2115,2111,2106
1061,2106,2117,2115
1062,1908,1909,2135
1063,2135,2134,1908
1064,21,19,317
1065,317,318,21
1066,1498,1497,1272
1067,1272,1273,1498
1068,1493,1492,1267
1069,1267,1268,1493
1070,1916,1917,2143
1071,2143,2142,1916
1072,2137,1911,1912
1073,1912,2138,2137
1074,2103,1895,2123
1075,2127,2119,2103
1076,2103,2123,2127
1077,3293,3294,3395
1078,3395,3394,3293
1079,2982,3295,3294
1080,3294,2981,2982
1081,2980,2981,3294
1082,3294,3293,2980
1083,3297,3398,3397
1084,3397,3296,3297
1085,3296,3295,2982
1086,2982,2983,3296
1087,2984,3297,3296
1088,3296,2983,2984
1089,1501,1500,1275
1090,1275,1276,1501
1091,76,74,330
1092,330,331,76
1093,1506,1505,1280
1094,1280,1281,1506
1095,2145,1919,1920
1096,1920,2146,2145
1097,1924,1925,2151
1098,2151,2150,1924
1099,84,80,333
1100,333,334,84
1101,1289,1514,1513
1102,1513,1288,1289
1103,1508,1283,1284
1104,1284,1509,1508
1105,1933,2159,2158
1106,2158,1932,1933
1107,2153,1927,1928
1108,1928,2154,2153
1109,3309,3310,3411
1110,3411,3410,3309
1111,3311,3310,2997
1112,2997,2998,3311
1113,3313,3414,3413
1114,3413,3312,3313
1115,2998,2999,3312
1116,3312,3311,2998
1117,3000,3313,3312
1118,3312,2999,3000
1119,1517,1516,1291
1120,1291,1292,1517
1121,48,47,346
1122,346,347,48
1123,1296,1297,1522
1124,1522,1521,1296
1125,1298,1523,1522
1126,1522,1297,1298
1127,2161,1935,1936
1128,1936,2162,2161
1129,1940,1941,2167
1130,2167,2166,1940
1131,51,50,349
1132,349,350,51
1133,1530,1529,1304
1134,1304,1305,1530
1135,1306,1531,1530
1136,1530,1305,1306
1137,1525,1524,1299
1138,1299,1300,1525
1139,1948,1949,2175
1140,2175,2174,1948
1141,2169,1943,1944
1142,1944,2170,2169
1143,3325,3326,3427
1144,3427,3426,3325
1145,3014,3327,3326
1146,3326,3013,3014
1147,3012,3013,3326
1148,3326,3325,3012
1149,3329,3430,3429
1150,3429,3328,3329
1151,3328,3327,3014
1152,3014,3015,3328
1153,3016,3329,3328
1154,3328,3015,3016
1155,1533,1532,1307
1156,1307,1308,1533
1157,64,63,362
1158,362,363,64
1159,1538,1537,1312
1160,1312,1313,1538
1161,2177,1951,1952
1162,1952,2178,2177
1163,1956,1957,2183
1164,2183,2182,1956
1165,67,66,365
1166,365,366,67
1167,1546,1545,1320
1168,1320,1321,1546
1169,1541,1540,1315
1170,1315,1316,1541
1171,1965,2191,2190
1172,2190,1964,1965
1173,2185,1959,1960
1174,1960,2186,2185
1175,3341,3342,3443
1176,3443,3442,3341
1177,3343,3342,3029
1178,3029,3030,3343
1179,3345,3446,3445
1180,3445,3344,3345
1181,3030,3031,3344
1182,3344,3343,3030
1183,3032,3345,3344
1184,3344,3031,3032
1185,1549,1548,1323
1186,1323,1324,1549
1187,85,378,379
1188,379,81,85
1189,1554,1553,1328
1190,1328,1329,1554
1191,1329,1330,1555
1192,1555,1554,1329
1193,2193,1967,1968
1194,1968,2194,2193
1195,1973,2199,2198
1196,2198,1972,1973
1197,77,381,382
1198,382,75,77
1199,1562,1561,1336
1200,1336,1337,1562
1201,1337,1338,1563
1202,1563,1562,1337
1203,1556,1331,1332
1204,1332,1557,1556
1205,1981,2207,2206
1206,2206,1980,1981
1207,1975,1976,2202
1208,2202,2201,1975
1209,3358,3459,3458
1210,3458,3357,3358
1211,3045,3046,3359
1212,3359,3358,3045
1213,3358,3357,3044
1214,3044,3045,3358
1215,3361,3462,3461
1216,3461,3360,3361
1217,3360,3359,3046
1218,3046,3047,3360
1219,3048,3361,3360
1220,3360,3047,3048
1221,1339,1340,1565
1222,1565,1564,1339
1223,22,394,395
1224,395,20,22
1225,1345,1570,1569
1226,1569,1344,1345
1227,2209,1983,1984
1228,1984,2210,2209
1229,1988,1989,2215
1230,2215,2214,1988
1231,16,397,398
1232,398,14,16
1233,1478,1480,1352
1234,1352,1353,1478
1235,1573,1572,1347
1236,1347,1348,1573
1237,2223,1904,1900
1238,1900,2227,2223
1239,2217,1991,1992
1240,1992,2218,2217
1241,3374,3475,3474
1242,3474,3373,3374
1243,3061,3062,3375
1244,3375,3374,3061
1245,3377,3478,3477
1246,3477,3376,3377
1247,3376,3375,3062
1248,3062,3063,3376
1249,413,502,506
1250,506,312,413
1251,413,411,500
1252,500,502,413
1253,502,734,735
1254,735,506,502
1255,500,733,734
1256,734,502,500
1257,3604,3392,3393
1258,3393,3605,3604
1259,3706,3510,3509
1260,3509,3801,3706
1261,3796,3798,3507
1262,3507,3506,3796
1263,4515,4136,4133
1264,4133,4632,4515
1265,4133,4514,4632
1266,4542,4521,4142
1267,4519,4542,4142
1268,4142,4140,4519
1269,4629,4940,4844
1270,4844,4514,4629
1271,4626,4509,4840
1272,4840,4937,4626
1273,4632,4514,4844
1274,4844,4941,4632
1275,4542,4944,4848
1276,4848,4521,4542
1277,426,328,327
1278,327,425,426
1279,424,425,327
1280,327,326,424
1281,3620,3408,3409
1282,3409,3621,3620
1283,3721,3722,3526
1284,3526,3525,3721
1285,3523,3522,3718
1286,3718,3719,3523
1287,4555,4446,4169
1288,4445,4555,4169
1289,4169,4167,4445
1290,4558,4449,4175
1291,4448,4558,4175
1292,4175,4173,4448
1293,4554,4956,4860
1294,4860,4445,4554
1295,4551,4441,4856
1296,4856,4953,4551
1297,4555,4445,4860
1298,4860,4957,4555
1299,4558,4960,4864
1300,4864,4449,4558
1301,440,439,764
1302,764,765,440
1303,343,441,442
1304,442,344,343
1305,441,343,342
1306,342,440,441
1307,442,441,766
1308,766,767,442
1309,440,765,766
1310,766,441,440
1311,3636,3424,3425
1312,3425,3637,3636
1313,3541,3737,3738
1314,3738,3542,3541
1315,3539,3538,3734
1316,3734,3735,3539
1317,4571,4462,4201
1318,4461,4571,4201
1319,4201,4199,4461
1320,4574,4465,4207
1321,4464,4574,4207
1322,4207,4205,4464
1323,4570,4972,4876
1324,4876,4461,4570
1325,4567,4457,4872
1326,4872,4969,4567
1327,4571,4461,4876
1328,4876,4973,4571
1329,4574,4976,4880
1330,4880,4465,4574
1331,454,779,780
1332,780,455,454
1333,458,360,359
1334,359,457,458
1335,456,457,359
1336,359,358,456
1337,3652,3440,3441
1338,3441,3653,3652
1339,3557,3753,3754
1340,3754,3558,3557
1341,3555,3554,3750
1342,3750,3751,3555
1343,4324,4124,4123
1344,4123,4326,4324
1345,4590,4481,4208
1346,4480,4590,4208
1347,4208,4210,4480
1348,4586,4988,4892
1349,4892,4477,4586
1350,4583,4473,4888
1351,4888,4985,4583
1352,4587,4477,4892
1353,4892,4989,4587
1354,4590,4992,4896
1355,4896,4481,4590
1356,796,471,470
1357,470,795,796
1358,471,796,797
1359,797,472,471
1360,474,376,375
1361,375,473,474
1362,472,473,375
1363,375,374,472
1364,3668,3456,3457
1365,3457,3669,3668
1366,3573,3769,3770
1367,3770,3574,3573
1368,3571,3570,3766
1369,3766,3767,3571
1370,4603,4494,4182
1371,4493,4603,4182
1372,4182,4184,4493
1373,4606,4497,4176
1374,4496,4606,4176
1375,4176,4178,4496
1376,4602,5004,4908
1377,4908,4493,4602
1378,4599,4489,4904
1379,4904,5001,4599
1380,4603,4493,4908
1381,4908,5005,4603
1382,4606,5008,4912
1383,4912,4497,4606
1384,487,486,811
1385,811,812,487
1386,490,392,391
1387,391,489,490
1388,488,489,391
1389,391,390,488
1390,3473,3685,3684
1391,3684,3472,3473
1392,3589,3785,3786
1393,3786,3590,3589
1394,3587,3586,3782
1395,3782,3783,3587
1396,4619,4529,4150
1397,4531,4619,4150
1398,4150,4152,4531
1399,4622,4522,4143
1400,4525,4622,4143
1401,4143,4145,4525
1402,4618,5020,4924
1403,4924,4531,4618
1404,4615,4505,4920
1405,4920,5017,4615
1406,4619,4531,4924
1407,4924,5021,4619
1408,4622,5024,4928
1409,4928,4522,4622
1410,519,520,631
1411,631,630,519
1412,840,839,631
1413,631,632,840
1414,838,630,631
1415,631,839,838
1416,521,632,631
1417,631,520,521
1418,413,7,5
1419,5,411,413
1420,2974,2761,2762
1421,2762,2975,2974
1422,2556,2763,2762
1423,2762,2555,2556
1424,2976,2975,2762
1425,2762,2763,2976
1426,2556,2557,2764
1427,2764,2763,2556
1428,2978,2977,2764
1429,2764,2765,2978
1430,2976,2763,2764
1431,2764,2977,2976
1432,531,642,641
1433,641,530,531
1434,848,640,641
1435,641,849,848
1436,529,530,641
1437,641,640,529
1438,850,849,641
1439,641,642,850
1440,29,27,321
1441,321,322,29
1442,2989,2776,2777
1443,2777,2990,2989
1444,2776,2775,2568
1445,2568,2569,2776
1446,2776,2989,2988
1447,2988,2775,2776
1448,2987,2986,2773
1449,2773,2774,2987
1450,2774,2567,2568
1451,2568,2775,2774
1452,2774,2775,2988
1453,2988,2987,2774
1454,2660,2659,2871
1455,2871,2872,2660
1456,2873,2872,3080
1457,3080,3081,2873
1458,3078,3077,3185
1459,3185,3186,3078
1460,3187,3186,3503
1461,3503,3504,3187
1462,3391,3390,3289
1463,3289,3290,3391
1464,3291,3290,2977
1465,2977,2978,3291
1466,2976,2977,3290
1467,3290,3289,2976
1468,2658,2870,2871
1469,2871,2659,2658
1470,2869,3077,3078
1471,3078,2870,2869
1472,3080,3188,3189
1473,3189,3081,3080
1474,3505,3188,3187
1475,3187,3504,3505
1476,2881,3089,3090
1477,3090,2882,2881
1478,2670,2882,2883
1479,2883,2671,2670
1480,3401,3300,3301
1481,3301,3402,3401
1482,3299,2986,2987
1483,2987,3300,3299
1484,2988,3301,3300
1485,3300,2987,2988
1486,3517,3200,3199
1487,3199,3516,3517
1488,3201,3093,3092
1489,3092,3200,3201
1490,3197,3198,3090
1491,3090,3089,3197
1492,3515,3516,3199
1493,3199,3198,3515
1494,2883,2884,2672
1495,2672,2671,2883
1496,2885,2884,3092
1497,3092,3093,2885
1498,535,536,647
1499,647,646,535
1500,856,855,647
1501,647,648,856
1502,854,646,647
1503,647,855,854
1504,537,648,647
1505,647,536,537
1506,39,37,326
1507,326,327,39
1508,2991,2990,2777
1509,2777,2778,2991
1510,2778,2571,2572
1511,2572,2779,2778
1512,2778,2779,2992
1513,2992,2991,2778
1514,2780,2779,2572
1515,2572,2573,2780
1516,2994,2993,2780
1517,2780,2781,2994
1518,2992,2779,2780
1519,2780,2993,2992
1520,547,658,657
1521,657,546,547
1522,864,656,657
1523,657,865,864
1524,545,546,657
1525,657,656,545
1526,866,865,657
1527,657,658,866
1528,92,90,337
1529,337,338,92
1530,3006,3005,2792
1531,2792,2793,3006
1532,2584,2585,2792
1533,2792,2791,2584
1534,3004,2791,2792
1535,2792,3005,3004
1536,3002,2789,2790
1537,2790,3003,3002
1538,2584,2791,2790
1539,2790,2583,2584
1540,3004,3003,2790
1541,2790,2791,3004
1542,2889,2888,3096
1543,3096,3097,2889
1544,2676,2675,2887
1545,2887,2888,2676
1546,3203,3202,3519
1547,3519,3520,3203
1548,3094,3093,3201
1549,3201,3202,3094
1550,3407,3406,3305
1551,3305,3306,3407
1552,3306,2993,2994
1553,2994,3307,3306
1554,2993,3306,3305
1555,3305,2992,2993
1556,3096,3204,3205
1557,3205,3097,3096
1558,3521,3204,3203
1559,3203,3520,3521
1560,2674,2886,2887
1561,2887,2675,2674
1562,3094,2886,2885
1563,2885,3093,3094
1564,3106,2898,2897
1565,2897,3105,3106
1566,2898,2899,2687
1567,2687,2686,2898
1568,3316,3317,3418
1569,3418,3417,3316
1570,3003,3316,3315
1571,3315,3002,3003
1572,3316,3003,3004
1573,3004,3317,3316
1574,3215,3532,3533
1575,3533,3216,3215
1576,3216,3217,3109
1577,3109,3108,3216
1578,3213,3214,3106
1579,3106,3105,3213
1580,3531,3532,3215
1581,3215,3214,3531
1582,2900,2688,2687
1583,2687,2899,2900
1584,2901,2900,3108
1585,3108,3109,2901
1586,551,552,663
1587,663,662,551
1588,663,664,872
1589,872,871,663
1590,871,870,662
1591,662,663,871
1592,553,664,663
1593,663,552,553
1594,100,342,343
1595,343,44,100
1596,3006,2793,2794
1597,2794,3007,3006
1598,2588,2795,2794
1599,2794,2587,2588
1600,3008,3007,2794
1601,2794,2795,3008
1602,2796,2795,2588
1603,2588,2589,2796
1604,3010,3009,2796
1605,2796,2797,3010
1606,3008,2795,2796
1607,2796,3009,3008
1608,563,674,673
1609,673,562,563
1610,880,672,673
1611,673,881,880
1612,561,562,673
1613,673,672,561
1614,882,881,673
1615,673,674,882
1616,353,354,55
1617,55,54,353
1618,2809,3022,3021
1619,3021,2808,2809
1620,2600,2601,2808
1621,2808,2807,2600
1622,3020,2807,2808
1623,2808,3021,3020
1624,3018,2805,2806
1625,2806,3019,3018
1626,2600,2807,2806
1627,2806,2599,2600
1628,3020,3019,2806
1629,2806,2807,3020
1630,2905,2904,3112
1631,3112,3113,2905
1632,2692,2691,2903
1633,2903,2904,2692
1634,3218,3535,3536
1635,3536,3219,3218
1636,3110,3109,3217
1637,3217,3218,3110
1638,3423,3422,3321
1639,3321,3322,3423
1640,3322,3009,3010
1641,3010,3323,3322
1642,3009,3322,3321
1643,3321,3008,3009
1644,3112,3220,3221
1645,3221,3113,3112
1646,3537,3220,3219
1647,3219,3536,3537
1648,2902,2903,2691
1649,2691,2690,2902
1650,3110,2902,2901
1651,2901,3109,3110
1652,2913,3121,3122
1653,3122,2914,2913
1654,2702,2914,2915
1655,2915,2703,2702
1656,3333,3434,3433
1657,3433,3332,3333
1658,3331,3018,3019
1659,3019,3332,3331
1660,3020,3333,3332
1661,3332,3019,3020
1662,3231,3548,3549
1663,3549,3232,3231
1664,3233,3125,3124
1665,3124,3232,3233
1666,3229,3230,3122
1667,3122,3121,3229
1668,3547,3548,3231
1669,3231,3230,3547
1670,2915,2916,2704
1671,2704,2703,2915
1672,2917,2916,3124
1673,3124,3125,2917
1674,567,568,679
1675,679,678,567
1676,888,887,679
1677,679,680,888
1678,886,678,679
1679,679,887,886
1680,569,680,679
1681,679,568,569
1682,60,59,358
1683,358,359,60
1684,3022,2809,2810
1685,2810,3023,3022
1686,2604,2811,2810
1687,2810,2603,2604
1688,3024,3023,2810
1689,2810,2811,3024
1690,2604,2605,2812
1691,2812,2811,2604
1692,3026,3025,2812
1693,2812,2813,3026
1694,3024,2811,2812
1695,2812,3025,3024
1696,578,579,690
1697,690,689,578
1698,689,897,896
1699,896,688,689
1700,689,688,577
1701,577,578,689
1702,897,689,690
1703,690,898,897
1704,101,70,369
1705,369,370,101
1706,3038,3037,2824
1707,2824,2825,3038
1708,2616,2617,2824
1709,2824,2823,2616
1710,3036,2823,2824
1711,2824,3037,3036
1712,3034,2821,2822
1713,2822,3035,3034
1714,2616,2823,2822
1715,2822,2615,2616
1716,3036,3035,2822
1717,2822,2823,3036
1718,2921,2920,3128
1719,3128,3129,2921
1720,2708,2707,2919
1721,2919,2920,2708
1722,3235,3234,3551
1723,3551,3552,3235
1724,3126,3125,3233
1725,3233,3234,3126
1726,3439,3438,3337
1727,3337,3338,3439
1728,3339,3338,3025
1729,3025,3026,3339
1730,3024,3025,3338
1731,3338,3337,3024
1732,3128,3236,3237
1733,3237,3129,3128
1734,3553,3236,3235
1735,3235,3552,3553
1736,2706,2918,2919
1737,2919,2707,2706
1738,2917,3125,3126
1739,3126,2918,2917
1740,3138,2930,2929
1741,2929,3137,3138
1742,2718,2930,2931
1743,2931,2719,2718
1744,3349,3450,3449
1745,3449,3348,3349
1746,3035,3348,3347
1747,3347,3034,3035
1748,3348,3035,3036
1749,3036,3349,3348
1750,3247,3564,3565
1751,3565,3248,3247
1752,3249,3141,3140
1753,3140,3248,3249
1754,3245,3246,3138
1755,3138,3137,3245
1756,3563,3564,3247
1757,3247,3246,3563
1758,2931,2932,2720
1759,2720,2719,2931
1760,2933,2932,3140
1761,3140,3141,2933
1762,583,584,695
1763,695,694,583
1764,904,903,695
1765,695,696,904
1766,902,694,695
1767,695,903,902
1768,585,696,695
1769,695,584,585
1770,93,374,375
1771,375,91,93
1772,3039,3038,2825
1773,2825,2826,3039
1774,2826,2619,2620
1775,2620,2827,2826
1776,2826,2827,3040
1777,3040,3039,2826
1778,2621,2828,2827
1779,2827,2620,2621
1780,2828,2829,3042
1781,3042,3041,2828
1782,3041,3040,2827
1783,2827,2828,3041
1784,595,706,705
1785,705,594,595
1786,913,912,704
1787,704,705,913
1788,593,594,705
1789,705,704,593
1790,705,706,914
1791,914,913,705
1792,40,385,386
1793,386,38,40
1794,3053,2840,2841
1795,2841,3054,3053
1796,2840,2839,2632
1797,2632,2633,2840
1798,2840,3053,3052
1799,3052,2839,2840
1800,3050,2837,2838
1801,2838,3051,3050
1802,2631,2632,2839
1803,2839,2838,2631
1804,3052,3051,2838
1805,2838,2839,3052
1806,2937,2936,3144
1807,3144,3145,2937
1808,2724,2723,2935
1809,2935,2936,2724
1810,3250,3567,3568
1811,3568,3251,3250
1812,3142,3141,3249
1813,3249,3250,3142
1814,3455,3454,3353
1815,3353,3354,3455
1816,3354,3041,3042
1817,3042,3355,3354
1818,3041,3354,3353
1819,3353,3040,3041
1820,3144,3252,3253
1821,3253,3145,3144
1822,3569,3252,3251
1823,3251,3568,3569
1824,2722,2934,2935
1825,2935,2723,2722
1826,2933,3141,3142
1827,3142,2934,2933
1828,2945,3153,3154
1829,3154,2946,2945
1830,2734,2946,2947
1831,2947,2735,2734
1832,3365,3466,3465
1833,3465,3364,3365
1834,3363,3050,3051
1835,3051,3364,3363
1836,3052,3365,3364
1837,3364,3051,3052
1838,3581,3264,3263
1839,3263,3580,3581
1840,3264,3265,3157
1841,3157,3156,3264
1842,3261,3262,3154
1843,3154,3153,3261
1844,3579,3580,3263
1845,3263,3262,3579
1846,2947,2948,2736
1847,2736,2735,2947
1848,2948,3156,3157
1849,3157,2949,2948
1850,599,600,711
1851,711,710,599
1852,919,711,712
1853,712,920,919
1854,711,919,918
1855,918,710,711
1856,601,712,711
1857,711,600,601
1858,30,390,391
1859,391,28,30
1860,2842,3055,3054
1861,3054,2841,2842
1862,2635,2636,2843
1863,2843,2842,2635
1864,3055,2842,2843
1865,2843,3056,3055
1866,2637,2844,2843
1867,2843,2636,2637
1868,3058,3057,2844
1869,2844,2845,3058
1870,3056,2843,2844
1871,2844,3057,3056
1872,611,722,721
1873,721,610,611
1874,928,720,721
1875,721,929,928
1876,609,610,721
1877,721,720,609
1878,930,929,721
1879,721,722,930
1880,414,412,6
1881,6,8,414
1882,3070,3069,2856
1883,2856,2857,3070
1884,2648,2649,2856
1885,2856,2855,2648
1886,3068,2855,2856
1887,2856,3069,3068
1888,3066,2853,2854
1889,2854,3067,3066
1890,2648,2855,2854
1891,2854,2647,2648
1892,3068,3067,2854
1893,2854,2855,3068
1894,2952,3160,3161
1895,3161,2953,2952
1896,2740,2739,2951
1897,2951,2952,2740
1898,3267,3266,3583
1899,3583,3584,3267
1900,3158,3157,3265
1901,3265,3266,3158
1902,3471,3470,3369
1903,3369,3370,3471
1904,3057,3058,3371
1905,3371,3370,3057
1906,3370,3369,3056
1907,3056,3057,3370
1908,3160,3268,3269
1909,3269,3161,3160
1910,3585,3268,3267
1911,3267,3584,3585
1912,2950,2951,2739
1913,2739,2738,2950
1914,2949,3157,3158
1915,3158,2950,2949
1916,2961,3169,3170
1917,3170,2962,2961
1918,2962,2963,2751
1919,2751,2750,2962
1920,3481,3380,3381
1921,3381,3482,3481
1922,3379,3066,3067
1923,3067,3380,3379
1924,3068,3381,3380
1925,3380,3067,3068
1926,3498,3500,3280
1927,3280,3279,3498
1928,3172,3280,3281
1929,3281,3173,3172
1930,3277,3278,3170
1931,3170,3169,3277
1932,3278,3496,3498
1933,3498,3279,3278
1934,2752,2751,2963
1935,2963,2964,2752
1936,2965,2964,3172
1937,3172,3173,2965
1938,2545,2553,2650
1939,2650,2543,2545
1940,506,508,313
1941,313,312,506
1942,508,512,314
1943,314,313,508
1944,506,735,736
1945,736,508,506
1946,3399,3400,3612
1947,3612,3611,3399
1948,3511,3510,3706
1949,3706,3707,3511
1950,3710,3514,3513
1951,3513,3709,3710
1952,4546,4530,4151
1953,4528,4546,4151
1954,4151,4149,4528
1955,4543,4524,4144
1956,4521,4543,4144
1957,4144,4142,4521
1958,4547,4530,4852
1959,4852,4949,4547
1960,4550,4952,4856
1961,4856,4441,4550
1962,4546,4948,4852
1963,4852,4530,4546
1964,4543,4521,4848
1965,4848,4945,4543
1966,426,427,329
1967,329,328,426
1968,428,330,329
1969,329,427,428
1970,428,427,752
1971,752,753,428
1972,1166,1165,1385
1973,1385,1386,1166
1974,1384,1385,1165
1975,1165,1164,1384
1976,3415,3416,3628
1977,3628,3627,3415
1978,3527,3526,3722
1979,3722,3723,3527
1980,3726,3530,3529
1981,3529,3725,3726
1982,4562,4453,4183
1983,4452,4562,4183
1984,4183,4181,4452
1985,4559,4450,4177
1986,4449,4559,4177
1987,4177,4175,4449
1988,4563,4453,4868
1989,4868,4965,4563
1990,4566,4968,4872
1991,4872,4457,4566
1992,4562,4964,4868
1993,4868,4453,4562
1994,4559,4449,4864
1995,4864,4961,4559
1996,442,443,345
1997,345,344,442
1998,444,346,345
1999,345,443,444
2000,3431,3432,3644
2001,3644,3643,3431
2002,3543,3542,3738
2003,3738,3739,3543
2004,3742,3546,3545
2005,3545,3741,3742
2006,4323,4325,4115
2007,4115,4114,4323
2008,4575,4466,4209
2009,4465,4575,4209
2010,4209,4207,4465
2011,4579,4469,4884
2012,4884,4981,4579
2013,4582,4984,4888
2014,4888,4473,4582
2015,4578,4980,4884
2016,4884,4469,4578
2017,4575,4465,4880
2018,4880,4977,4575
2019,458,459,361
2020,361,360,458
2021,460,362,361
2022,361,459,460
2023,460,785,786
2024,786,461,460
2025,458,783,784
2026,784,459,458
2027,460,459,784
2028,784,785,460
2029,1198,1197,1417
2030,1417,1418,1198
2031,3447,3448,3660
2032,3660,3659,3447
2033,3559,3558,3754
2034,3754,3755,3559
2035,3758,3562,3561
2036,3561,3757,3758
2037,4594,4485,4200
2038,4484,4594,4200
2039,4200,4202,4484
2040,4591,4482,4206
2041,4481,4591,4206
2042,4206,4208,4481
2043,4595,4485,4900
2044,4900,4997,4595
2045,4598,5000,4904
2046,4904,4489,4598
2047,4594,4996,4900
2048,4900,4485,4594
2049,4591,4481,4896
2050,4896,4993,4591
2051,1428,1429,1209
2052,1209,1208,1428
2053,377,376,474
2054,474,475,377
2055,475,476,378
2056,378,377,475
2057,1214,1213,1433
2058,1433,1434,1214
2059,1213,1212,1432
2060,1432,1433,1213
2061,3675,3463,3464
2062,3464,3676,3675
2063,3575,3574,3770
2064,3770,3771,3575
2065,3577,3773,3774
2066,3774,3578,3577
2067,4610,4501,4168
2068,4500,4610,4168
2069,4168,4170,4500
2070,4607,4498,4174
2071,4497,4607,4174
2072,4174,4176,4497
2073,4611,4501,4916
2074,4916,5013,4611
2075,4614,5016,4920
2076,4920,4505,4614
2077,4610,5012,4916
2078,4916,4501,4610
2079,4607,4497,4912
2080,4912,5009,4607
2081,490,491,393
2082,393,392,490
2083,394,393,491
2084,491,622,394
2085,1230,1229,1449
2086,1449,1450,1230
2087,3479,3480,3692
2088,3692,3691,3479
2089,3786,3802,3591
2090,3591,3590,3786
2091,3795,3594,3593
2092,3593,3797,3795
2093,4633,4513,4135
2094,4516,4633,4135
2095,4135,4137,4516
2096,4623,4520,4141
2097,4522,4623,4141
2098,4141,4143,4522
2099,4630,4513,4932
2100,4932,5029,4630
2101,4633,5028,4932
2102,4932,4513,4633
2103,4623,4522,4928
2104,4928,5025,4623
2105,2546,2544,2651
2106,2651,2554,2546
2107,1049,1261,1260
2108,1260,1048,1049
2109,839,840,1050
2110,1050,1049,839
2111,1049,1048,838
2112,838,839,1049
2113,1261,1049,1050
2114,1050,1262,1261
2115,1479,1260,1261
2116,1261,1473,1479
2117,1473,1261,1262
2118,1262,1471,1473
2119,523,634,633
2120,633,522,523
2121,840,632,633
2122,633,841,840
2123,521,522,633
2124,633,632,521
2125,842,841,633
2126,633,634,842
2127,13,11,313
2128,313,314,13
2129,1264,1263,1051
2130,1051,1052,1264
2131,840,841,1051
2132,1051,1050,840
2133,1262,1050,1051
2134,1051,1263,1262
2135,842,1052,1051
2136,1051,841,842
2137,1263,1264,1489
2138,1489,1469,1263
2139,2230,2226,2462
2140,2462,2545,2230
2141,2462,2460,2556
2142,2556,2555,2462
2143,2226,2222,2460
2144,2460,2462,2226
2145,2131,2222,1903
2146,1903,1905,2131
2147,2460,2458,2557
2148,2557,2556,2460
2149,2458,2131,2132
2150,2132,2456,2458
2151,2222,2131,2458
2152,2458,2460,2222
2153,2982,2981,2768
2154,2768,2769,2982
2155,2560,2561,2768
2156,2768,2767,2560
2157,2980,2767,2768
2158,2768,2981,2980
2159,2978,2765,2766
2160,2766,2979,2978
2161,2560,2767,2766
2162,2766,2559,2560
2163,2980,2979,2766
2164,2766,2767,2980
2165,2133,1907,1908
2166,1908,2134,2133
2167,2452,2450,2561
2168,2561,2560,2452
2169,2454,2452,2560
2170,2560,2559,2454
2171,527,528,639
2172,639,638,527
2173,848,847,639
2174,639,640,848
2175,529,640,639
2176,639,528,529
2177,846,638,639
2178,639,847,846
2179,23,21,318
2180,318,319,23
2181,1059,1060,1272
2182,1272,1271,1059
2183,849,1059,1058
2184,1058,848,849
2185,1059,849,850
2186,850,1060,1059
2187,1271,1270,1058
2188,1058,1059,1271
2189,1497,1496,1271
2190,1271,1272,1497
2191,1270,1271,1496
2192,1496,1495,1270
2193,1268,1056,1057
2194,1057,1269,1268
2195,848,1058,1057
2196,1057,847,848
2197,846,847,1057
2198,1057,1056,846
2199,1270,1269,1057
2200,1057,1058,1270
2201,1494,1493,1268
2202,1268,1269,1494
2203,2982,2769,2770
2204,2770,2983,2982
2205,2564,2771,2770
2206,2770,2563,2564
2207,2984,2983,2770
2208,2770,2771,2984
2209,2986,2985,2772
2210,2772,2773,2986
2211,2564,2565,2772
2212,2772,2771,2564
2213,2984,2771,2772
2214,2772,2985,2984
2215,2568,2470,2471
2216,2471,2569,2568
2217,2141,1915,1916
2218,1916,2142,2141
2219,2568,2567,2469
2220,2469,2470,2568
2221,2448,2136,2137
2222,2137,2446,2448
2223,2563,2446,2466
2224,2466,2564,2563
2225,1913,2139,2138
2226,2138,1912,1913
2227,2565,2564,2466
2228,2466,2467,2565
2229,2468,2467,2139
2230,2139,2140,2468
2231,2467,2466,2138
2232,2138,2139,2467
2233,2323,2321,2412
2234,2412,2414,2323
2235,2325,2323,2414
2236,2414,2416,2325
2237,3082,2874,2873
2238,2873,3081,3082
2239,2662,2874,2875
2240,2875,2663,2662
2241,3293,3394,3393
2242,3393,3292,3293
2243,3292,3291,2978
2244,2978,2979,3292
2245,3191,3508,3509
2246,3509,3192,3191
2247,3193,3085,3084
2248,3084,3192,3193
2249,3189,3190,3082
2250,3082,3081,3189
2251,3507,3508,3191
2252,3191,3190,3507
2253,2875,2876,2664
2254,2664,2663,2875
2255,2877,2876,3084
2256,3084,3085,2877
2257,2330,2327,2418
2258,2418,2420,2330
2259,2416,2661,2662
2260,2662,2418,2416
2261,2327,2325,2416
2262,2416,2418,2327
2263,1153,1152,1372
2264,1372,1373,1153
2265,1154,1153,1373
2266,1373,1374,1154
2267,3088,3089,2881
2268,2881,2880,3088
2269,2668,2667,2879
2270,2879,2880,2668
2271,3297,3298,3399
2272,3399,3398,3297
2273,3298,2985,2986
2274,2986,3299,3298
2275,3195,3194,3511
2276,3511,3512,3195
2277,3194,3086,3085
2278,3085,3193,3194
2279,3196,3197,3089
2280,3089,3088,3196
2281,3513,3196,3195
2282,3195,3512,3513
2283,2666,2878,2879
2284,2879,2667,2666
2285,2878,2877,3085
2286,3085,3086,2878
2287,2434,2436,2241
2288,2241,2240,2434
2289,2434,2670,2671
2290,2671,2436,2434
2291,2432,2434,2240
2292,2240,2239,2432
2293,2428,2430,2238
2294,2238,2237,2428
2295,2430,2432,2239
2296,2239,2238,2430
2297,1277,1276,1064
2298,1064,1065,1277
2299,856,1066,1065
2300,1065,855,856
2301,854,855,1065
2302,1065,1064,854
2303,1065,1066,1278
2304,1278,1277,1065
2305,1502,1501,1276
2306,1276,1277,1502
2307,1278,1503,1502
2308,1502,1277,1278
2309,539,650,649
2310,649,538,539
2311,857,856,648
2312,648,649,857
2313,537,538,649
2314,649,648,537
2315,649,650,858
2316,858,857,649
2317,74,72,329
2318,329,330,74
2319,1067,1068,1280
2320,1280,1279,1067
2321,857,1067,1066
2322,1066,856,857
2323,1279,1278,1066
2324,1066,1067,1279
2325,1067,857,858
2326,858,1068,1067
2327,1280,1505,1504
2328,1504,1279,1280
2329,2473,2472,2144
2330,2144,2145,2473
2331,2572,2571,2473
2332,2473,2474,2572
2333,2474,2473,2145
2334,2145,2146,2474
2335,2147,2146,1920
2336,1920,1921,2147
2337,2572,2474,2475
2338,2475,2573,2572
2339,2147,2475,2474
2340,2474,2146,2147
2341,2997,2784,2785
2342,2785,2998,2997
2343,2784,2783,2576
2344,2576,2577,2784
2345,2784,2997,2996
2346,2996,2783,2784
2347,2994,2781,2782
2348,2782,2995,2994
2349,2575,2576,2783
2350,2783,2782,2575
2351,2996,2995,2782
2352,2782,2783,2996
2353,2149,1923,1924
2354,1924,2150,2149
2355,2576,2478,2479
2356,2479,2577,2576
2357,2149,2477,2476
2358,2476,2148,2149
2359,2576,2575,2477
2360,2477,2478,2576
2361,544,655,654
2362,654,543,544
2363,864,863,655
2364,655,656,864
2365,655,544,545
2366,545,656,655
2367,862,654,655
2368,655,863,862
2369,86,84,334
2370,334,335,86
2371,1288,1287,1075
2372,1075,1076,1288
2373,865,1075,1074
2374,1074,864,865
2375,1075,865,866
2376,866,1076,1075
2377,1286,1074,1075
2378,1075,1287,1286
2379,1287,1288,1513
2380,1513,1512,1287
2381,1512,1511,1286
2382,1286,1287,1512
2383,1285,1284,1072
2384,1072,1073,1285
2385,864,1074,1073
2386,1073,863,864
2387,862,863,1073
2388,1073,1072,862
2389,1073,1074,1286
2390,1286,1285,1073
2391,1285,1510,1509
2392,1509,1284,1285
2393,2998,2785,2786
2394,2786,2999,2998
2395,2580,2787,2786
2396,2786,2579,2580
2397,3000,2999,2786
2398,2786,2787,3000
2399,2788,2789,3002
2400,3002,3001,2788
2401,2581,2788,2787
2402,2787,2580,2581
2403,3001,3000,2787
2404,2787,2788,3001
2405,2488,2487,2159
2406,2159,2160,2488
2407,2585,2584,2486
2408,2486,2487,2585
2409,2157,1931,1932
2410,1932,2158,2157
2411,2584,2583,2485
2412,2485,2486,2584
2413,2580,2579,2481
2414,2481,2482,2580
2415,2482,2481,2153
2416,2153,2154,2482
2417,2155,2154,1928
2418,1928,1929,2155
2419,2581,2580,2482
2420,2482,2483,2581
2421,2245,2343,2344
2422,2344,2246,2245
2423,2344,2343,2675
2424,2675,2676,2344
2425,2247,2246,2344
2426,2344,2345,2247
2427,3098,2890,2889
2428,2889,3097,3098
2429,2678,2890,2891
2430,2891,2679,2678
2431,3308,3309,3410
2432,3410,3409,3308
2433,2995,3308,3307
2434,3307,2994,2995
2435,3525,3208,3207
2436,3207,3524,3525
2437,3209,3101,3100
2438,3100,3208,3209
2439,3205,3206,3098
2440,3098,3097,3205
2441,3206,3523,3524
2442,3524,3207,3206
2443,2891,2892,2680
2444,2680,2679,2891
2445,2893,2892,3100
2446,3100,3101,2893
2447,2346,2347,2249
2448,2249,2248,2346
2449,2248,2247,2345
2450,2345,2346,2248
2451,2347,2346,2678
2452,2678,2679,2347
2453,1174,1173,1393
2454,1393,1394,1174
2455,1169,1168,1388
2456,1388,1389,1169
2457,3104,3105,2897
2458,2897,2896,3104
2459,2684,2683,2895
2460,2895,2896,2684
2461,3313,3314,3415
2462,3415,3414,3313
2463,3314,3001,3002
2464,3002,3315,3314
2465,3001,3314,3313
2466,3313,3000,3001
2467,3211,3210,3527
2468,3527,3528,3211
2469,3102,3101,3209
2470,3209,3210,3102
2471,3104,3212,3213
2472,3213,3105,3104
2473,3529,3212,3211
2474,3211,3528,3529
2475,2682,2894,2895
2476,2895,2683,2682
2477,2893,3101,3102
2478,3102,2894,2893
2479,2257,2256,2354
2480,2354,2355,2257
2481,2686,2354,2353
2482,2353,2685,2686
2483,2354,2686,2687
2484,2687,2355,2354
2485,2255,2353,2354
2486,2354,2256,2255
2487,2254,2253,2351
2488,2351,2352,2254
2489,2352,2351,2683
2490,2683,2684,2352
2491,2352,2353,2255
2492,2255,2254,2352
2493,1292,1080,1081
2494,1081,1293,1292
2495,872,1082,1081
2496,1081,871,872
2497,870,871,1081
2498,1081,1080,870
2499,1294,1293,1081
2500,1081,1082,1294
2501,1293,1518,1517
2502,1517,1292,1293
2503,1518,1293,1294
2504,1294,1519,1518
2505,555,666,665
2506,665,554,555
2507,872,664,665
2508,665,873,872
2509,553,554,665
2510,665,664,553
2511,874,873,665
2512,665,666,874
2513,47,46,345
2514,345,346,47
2515,1296,1295,1083
2516,1083,1084,1296
2517,872,873,1083
2518,1083,1082,872
2519,1294,1082,1083
2520,1083,1295,1294
2521,874,1084,1083
2522,1083,873,874
2523,1521,1520,1295
2524,1295,1296,1521
2525,2489,2488,2160
2526,2160,2161,2489
2527,2588,2587,2489
2528,2489,2490,2588
2529,2161,2162,2490
2530,2490,2489,2161
2531,1937,2163,2162
2532,2162,1936,1937
2533,2588,2490,2491
2534,2491,2589,2588
2535,2492,2491,2163
2536,2163,2164,2492
2537,2491,2490,2162
2538,2162,2163,2491
2539,3014,3013,2800
2540,2800,2801,3014
2541,2592,2593,2800
2542,2800,2799,2592
2543,3012,2799,2800
2544,2800,3013,3012
2545,3010,2797,2798
2546,2798,3011,3010
2547,2592,2799,2798
2548,2798,2591,2592
2549,3012,3011,2798
2550,2798,2799,3012
2551,2165,1939,1940
2552,1940,2166,2165
2553,2592,2494,2495
2554,2495,2593,2592
2555,2592,2591,2493
2556,2493,2494,2592
2557,559,560,671
2558,671,670,559
2559,880,879,671
2560,671,672,880
2561,561,672,671
2562,671,560,561
2563,878,670,671
2564,671,879,878
2565,52,51,350
2566,350,351,52
2567,1304,1303,1091
2568,1091,1092,1304
2569,880,881,1091
2570,1091,1090,880
2571,882,1092,1091
2572,1091,881,882
2573,1302,1090,1091
2574,1091,1303,1302
2575,1529,1528,1303
2576,1303,1304,1529
2577,1302,1303,1528
2578,1528,1527,1302
2579,1300,1088,1089
2580,1089,1301,1300
2581,880,1090,1089
2582,1089,879,880
2583,878,879,1089
2584,1089,1088,878
2585,1302,1301,1089
2586,1089,1090,1302
2587,1526,1525,1300
2588,1300,1301,1526
2589,3014,2801,2802
2590,2802,3015,3014
2591,2596,2803,2802
2592,2802,2595,2596
2593,3016,3015,2802
2594,2802,2803,3016
2595,3018,3017,2804
2596,2804,2805,3018
2597,2596,2597,2804
2598,2804,2803,2596
2599,3016,2803,2804
2600,2804,3017,3016
2601,2600,2502,2503
2602,2503,2601,2600
2603,2173,1947,1948
2604,1948,2174,2173
2605,2600,2599,2501
2606,2501,2502,2600
2607,2497,2496,2168
2608,2168,2169,2497
2609,2596,2595,2497
2610,2497,2498,2596
2611,1944,1945,2171
2612,2171,2170,1944
2613,2596,2498,2499
2614,2499,2597,2596
2615,2500,2499,2171
2616,2171,2172,2500
2617,2499,2498,2170
2618,2170,2171,2499
2619,2360,2262,2261
2620,2261,2359,2360
2621,2262,2360,2361
2622,2361,2263,2262
2623,3114,2906,2905
2624,2905,3113,3114
2625,2694,2906,2907
2626,2907,2695,2694
2627,3325,3426,3425
2628,3425,3324,3325
2629,3324,3323,3010
2630,3010,3011,3324
2631,3223,3540,3541
2632,3541,3224,3223
2633,3225,3117,3116
2634,3116,3224,3225
2635,3221,3222,3114
2636,3114,3113,3221
2637,3539,3540,3223
2638,3223,3222,3539
2639,2907,2908,2696
2640,2696,2695,2907
2641,2909,2908,3116
2642,3116,3117,2909
2643,2265,2264,2362
2644,2362,2363,2265
2645,2362,2361,2693
2646,2693,2694,2362
2647,2263,2361,2362
2648,2362,2264,2263
2649,1185,1184,1404
2650,1404,1405,1185
2651,1186,1185,1405
2652,1405,1406,1186
2653,3120,3121,2913
2654,2913,2912,3120
2655,2700,2699,2911
2656,2911,2912,2700
2657,3329,3330,3431
2658,3431,3430,3329
2659,3331,3330,3017
2660,3017,3018,3331
2661,3227,3226,3543
2662,3543,3544,3227
2663,3118,3117,3225
2664,3225,3226,3118
2665,3120,3228,3229
2666,3229,3121,3120
2667,3545,3228,3227
2668,3227,3544,3545
2669,2698,2910,2911
2670,2911,2699,2698
2671,2909,3117,3118
2672,3118,2910,2909
2673,2273,2272,2370
2674,2370,2371,2273
2675,2371,2370,2702
2676,2702,2703,2371
2677,2271,2369,2370
2678,2370,2272,2271
2679,2269,2367,2368
2680,2368,2270,2269
2681,2271,2270,2368
2682,2368,2369,2271
2683,1308,1096,1097
2684,1097,1309,1308
2685,888,1098,1097
2686,1097,887,888
2687,886,887,1097
2688,1097,1096,886
2689,1310,1309,1097
2690,1097,1098,1310
2691,1534,1533,1308
2692,1308,1309,1534
2693,1310,1535,1534
2694,1534,1309,1310
2695,571,682,681
2696,681,570,571
2697,888,680,681
2698,681,889,888
2699,569,570,681
2700,681,680,569
2701,890,889,681
2702,681,682,890
2703,63,62,361
2704,361,362,63
2705,1312,1311,1099
2706,1099,1100,1312
2707,888,889,1099
2708,1099,1098,888
2709,1310,1098,1099
2710,1099,1311,1310
2711,890,1100,1099
2712,1099,889,890
2713,1312,1537,1536
2714,1536,1311,1312
2715,2176,2177,2505
2716,2505,2504,2176
2717,2604,2603,2505
2718,2505,2506,2604
2719,2506,2505,2177
2720,2177,2178,2506
2721,1952,1953,2179
2722,2179,2178,1952
2723,2604,2506,2507
2724,2507,2605,2604
2725,2507,2506,2178
2726,2178,2179,2507
2727,3030,3029,2816
2728,2816,2817,3030
2729,2608,2609,2816
2730,2816,2815,2608
2731,3028,2815,2816
2732,2816,3029,3028
2733,3026,2813,2814
2734,2814,3027,3026
2735,2608,2815,2814
2736,2814,2607,2608
2737,3028,3027,2814
2738,2814,2815,3028
2739,2181,1955,1956
2740,1956,2182,2181
2741,2608,2510,2511
2742,2511,2609,2608
2743,2509,2508,2180
2744,2180,2181,2509
2745,2608,2607,2509
2746,2509,2510,2608
2747,575,576,687
2748,687,686,575
2749,896,895,687
2750,687,688,896
2751,577,688,687
2752,687,576,577
2753,894,686,687
2754,687,895,894
2755,68,67,366
2756,366,367,68
2757,1319,1107,1108
2758,1108,1320,1319
2759,1107,1106,896
2760,896,897,1107
2761,897,898,1108
2762,1108,1107,897
2763,1107,1319,1318
2764,1318,1106,1107
2765,1319,1320,1545
2766,1545,1544,1319
2767,1544,1543,1318
2768,1318,1319,1544
2769,1316,1104,1105
2770,1105,1317,1316
2771,896,1106,1105
2772,1105,895,896
2773,894,895,1105
2774,1105,1104,894
2775,1318,1317,1105
2776,1105,1106,1318
2777,1316,1317,1542
2778,1542,1541,1316
2779,3030,2817,2818
2780,2818,3031,3030
2781,2612,2819,2818
2782,2818,2611,2612
2783,3032,3031,2818
2784,2818,2819,3032
2785,3034,3033,2820
2786,2820,2821,3034
2787,2612,2613,2820
2788,2820,2819,2612
2789,3032,2819,2820
2790,2820,3033,3032
2791,2520,2519,2191
2792,2191,2192,2520
2793,2617,2616,2518
2794,2518,2519,2617
2795,2189,1963,1964
2796,1964,2190,2189
2797,2517,2518,2616
2798,2616,2615,2517
2799,2612,2611,2513
2800,2513,2514,2612
2801,2514,2513,2185
2802,2185,2186,2514
2803,1960,1961,2187
2804,2187,2186,1960
2805,2612,2514,2515
2806,2515,2613,2612
2807,2277,2375,2376
2808,2376,2278,2277
2809,2376,2375,2707
2810,2707,2708,2376
2811,2279,2278,2376
2812,2376,2377,2279
2813,3130,2922,2921
2814,2921,3129,3130
2815,2710,2922,2923
2816,2923,2711,2710
2817,3341,3442,3441
2818,3441,3340,3341
2819,3340,3339,3026
2820,3026,3027,3340
2821,3239,3556,3557
2822,3557,3240,3239
2823,3241,3133,3132
2824,3132,3240,3241
2825,3237,3238,3130
2826,3130,3129,3237
2827,3555,3556,3239
2828,3239,3238,3555
2829,2923,2924,2712
2830,2712,2711,2923
2831,2925,2924,3132
2832,3132,3133,2925
2833,2281,2280,2378
2834,2378,2379,2281
2835,2279,2377,2378
2836,2378,2280,2279
2837,2379,2378,2710
2838,2710,2711,2379
2839,1206,1205,1425
2840,1425,1426,1206
2841,1201,1200,1420
2842,1420,1421,1201
2843,3136,3137,2929
2844,2929,2928,3136
2845,2716,2715,2927
2846,2927,2928,2716
2847,3345,3346,3447
2848,3447,3446,3345
2849,3347,3346,3033
2850,3033,3034,3347
2851,3032,3033,3346
2852,3346,3345,3032
2853,3243,3242,3559
2854,3559,3560,3243
2855,3134,3133,3241
2856,3241,3242,3134
2857,3136,3244,3245
2858,3245,3137,3136
2859,3561,3244,3243
2860,3243,3560,3561
2861,2714,2926,2927
2862,2927,2715,2714
2863,2925,3133,3134
2864,3134,2926,2925
2865,2288,2386,2387
2866,2387,2289,2288
2867,2386,2385,2717
2868,2717,2718,2386
2869,2718,2719,2387
2870,2387,2386,2718
2871,2386,2288,2287
2872,2287,2385,2386
2873,2285,2383,2384
2874,2384,2286,2285
2875,2384,2383,2715
2876,2715,2716,2384
2877,2287,2286,2384
2878,2384,2385,2287
2879,1324,1112,1113
2880,1113,1325,1324
2881,903,904,1114
2882,1114,1113,903
2883,1113,1112,902
2884,902,903,1113
2885,1326,1325,1113
2886,1113,1114,1326
2887,1325,1550,1549
2888,1549,1324,1325
2889,1550,1325,1326
2890,1326,1551,1550
2891,587,698,697
2892,697,586,587
2893,697,905,904
2894,904,696,697
2895,585,586,697
2896,697,696,585
2897,905,697,698
2898,698,906,905
2899,87,377,378
2900,378,85,87
2901,1328,1327,1115
2902,1115,1116,1328
2903,1115,1114,904
2904,904,905,1115
2905,1326,1114,1115
2906,1115,1327,1326
2907,905,906,1116
2908,1116,1115,905
2909,1553,1552,1327
2910,1327,1328,1553
2911,2521,2520,2192
2912,2192,2193,2521
2913,2620,2619,2521
2914,2521,2522,2620
2915,2193,2194,2522
2916,2522,2521,2193
2917,1968,1969,2195
2918,2195,2194,1968
2919,2620,2522,2523
2920,2523,2621,2620
2921,2195,2196,2524
2922,2524,2523,2195
2923,2523,2522,2194
2924,2194,2195,2523
2925,3045,2832,2833
2926,2833,3046,3045
2927,2624,2625,2832
2928,2832,2831,2624
2929,2832,3045,3044
2930,3044,2831,2832
2931,3042,2829,2830
2932,2830,3043,3042
2933,2624,2831,2830
2934,2830,2623,2624
2935,3044,3043,2830
2936,2830,2831,3044
2937,2197,1971,1972
2938,1972,2198,2197
2939,2624,2526,2527
2940,2527,2625,2624
2941,2623,2525,2526
2942,2526,2624,2623
2943,591,592,703
2944,703,702,591
2945,912,911,703
2946,703,704,912
2947,593,704,703
2948,703,592,593
2949,910,702,703
2950,703,911,910
2951,75,382,383
2952,383,73,75
2953,1335,1123,1124
2954,1124,1336,1335
2955,912,913,1123
2956,1123,1122,912
2957,914,1124,1123
2958,1123,913,914
2959,1123,1335,1334
2960,1334,1122,1123
2961,1335,1336,1561
2962,1561,1560,1335
2963,1560,1559,1334
2964,1334,1335,1560
2965,1332,1120,1121
2966,1121,1333,1332
2967,1121,911,912
2968,912,1122,1121
2969,911,1121,1120
2970,1120,910,911
2971,1334,1333,1121
2972,1121,1122,1334
2973,1558,1557,1332
2974,1332,1333,1558
2975,2834,3047,3046
2976,3046,2833,2834
2977,2628,2835,2834
2978,2834,2627,2628
2979,3047,2834,2835
2980,2835,3048,3047
2981,3049,2836,2837
2982,2837,3050,3049
2983,2836,2835,2628
2984,2628,2629,2836
2985,2836,3049,3048
2986,3048,2835,2836
2987,2632,2534,2535
2988,2535,2633,2632
2989,2205,1979,1980
2990,1980,2206,2205
2991,2632,2631,2533
2992,2533,2534,2632
2993,2529,2528,2200
2994,2200,2201,2529
2995,2628,2627,2529
2996,2529,2530,2628
2997,1977,2203,2202
2998,2202,1976,1977
2999,2628,2530,2531
3000,2531,2629,2628
3001,2532,2531,2203
3002,2203,2204,2532
3003,2531,2530,2202
3004,2202,2203,2531
3005,2294,2293,2391
3006,2391,2392,2294
3007,2392,2393,2295
3008,2295,2294,2392
3009,3146,2938,2937
3010,2937,3145,3146
3011,2938,2939,2727
3012,2727,2726,2938
3013,3357,3458,3457
3014,3457,3356,3357
3015,3356,3355,3042
3016,3042,3043,3356
3017,3255,3572,3573
3018,3573,3256,3255
3019,3257,3149,3148
3020,3148,3256,3257
3021,3253,3254,3146
3022,3146,3145,3253
3023,3254,3571,3572
3024,3572,3255,3254
3025,2939,2940,2728
3026,2728,2727,2939
3027,2941,2940,3148
3028,3148,3149,2941
3029,2394,2395,2297
3030,2297,2296,2394
3031,2726,2394,2393
3032,2393,2725,2726
3033,2296,2295,2393
3034,2393,2394,2296
3035,1217,1216,1436
3036,1436,1437,1217
3037,1218,1217,1437
3038,1437,1438,1218
3039,3152,3153,2945
3040,2945,2944,3152
3041,2732,2731,2943
3042,2943,2944,2732
3043,3463,3462,3361
3044,3361,3362,3463
3045,3363,3362,3049
3046,3049,3050,3363
3047,3259,3258,3575
3048,3575,3576,3259
3049,3150,3149,3257
3050,3257,3258,3150
3051,3152,3260,3261
3052,3261,3153,3152
3053,3260,3259,3576
3054,3576,3577,3260
3055,2730,2942,2943
3056,2943,2731,2730
3057,3150,2942,2941
3058,2941,3149,3150
3059,2304,2402,2403
3060,2403,2305,2304
3061,2734,2735,2403
3062,2403,2402,2734
3063,2402,2304,2303
3064,2303,2401,2402
3065,2301,2399,2400
3066,2400,2302,2301
3067,2303,2302,2400
3068,2400,2401,2303
3069,1340,1128,1129
3070,1129,1341,1340
3071,920,1130,1129
3072,1129,919,920
3073,918,919,1129
3074,1129,1128,918
3075,1342,1341,1129
3076,1129,1130,1342
3077,1566,1565,1340
3078,1340,1341,1566
3079,1341,1342,1567
3080,1567,1566,1341
3081,603,714,713
3082,713,602,603
3083,713,921,920
3084,920,712,713
3085,601,602,713
3086,713,712,601
3087,921,713,714
3088,714,922,921
3089,24,393,394
3090,394,22,24
3091,1344,1343,1131
3092,1131,1132,1344
3093,1131,1130,920
3094,920,921,1131
3095,1342,1130,1131
3096,1131,1343,1342
3097,921,922,1132
3098,1132,1131,921
3099,1568,1343,1344
3100,1344,1569,1568
3101,2537,2536,2208
3102,2208,2209,2537
3103,2636,2635,2537
3104,2537,2538,2636
3105,2538,2537,2209
3106,2209,2210,2538
3107,1984,1985,2211
3108,2211,2210,1984
3109,2636,2538,2539
3110,2539,2637,2636
3111,2539,2538,2210
3112,2210,2211,2539
3113,3062,3061,2848
3114,2848,2849,3062
3115,2641,2848,2847
3116,2847,2640,2641
3117,3060,2847,2848
3118,2848,3061,3060
3119,3059,3058,2845
3120,2845,2846,3059
3121,2640,2847,2846
3122,2846,2639,2640
3123,2846,2847,3060
3124,3060,3059,2846
3125,2213,1987,1988
3126,1988,2214,2213
3127,2641,2640,2542
3128,2542,2447,2641
3129,2541,2540,2212
3130,2212,2213,2541
3131,2639,2541,2542
3132,2542,2640,2639
3133,607,608,719
3134,719,718,607
3135,927,719,720
3136,720,928,927
3137,609,720,719
3138,719,608,609
3139,719,927,926
3140,926,718,719
3141,14,398,399
3142,399,12,14
3143,1351,1139,1140
3144,1140,1352,1351
3145,928,929,1139
3146,1139,1138,928
3147,930,1140,1139
3148,1139,929,930
3149,1139,1351,1350
3150,1350,1138,1139
3151,1480,1474,1351
3152,1351,1352,1480
3153,1474,1472,1350
3154,1350,1351,1474
3155,1349,1348,1136
3156,1136,1137,1349
3157,928,1138,1137
3158,1137,927,928
3159,926,927,1137
3160,1137,1136,926
3161,1137,1138,1350
3162,1350,1349,1137
3163,1349,1470,1573
3164,1573,1348,1349
3165,2850,3063,3062
3166,3062,2849,2850
3167,2643,2644,2851
3168,2851,2850,2643
3169,3063,2850,2851
3170,2851,3064,3063
3171,3065,2852,2853
3172,2853,3066,3065
3173,2644,2645,2852
3174,2852,2851,2644
3175,2852,3065,3064
3176,3064,2851,2852
3177,2231,2546,2463
3178,2463,2227,2231
3179,2463,2649,2648
3180,2648,2461,2463
3181,2221,1995,1904
3182,1904,2223,2221
3183,2461,2648,2647
3184,2647,2459,2461
3185,2453,2644,2643
3186,2643,2451,2453
3187,2453,2451,2217
3188,2217,2218,2453
3189,1992,1993,2219
3190,2219,2218,1992
3191,2455,2645,2644
3192,2644,2453,2455
3193,2435,2310,2309
3194,2309,2437,2435
3195,2435,2437,2739
3196,2739,2740,2435
3197,2433,2311,2310
3198,2310,2435,2433
3199,2954,2953,3161
3200,3161,3162,2954
3201,2742,2954,2955
3202,2955,2743,2742
3203,3372,3373,3474
3204,3474,3473,3372
3205,3059,3372,3371
3206,3371,3058,3059
3207,3271,3588,3589
3208,3589,3272,3271
3209,3272,3273,3165
3210,3165,3164,3272
3211,3269,3270,3162
3212,3162,3161,3269
3213,3270,3587,3588
3214,3588,3271,3270
3215,2955,2956,2744
3216,2744,2743,2955
3217,2957,2956,3164
3218,3164,3165,2957
3219,2429,2313,2312
3220,2312,2431,2429
3221,2431,2312,2311
3222,2311,2433,2431
3223,2429,2431,2742
3224,2742,2743,2429
3225,1246,1248,1457
3226,1457,1458,1246
3227,1233,1232,1452
3228,1452,1453,1233
3229,3168,3169,2961
3230,2961,2960,3168
3231,2748,2747,2959
3232,2959,2960,2748
3233,3378,3479,3478
3234,3478,3377,3378
3235,3065,3066,3379
3236,3379,3378,3065
3237,3378,3377,3064
3238,3064,3065,3378
3239,3274,3591,3592
3240,3592,3275,3274
3241,3166,3165,3273
3242,3273,3274,3166
3243,3168,3276,3277
3244,3277,3169,3168
3245,3592,3593,3276
3246,3276,3275,3592
3247,2746,2958,2959
3248,2959,2747,2746
3249,2957,3165,3166
3250,3166,2958,2957
3251,2324,2415,2413
3252,2413,2322,2324
3253,2415,2417,2749
3254,2749,2750,2415
3255,2413,2415,2750
3256,2750,2751,2413
3257,2326,2417,2415
3258,2415,2324,2326
3259,2331,2421,2419
3260,2419,2328,2331
3261,2419,2421,2747
3262,2747,2748,2419
3263,2328,2419,2417
3264,2417,2326,2328
3265,3389,3390,3602
3266,3602,3601,3389
3267,3915,3601,3602
3268,3602,3912,3915
3269,3405,3406,3618
3270,3618,3617,3405
3271,3934,3617,3618
3272,3618,3935,3934
3273,3633,3421,3422
3274,3422,3634,3633
3275,3437,3438,3650
3276,3650,3649,3437
3277,3665,3453,3454
3278,3454,3666,3665
3279,3981,3664,3665
3280,3665,3982,3981
3281,3469,3470,3682
3282,3682,3681,3469
3283,3998,3681,3682
3284,3682,3999,3998
3285,3681,3998,3997
3286,3997,3680,3681
3287,408,497,495
3288,495,404,408
3289,404,495,493
3290,493,402,404
3291,3705,3497,3499
3292,3499,3788,3705
3293,4538,4009,4010
3294,4010,4535,4538
3295,82,401,403
3296,403,43,82
3297,3287,3286,2973
3298,2973,2974,3287
3299,3387,3486,3284
3300,3284,3286,3387
3301,3614,3402,3403
3302,3403,3615,3614
3303,3931,3614,3615
3304,3615,3932,3931
3305,3630,3418,3419
3306,3419,3631,3630
3307,3947,3630,3631
3308,3631,3948,3947
3309,3646,3434,3435
3310,3435,3647,3646
3311,3662,3450,3451
3312,3451,3663,3662
3313,3663,3664,3981
3314,3981,3980,3663
3315,3678,3466,3467
3316,3467,3679,3678
3317,3483,3695,3694
3318,3694,3482,3483
3319,3918,3916,3695
3320,3695,3696,3918
3321,83,71,404
3322,404,402,83
3323,3071,3384,3383
3324,3383,3070,3071
3325,3485,3384,3285
3326,3285,3487,3485
3327,3704,3787,3502
3328,3502,3501,3704
3329,4509,4127,4126
3330,4126,4625,4509
3331,4126,4508,4625
3332,3395,3607,3606
3333,3606,3394,3395
3334,3923,3606,3607
3335,3607,3924,3923
3336,3411,3623,3622
3337,3622,3410,3411
3338,3939,3622,3623
3339,3623,3940,3939
3340,3427,3639,3638
3341,3638,3426,3427
3342,3443,3655,3654
3343,3654,3442,3443
3344,3671,3670,3458
3345,3458,3459,3671
3346,3988,3671,3672
3347,3672,3989,3988
3348,3687,3686,3474
3349,3474,3475,3687
3350,4003,3686,3687
3351,3687,4004,4003
3352,4005,4004,3687
3353,3687,3688,4005
3354,1475,1483,1257
3355,1257,1258,1475
3356,1257,1483,1485
3357,1485,1255,1257
3358,2117,2106,2101
3359,2101,2224,2117
3360,2224,2127,2117
3361,2129,1996,1901
3362,1901,2228,2129
3363,3609,3397,3398
3364,3398,3610,3609
3365,3926,3925,3608
3366,3608,3609,3926
3367,3625,3413,3414
3368,3414,3626,3625
3369,3943,3942,3625
3370,3625,3626,3943
3371,3941,3624,3625
3372,3625,3942,3941
3373,3642,3641,3429
3374,3429,3430,3642
3375,3959,3958,3641
3376,3641,3642,3959
3377,3658,3657,3445
3378,3445,3446,3658
3379,3975,3974,3657
3380,3657,3658,3975
3381,3674,3673,3461
3382,3461,3462,3674
3383,3477,3478,3690
3384,3690,3689,3477
3385,1476,1354,1355
3386,1355,1484,1476
3387,1355,1256,1486
3388,1486,1484,1355
3389,2118,2128,2225
3390,2118,2225,2102
3391,2102,2107,2118
3392,2130,2229,1902
3393,1902,1997,2130
3394,2120,2104,2108
3395,2108,2122,2120
3396,1886,1781,2110
3397,2110,2108,1886
3398,3789,3791,3504
3399,3504,3503,3789
3400,3789,3787,3854
3401,3854,3856,3789
3402,3391,3603,3602
3403,3602,3390,3391
3404,3791,3794,3505
3405,3505,3504,3791
3406,3796,3794,3859
3407,3859,3862,3796
3408,3862,3859,4132
3409,4132,4133,3862
3410,4512,4132,4131
3411,4131,4628,4512
3412,4131,4511,4628
3413,3915,3912,4018
3414,4018,4017,3915
3415,4338,4220,4016
3416,4221,4338,4016
3417,4016,4017,4221
3418,3917,3915,4017
3419,4017,4016,3917
3420,4221,4017,4018
3421,4018,4339,4221
3422,4018,4222,4339
3423,3856,3854,4127
3424,4127,4129,3856
3425,4511,4131,4129
3426,4129,4627,4511
3427,4129,4510,4627
3428,3716,3520,3519
3429,3519,3715,3716
3430,3887,3889,3715
3431,3715,3714,3887
3432,3407,3619,3618
3433,3618,3406,3407
3434,3521,3520,3716
3435,3716,3717,3521
3436,3893,3895,3718
3437,3718,3717,3893
3438,3895,3893,4165
3439,4165,4167,3895
3440,4553,4444,4165
3441,4443,4553,4165
3442,4165,4163,4443
3443,3935,4034,4033
3444,4033,3934,3935
3445,4354,4236,4032
3446,4237,4354,4032
3447,4032,4033,4237
3448,3933,3934,4033
3449,4033,4032,3933
3450,4355,4237,4033
3451,4238,4355,4033
3452,4033,4034,4238
3453,4159,4161,3889
3454,3889,3887,4159
3455,4552,4443,4163
3456,4442,4552,4163
3457,4163,4161,4442
3458,3731,3732,3536
3459,3536,3535,3731
3460,3730,3813,3814
3461,3814,3731,3730
3462,3423,3635,3634
3463,3634,3422,3423
3464,3953,3952,3635
3465,3635,3636,3953
3466,3733,3537,3536
3467,3536,3732,3733
3468,3816,3817,3734
3469,3734,3733,3816
3470,4197,4199,3817
3471,3817,3816,4197
3472,4569,4460,4197
3473,4459,4569,4197
3474,4197,4195,4459
3475,3950,3951,4050
3476,4050,4049,3950
3477,4252,4048,4049
3478,4049,4370,4252
3479,4049,4253,4370
3480,4049,4048,3949
3481,3949,3950,4049
3482,4253,4049,4050
3483,4050,4371,4253
3484,4050,4254,4371
3485,4191,4193,3814
3486,3814,3813,4191
3487,4568,4459,4195
3488,4458,4568,4195
3489,4195,4193,4458
3490,3748,3552,3551
3491,3551,3747,3748
3492,3746,3829,3830
3493,3830,3747,3746
3494,3439,3651,3650
3495,3650,3438,3439
3496,3967,3650,3651
3497,3651,3968,3967
3498,3553,3552,3748
3499,3748,3749,3553
3500,3750,3749,3832
3501,3832,3833,3750
3502,3832,4122,4123
3503,4123,3833,3832
3504,4328,4122,4121
3505,4121,4330,4328
3506,3967,4066,4065
3507,4065,3966,3967
3508,4386,4268,4064
3509,4269,4386,4064
3510,4064,4065,4269
3511,4064,3965,3966
3512,3966,4065,4064
3513,4387,4269,4065
3514,4270,4387,4065
3515,4065,4066,4270
3516,3829,4119,4120
3517,4120,3830,3829
3518,4475,4330,4121
3519,4121,4584,4475
3520,4474,4584,4121
3521,4320,4474,4121
3522,4121,4120,4320
3523,3764,3568,3567
3524,3567,3763,3764
3525,3762,3845,3846
3526,3846,3763,3762
3527,3455,3667,3666
3528,3666,3454,3455
3529,3983,3666,3667
3530,3667,3984,3983
3531,3985,3984,3667
3532,3667,3668,3985
3533,3569,3568,3764
3534,3764,3765,3569
3535,3848,3849,3766
3536,3766,3765,3848
3537,4184,3849,3848
3538,3848,4186,4184
3539,4601,4492,4186
3540,4491,4601,4186
3541,4186,4188,4491
3542,3983,4082,4081
3543,4081,3982,3983
3544,4402,4284,4080
3545,4285,4402,4080
3546,4080,4081,4285
3547,3981,3982,4081
3548,4081,4080,3981
3549,4403,4285,4081
3550,4286,4403,4081
3551,4081,4082,4286
3552,4190,3846,3845
3553,3845,4192,4190
3554,4600,4491,4188
3555,4490,4600,4188
3556,4188,4190,4490
3557,3583,3779,3780
3558,3780,3584,3583
3559,3886,3779,3778
3560,3778,3888,3886
3561,3471,3683,3682
3562,3682,3470,3471
3563,3683,4000,3999
3564,3999,3682,3683
3565,4000,3683,3684
3566,3684,4001,4000
3567,3585,3584,3780
3568,3780,3781,3585
3569,3880,3782,3781
3570,3781,3882,3880
3571,3882,4154,4152
3572,4152,3880,3882
3573,4617,4533,4154
3574,4507,4617,4154
3575,4154,4156,4507
3576,3999,4098,4097
3577,4097,3998,3999
3578,4418,4300,4096
3579,4301,4418,4096
3580,4096,4097,4301
3581,3997,3998,4097
3582,4097,4096,3997
3583,4419,4301,4097
3584,4302,4419,4097
3585,4097,4098,4302
3586,3888,4160,4158
3587,4158,3886,3888
3588,4616,4507,4156
3589,4506,4616,4156
3590,4156,4158,4506
3591,828,830,493
3592,493,495,828
3593,416,406,402
3594,402,493,416
3595,726,728,510
3596,510,514,726
3597,934,938,728
3598,728,726,934
3599,209,405,401
3600,209,401,82
3601,82,102,209
3602,2761,2974,2973
3603,2973,2759,2761
3604,2652,2650,2759
3605,2759,2859,2652
3606,2859,2759,2973
3607,2973,2971,2859
3608,2859,2862,2654
3609,2654,2652,2859
3610,2969,2862,2859
3611,2859,2971,2969
3612,3185,3077,3076
3613,3076,3184,3185
3614,3184,3182,3494
3615,3494,3501,3184
3616,2869,2868,3076
3617,3076,3077,2869
3618,2755,2866,2868
3619,2868,2656,2755
3620,2757,2864,2866
3621,2866,2755,2757
3622,3486,3492,3385
3623,3385,3284,3486
3624,3489,3494,3182
3625,3182,3179,3489
3626,3401,3402,3614
3627,3614,3613,3401
3628,3517,3516,3712
3629,3712,3713,3517
3630,3885,3887,3714
3631,3714,3713,3885
3632,3515,3711,3712
3633,3712,3516,3515
3634,3879,3881,3711
3635,3711,3710,3879
3636,3881,3879,4151
3637,4151,4153,3881
3638,4548,4439,4155
3639,4532,4548,4155
3640,4155,4153,4532
3641,3931,3932,4031
3642,4031,4030,3931
3643,4353,4235,4031
3644,4236,4353,4031
3645,4031,4032,4236
3646,3933,4032,4031
3647,4031,3932,3933
3648,4352,4234,4030
3649,4235,4352,4030
3650,4030,4031,4235
3651,3887,3885,4157
3652,4157,4159,3887
3653,4549,4440,4157
3654,4439,4549,4157
3655,4157,4155,4439
3656,3629,3417,3418
3657,3418,3630,3629
3658,3945,3628,3629
3659,3629,3946,3945
3660,3729,3533,3532
3661,3532,3728,3729
3662,3812,3813,3730
3663,3730,3729,3812
3664,3531,3727,3728
3665,3728,3532,3531
3666,3726,3809,3810
3667,3810,3727,3726
3668,4183,4185,3810
3669,3810,3809,4183
3670,4564,4455,4187
3671,4454,4564,4187
3672,4187,4185,4454
3673,3947,3948,4047
3674,4047,4046,3947
3675,4251,4047,4048
3676,4048,4369,4251
3677,4048,4252,4369
3678,3949,4048,4047
3679,4047,3948,3949
3680,4368,4250,4046
3681,4251,4368,4046
3682,4046,4047,4251
3683,4189,4191,3813
3684,3813,3812,4189
3685,4565,4456,4189
3686,4455,4565,4189
3687,4189,4187,4455
3688,3433,3434,3646
3689,3646,3645,3433
3690,3963,3962,3645
3691,3645,3646,3963
3692,3549,3548,3744
3693,3744,3745,3549
3694,3828,3829,3746
3695,3746,3745,3828
3696,3547,3743,3744
3697,3744,3548,3547
3698,3742,3825,3826
3699,3826,3743,3742
3700,4115,4116,3826
3701,3826,3825,4115
3702,4580,4471,4329
3703,4580,4329,4327
3704,4327,4470,4580
3705,3963,3964,4063
3706,4063,4062,3963
3707,4385,4267,4063
3708,4268,4385,4063
3709,4063,4064,4268
3710,3965,4064,4063
3711,4063,3964,3965
3712,4384,4266,4062
3713,4267,4384,4062
3714,4062,4063,4267
3715,4119,3829,3828
3716,3828,4118,4119
3717,4472,4318,4118
3718,4118,4581,4472
3719,4471,4581,4118
3720,4329,4471,4118
3721,4118,4117,4329
3722,3449,3450,3662
3723,3662,3661,3449
3724,3979,3978,3661
3725,3661,3662,3979
3726,3977,3660,3661
3727,3661,3978,3977
3728,3565,3564,3760
3729,3760,3761,3565
3730,3844,3845,3762
3731,3762,3761,3844
3732,3563,3759,3760
3733,3760,3564,3563
3734,3758,3841,3842
3735,3842,3759,3758
3736,4198,3842,3841
3737,3841,4200,4198
3738,4596,4487,4196
3739,4486,4596,4196
3740,4196,4198,4486
3741,3979,3980,4079
3742,4079,4078,3979
3743,4283,4079,4080
3744,4080,4401,4283
3745,4080,4284,4401
3746,3981,4080,4079
3747,4079,3980,3981
3748,4400,4282,4078
3749,4283,4400,4078
3750,4078,4079,4283
3751,4192,3845,3844
3752,3844,4194,4192
3753,4597,4488,4194
3754,4487,4597,4194
3755,4194,4196,4487
3756,3677,3465,3466
3757,3466,3678,3677
3758,3677,3678,3995
3759,3995,3994,3677
3760,3994,3993,3676
3761,3676,3677,3994
3762,3581,3580,3776
3763,3776,3777,3581
3764,3888,3778,3777
3765,3777,3890,3888
3766,3579,3775,3776
3767,3776,3580,3579
3768,3894,3775,3774
3769,3774,3896,3894
3770,3896,4168,4166
3771,4166,3894,3896
3772,4612,4503,4164
3773,4502,4612,4164
3774,4164,4166,4502
3775,4095,4094,3995
3776,3995,3996,4095
3777,4299,4095,4096
3778,4096,4417,4299
3779,4096,4300,4417
3780,3996,3997,4096
3781,4096,4095,3996
3782,4416,4298,4094
3783,4299,4416,4094
3784,4094,4095,4299
3785,4160,3888,3890
3786,3890,4162,4160
3787,4613,4504,4162
3788,4503,4613,4162
3789,4162,4164,4503
3790,3481,3482,3694
3791,3694,3693,3481
3792,3911,3908,3692
3793,3692,3693,3911
3794,3790,3500,3498
3795,3498,3792,3790
3796,3790,3861,3858
3797,3858,3788,3790
3798,3792,3498,3496
3799,3496,3793,3792
3800,3795,3863,3860
3801,3860,3793,3795
3802,4130,3860,3863
3803,3863,4135,4130
3804,4437,4113,4130
3805,4130,4540,4437
3806,4130,4438,4540
3807,3916,4013,4014
3808,4014,3913,3916
3809,4332,4013,4110
3810,4110,4333,4332
3811,4013,3916,3918
3812,3918,4110,4013
3813,4317,4014,4013
3814,4013,4332,4317
3815,4010,3858,3861
3816,3861,4011,4010
3817,4537,4436,4011
3818,4437,4537,4011
3819,4011,4113,4437
3820,727,515,511
3821,511,729,727
3822,935,727,729
3823,729,939,935
3824,210,103,83
3825,210,83,402
3826,402,406,210
3827,2857,2760,3071
3828,3071,3070,2857
3829,2653,2860,2760
3830,2760,2651,2653
3831,2860,2972,3071
3832,3071,2760,2860
3833,2860,2653,2655
3834,2655,2863,2860
3835,2970,2972,2860
3836,2860,2863,2970
3837,3174,3173,3281
3838,3281,3282,3174
3839,3282,3497,3495
3840,3495,3183,3282
3841,3174,2966,2965
3842,2965,3173,3174
3843,2756,2754,2966
3844,2966,2867,2756
3845,2758,2756,2867
3846,2867,2865,2758
3847,3487,3285,3386
3848,3386,3493,3487
3849,3178,3386,3285
3850,3285,2972,3178
3851,2972,2970,3178
3852,3490,3180,3183
3853,3183,3495,3490
3854,4625,4936,4840
3855,4840,4509,4625
3856,3606,3605,3393
3857,3393,3394,3606
3858,3605,3606,3923
3859,3923,3905,3605
3860,3799,3801,3509
3861,3509,3508,3799
3862,3801,3869,3871
3863,3871,3706,3801
3864,3798,3799,3508
3865,3508,3507,3798
3866,3798,3796,3862
3867,3862,3866,3798
3868,3866,3862,4133
3869,4133,4136,3866
3870,4517,4138,4136
3871,4136,4634,4517
3872,4136,4515,4634
3873,3923,3924,4023
3874,4023,4022,3923
3875,4345,4227,4023
3876,4228,4345,4023
3877,4023,4024,4228
3878,4344,4226,4022
3879,4227,4344,4022
3880,4022,4023,4227
3881,3925,4024,4023
3882,4023,3924,3925
3883,3871,3869,4140
3884,4140,4142,3871
3885,4519,4140,4138
3886,4138,4636,4519
3887,4138,4517,4636
3888,4628,4511,4842
3889,4842,4939,4628
3890,6180,5590,5589
3891,5589,6178,6180
3892,4340,4740,4644
3893,4644,4222,4340
3894,6173,6175,5585
3895,5585,5581,6173
3896,6663,6166,6076
3897,6076,6661,6663
3898,6669,6173,6171
3899,6171,6667,6669
3900,4627,4938,4842
3901,4842,4511,4627
3902,6076,6166,5577
3903,5577,5576,6076
3904,4339,4222,4644
3905,4644,4739,4339
3906,6171,6173,5581
3907,5581,5579,6171
3908,6677,6180,6178
3909,6178,6675,6677
3910,6671,6175,6173
3911,6173,6669,6671
3912,4342,4742,4646
3913,4646,4224,4342
3914,6182,5592,5590
3915,5590,6180,6182
3916,4634,4942,4846
3917,4846,4517,4634
3918,5596,6186,6188
3919,6188,5598,5596
3920,6194,6486,6487
3921,6487,6196,6194
3922,6188,6483,6484
3923,6484,6190,6188
3924,6677,6480,6182
3925,6182,6180,6677
3926,6186,6482,6483
3927,6483,6188,6186
3928,4636,4517,4846
3929,4846,4943,4636
3930,5606,5604,6194
3931,6194,6196,5606
3932,4344,4744,4648
3933,4648,4226,4344
3934,6190,5600,5598
3935,5598,6188,6190
3936,3622,3621,3409
3937,3409,3410,3622
3938,3525,3524,3720
3939,3720,3721,3525
3940,3901,3903,3722
3941,3722,3721,3901
3942,3523,3719,3720
3943,3720,3524,3523
3944,3895,3897,3719
3945,3719,3718,3895
3946,4167,4169,3897
3947,3897,3895,4167
3948,4556,4447,4171
3949,4446,4556,4171
3950,4171,4169,4446
3951,3939,3940,4039
3952,4039,4038,3939
3953,4361,4243,4039
3954,4244,4361,4039
3955,4039,4040,4244
3956,4360,4242,4038
3957,4243,4360,4038
3958,4038,4039,4243
3959,3941,4040,4039
3960,4039,3940,3941
3961,4173,4175,3903
3962,3903,3901,4173
3963,4557,4448,4173
3964,4447,4557,4173
3965,4173,4171,4447
3966,4553,4443,4858
3967,4858,4955,4553
3968,6242,6244,5459
3969,5459,5654,6242
3970,4356,4756,4660
3971,4660,4238,4356
3972,5650,5648,6236
3973,6236,6238,5650
3974,6228,6503,6504
3975,6504,6230,6228
3976,6234,6506,6507
3977,6507,6236,6234
3978,4552,4954,4858
3979,4858,4443,4552
3980,5642,5640,6228
3981,6228,6230,5642
3982,6234,6236,5648
3983,5648,5646,6234
3984,6242,6510,6511
3985,6511,6244,6242
3986,6236,6507,6508
3987,6508,6238,6236
3988,4358,4758,4662
3989,4662,4240,4358
3990,6244,6246,5460
3991,5460,5459,6244
3992,4556,4958,4862
3993,4862,4447,4556
3994,6250,6252,5463
3995,5463,5462,6250
3996,6518,6519,6260
3997,6260,6258,6518
3998,6252,6515,6516
3999,6516,6254,6252
4000,6244,6511,6512
4001,6512,6246,6244
4002,6250,6514,6515
4003,6515,6252,6250
4004,4557,4447,4862
4005,4862,4959,4557
4006,4361,4244,4666
4007,4666,4761,4361
4008,6258,6260,5467
4009,5467,5466,6258
4010,6252,6254,5464
4011,5464,5463,6252
4012,3638,3637,3425
4013,3425,3426,3638
4014,3955,3954,3637
4015,3637,3638,3955
4016,3953,3636,3637
4017,3637,3954,3953
4018,3541,3540,3736
4019,3736,3737,3541
4020,3738,3737,3820
4021,3820,3821,3738
4022,3539,3735,3736
4023,3736,3540,3539
4024,3818,3735,3734
4025,3734,3817,3818
4026,4199,4201,3818
4027,3818,3817,4199
4028,4572,4463,4203
4029,4462,4572,4203
4030,4203,4201,4462
4031,3955,3956,4055
4032,4055,4054,3955
4033,4377,4259,4055
4034,4260,4377,4055
4035,4055,4056,4260
4036,4376,4258,4054
4037,4259,4376,4054
4038,4054,4055,4259
4039,3957,4056,4055
4040,4055,3956,3957
4041,4205,4207,3821
4042,3821,3820,4205
4043,4573,4464,4205
4044,4463,4573,4205
4045,4205,4203,4463
4046,4569,4459,4874
4047,4874,4971,4569
4048,4373,4256,4678
4049,4678,4773,4373
4050,6096,6097,5491
4051,5491,5490,6096
4052,5487,6093,6094
4053,6094,5488,5487
4054,6090,6089,6535
4055,6535,6536,6090
4056,6539,6093,6092
4057,6092,6538,6539
4058,4568,4970,4874
4059,4874,4459,4568
4060,4370,4770,4674
4061,4674,4252,4370
4062,5483,6089,6090
4063,6090,5484,5483
4064,4371,4254,4676
4065,4676,4771,4371
4066,6092,6093,5487
4067,5487,5486,6092
4068,6542,6543,6097
4069,6097,6096,6542
4070,6094,6093,6539
4071,6539,6540,6094
4072,5491,6097,6098
4073,6098,5492,5491
4074,4572,4974,4878
4075,4878,4463,4572
4076,4375,4258,4680
4077,4680,4775,4375
4078,6100,6101,5495
4079,5495,5494,6100
4080,6551,6105,6104
4081,6104,6550,6551
4082,6102,6101,6547
4083,6547,6548,6102
4084,6098,6097,6543
4085,6543,6544,6098
4086,6546,6547,6101
4087,6101,6100,6546
4088,4573,4463,4878
4089,4878,4975,4573
4090,6104,6105,5499
4091,5499,5498,6104
4092,5496,5495,6101
4093,6101,6102,5496
4094,3654,3653,3441
4095,3441,3442,3654
4096,3557,3556,3752
4097,3752,3753,3557
4098,3754,3753,3836
4099,3836,3837,3754
4100,3555,3751,3752
4101,3752,3556,3555
4102,3834,3751,3750
4103,3750,3833,3834
4104,4123,4124,3834
4105,3834,3833,4123
4106,4322,4212,4124
4107,4124,4324,4322
4108,3971,3972,4071
4109,4071,4070,3971
4110,4393,4275,4071
4111,4276,4393,4071
4112,4071,4072,4276
4113,4392,4274,4070
4114,4275,4392,4070
4115,4070,4071,4275
4116,3973,4072,4071
4117,4071,3972,3973
4118,4208,3837,3836
4119,3836,4210,4208
4120,4589,4480,4210
4121,4322,4479,4589
4122,4322,4589,4210
4123,4210,4212,4322
4124,4585,4475,4890
4125,4890,4987,4585
4126,4389,4272,4694
4127,4694,4789,4389
4128,6128,6129,5523
4129,5523,5522,6128
4130,4388,4788,4692
4131,4692,4270,4388
4132,5519,6125,6126
4133,6126,5520,5519
4134,6121,6567,6568
4135,6568,6122,6121
4136,6571,6125,6124
4137,6124,6570,6571
4138,4584,4986,4890
4139,4890,4475,4584
4140,4386,4786,4690
4141,4690,4268,4386
4142,6121,6122,5516
4143,5516,5515,6121
4144,6124,6125,5519
4145,5519,5518,6124
4146,6575,6129,6128
4147,6128,6574,6575
4148,6126,6125,6571
4149,6571,6572,6126
4150,6130,5524,5523
4151,5523,6129,6130
4152,4588,4990,4894
4153,4894,4479,4588
4154,4391,4274,4696
4155,4696,4791,4391
4156,6132,6133,5527
4157,5527,5526,6132
4158,6583,6137,6136
4159,6136,6582,6583
4160,6134,6133,6579
4161,6579,6580,6134
4162,6130,6129,6575
4163,6575,6576,6130
4164,6579,6133,6132
4165,6132,6578,6579
4166,4589,4479,4894
4167,4894,4991,4589
4168,6136,6137,5531
4169,5531,5530,6136
4170,6134,5528,5527
4171,5527,6133,6134
4172,3670,3669,3457
4173,3457,3458,3670
4174,3669,3670,3987
4175,3987,3986,3669
4176,3986,3985,3668
4177,3668,3669,3986
4178,3573,3572,3768
4179,3768,3769,3573
4180,3770,3769,3852
4181,3852,3904,3770
4182,3767,3768,3572
4183,3572,3571,3767
4184,3850,3767,3766
4185,3766,3849,3850
4186,4182,3850,3849
4187,3849,4184,4182
4188,4604,4495,4180
4189,4494,4604,4180
4190,4180,4182,4494
4191,4087,4086,3987
4192,3987,3988,4087
4193,4291,4087,4088
4194,4088,4409,4291
4195,4088,4292,4409
4196,4290,4086,4087
4197,4087,4408,4290
4198,4087,4291,4408
4199,3988,3989,4088
4200,4088,4087,3988
4201,4176,3904,3852
4202,3852,4178,4176
4203,4605,4496,4178
4204,4495,4605,4178
4205,4178,4180,4495
4206,4601,4491,4906
4207,4906,5003,4601
4208,6160,6161,5555
4209,5555,5554,6160
4210,5551,6157,6158
4211,6158,5552,5551
4212,6154,6153,6599
4213,6599,6600,6154
4214,6603,6157,6156
4215,6156,6602,6603
4216,4600,5002,4906
4217,4906,4491,4600
4218,5547,6153,6154
4219,6154,5548,5547
4220,6156,6157,5551
4221,5551,5550,6156
4222,6607,6161,6160
4223,6160,6606,6607
4224,6158,6157,6603
4225,6603,6604,6158
4226,4406,4806,4710
4227,4710,4288,4406
4228,5555,6161,6162
4229,6162,5556,5555
4230,4604,5006,4910
4231,4910,4495,4604
4232,6164,6165,5559
4233,5559,5558,6164
4234,6261,6263,6614
4235,6614,6615,6261
4236,6612,6267,6165
4237,6165,6611,6612
4238,6162,6161,6607
4239,6607,6608,6162
4240,6611,6165,6164
4241,6164,6610,6611
4242,4605,4495,4910
4243,4910,5007,4605
4244,4409,4292,4714
4245,4714,4809,4409
4246,5563,5562,6263
4247,6263,6261,5563
4248,4408,4808,4712
4249,4712,4290,4408
4250,5560,5559,6165
4251,6165,6267,5560
4252,3685,3473,3474
4253,3474,3686,3685
4254,3589,3588,3784
4255,3784,3785,3589
4256,3872,3786,3785
4257,3785,3874,3872
4258,3587,3783,3784
4259,3784,3588,3587
4260,3878,3783,3782
4261,3782,3880,3878
4262,3880,4152,4150
4263,4150,3878,3880
4264,4620,4527,4147
4265,4529,4620,4147
4266,4147,4150,4529
4267,4003,4004,4103
4268,4103,4102,4003
4269,4307,4103,4104
4270,4104,4425,4307
4271,4104,4308,4425
4272,4306,4102,4103
4273,4103,4424,4306
4274,4103,4307,4424
4275,4005,4104,4103
4276,4103,4004,4005
4277,4143,3872,3874
4278,3874,4145,4143
4279,4621,4525,4145
4280,4527,4621,4145
4281,4145,4147,4527
4282,4617,4507,4922
4283,4922,5019,4617
4284,4421,4304,4726
4285,4726,4821,4421
4286,5625,6215,6213
4287,6213,5623,5625
4288,4420,4820,4724
4289,4724,4302,4420
4290,5631,6221,6219
4291,6219,5629,5631
4292,6227,6229,6631
4293,6631,6632,6227
4294,6221,6223,6634
4295,6634,6635,6221
4296,4616,5018,4922
4297,4922,4507,4616
4298,5641,6229,6227
4299,6227,5638,5641
4300,4419,4302,4724
4301,4724,4819,4419
4302,6221,5631,5634
4303,5634,6223,6221
4304,6213,6215,6638
4305,6638,6639,6213
4306,6219,6221,6635
4307,6635,6636,6219
4308,4422,4822,4726
4309,4726,4304,4422
4310,6211,5621,5623
4311,5623,6213,6211
4312,4620,5022,4926
4313,4926,4527,4620
4314,4423,4306,4728
4315,4728,4823,4423
4316,5617,6207,6205
4317,6205,5615,5617
4318,6197,6199,6646
4319,6646,6647,6197
4320,6203,6205,6643
4321,6643,6644,6203
4322,6211,6213,6639
4323,6639,6640,6211
4324,6205,6207,6642
4325,6642,6643,6205
4326,4621,4527,4926
4327,4926,5023,4621
4328,6197,5607,5609
4329,5609,6199,6197
4330,5615,6205,6203
4331,6203,5613,5615
4332,1253,1241,1144
4333,1144,1255,1253
4334,1144,1241,938
4335,938,934,1144
4336,1360,1253,1255
4337,1360,1255,1485
4338,1485,1487,1360
4339,2230,2545,2543
4340,2543,2228,2230
4341,2650,2652,2464
4342,2464,2543,2650
4343,2339,2129,2228
4344,2339,2228,2543
4345,2543,2464,2339
4346,2652,2654,2547
4347,2547,2464,2652
4348,2464,2547,2337
4349,2337,2339,2464
4350,2234,2232,2341
4351,2341,2406,2234
4352,2549,2757,2755
4353,2549,2755,2406
4354,2406,2341,2549
4355,3611,3610,3398
4356,3398,3399,3611
4357,3927,3610,3611
4358,3611,3928,3927
4359,3708,3512,3511
4360,3511,3707,3708
4361,3871,3873,3707
4362,3707,3706,3871
4363,3513,3512,3708
4364,3708,3709,3513
4365,3877,3879,3710
4366,3710,3709,3877
4367,3879,3877,4149
4368,4149,4151,3879
4369,4545,4528,4149
4370,4526,4545,4149
4371,4149,4146,4526
4372,3927,4026,4025
4373,4025,3926,3927
4374,4346,4228,4024
4375,4229,4346,4024
4376,4024,4025,4229
4377,3925,3926,4025
4378,4025,4024,3925
4379,4229,4025,4026
4380,4026,4347,4229
4381,4026,4230,4347
4382,4142,4144,3873
4383,3873,3871,4142
4384,4544,4526,4146
4385,4524,4544,4146
4386,4146,4144,4524
4387,4548,4950,4854
4388,4854,4439,4548
4389,5624,5622,6212
4390,6212,6214,5624
4391,5630,5628,6218
4392,6218,6220,5630
4393,6226,6502,6503
4394,6503,6228,6226
4395,6220,6499,6500
4396,6500,6222,6220
4397,4549,4439,4854
4398,4854,4951,4549
4399,5640,5637,6226
4400,6226,6228,5640
4401,6220,6222,5633
4402,5633,5630,6220
4403,6212,6495,6496
4404,6496,6214,6212
4405,6218,6498,6499
4406,6499,6220,6218
4407,4545,4526,4850
4408,4850,4947,4545
4409,6210,6212,5622
4410,5622,5620,6210
4411,4348,4748,4652
4412,4652,4230,4348
4413,5616,5614,6204
4414,6204,6206,5616
4415,6196,6487,6488
4416,6488,6198,6196
4417,6202,6490,6491
4418,6491,6204,6202
4419,4544,4946,4850
4420,4850,4526,4544
4421,6196,6198,5608
4422,5608,5606,6196
4423,5614,5612,6202
4424,6202,6204,5614
4425,6210,6494,6495
4426,6495,6212,6210
4427,6204,6491,6492
4428,6492,6206,6204
4429,3627,3626,3414
4430,3414,3415,3627
4431,3627,3944,3943
4432,3943,3626,3627
4433,3944,3627,3628
4434,3628,3945,3944
4435,3724,3528,3527
4436,3527,3723,3724
4437,3722,3903,3806
4438,3806,3723,3722
4439,3529,3528,3724
4440,3724,3725,3529
4441,3808,3809,3726
4442,3726,3725,3808
4443,4181,4183,3809
4444,3809,3808,4181
4445,4561,4452,4181
4446,4451,4561,4181
4447,4181,4179,4451
4448,3942,3943,4042
4449,4042,4041,3942
4450,4362,4244,4040
4451,4245,4362,4040
4452,4040,4041,4245
4453,4041,4040,3941
4454,3941,3942,4041
4455,4245,4041,4042
4456,4042,4363,4245
4457,4042,4246,4363
4458,4175,4177,3806
4459,3806,3903,4175
4460,4560,4451,4179
4461,4450,4560,4179
4462,4179,4177,4450
4463,4564,4966,4870
4464,4870,4455,4564
4465,4366,4766,4670
4466,4670,4248,4366
4467,5475,6081,6082
4468,6082,5476,5475
4469,6084,6085,5479
4470,5479,5478,6084
4471,6535,6089,6088
4472,6088,6534,6535
4473,6086,6085,6531
4474,6531,6532,6086
4475,4565,4455,4870
4476,4870,4967,4565
4477,4369,4252,4674
4478,4674,4769,4369
4479,6088,6089,5483
4480,5483,5482,6088
4481,4368,4768,4672
4482,4672,4250,4368
4483,5479,6085,6086
4484,6086,5480,5479
4485,6082,6081,6527
4486,6527,6528,6082
4487,6531,6085,6084
4488,6084,6530,6531
4489,4561,4451,4866
4490,4866,4963,4561
4491,4365,4248,4670
4492,4670,4765,4365
4493,6080,6081,5475
4494,5475,5474,6080
4495,5471,6077,6078
4496,6078,5472,5471
4497,6260,6519,6520
4498,6520,6262,6260
4499,6522,6523,6077
4500,6077,6266,6522
4501,4560,4962,4866
4502,4866,4451,4560
4503,5467,6260,6262
4504,6262,5468,5467
4505,4363,4246,4668
4506,4668,4763,4363
4507,5470,6266,6077
4508,6077,5471,5470
4509,6527,6081,6080
4510,6080,6526,6527
4511,6078,6077,6523
4512,6523,6524,6078
4513,3431,3643,3642
4514,3642,3430,3431
4515,3740,3544,3543
4516,3543,3739,3740
4517,3822,3739,3738
4518,3738,3821,3822
4519,3545,3544,3740
4520,3740,3741,3545
4521,3824,3825,3742
4522,3742,3741,3824
4523,4115,3825,3824
4524,3824,4114,4115
4525,4321,4323,4114
4526,4114,4211,4321
4527,3959,4058,4057
4528,4057,3958,3959
4529,4378,4260,4056
4530,4261,4378,4056
4531,4056,4057,4261
4532,3957,3958,4057
4533,4057,4056,3957
4534,4379,4261,4057
4535,4262,4379,4057
4536,4057,4058,4262
4537,4207,4209,3822
4538,3822,3821,4207
4539,4321,4211,4576
4540,4576,4467,4321
4541,4466,4576,4211
4542,4211,4209,4466
4543,4580,4982,4886
4544,4886,4471,4580
4545,5508,5507,6113
4546,6113,6114,5508
4547,4383,4266,4688
4548,4688,4783,4383
4549,6116,6117,5511
4550,5511,5510,6116
4551,6567,6121,6120
4552,6120,6566,6567
4553,6118,6117,6563
4554,6563,6564,6118
4555,4581,4471,4886
4556,4886,4983,4581
4557,4385,4268,4690
4558,4690,4785,4385
4559,5515,5514,6120
4560,6120,6121,5515
4561,4384,4784,4688
4562,4688,4266,4384
4563,5511,6117,6118
4564,6118,5512,5511
4565,6114,6113,6559
4566,6559,6560,6114
4567,6562,6563,6117
4568,6117,6116,6562
4569,4577,4467,4882
4570,4882,4979,4577
4571,4381,4264,4686
4572,4686,4781,4381
4573,5506,6112,6113
4574,6113,5507,5506
4575,5503,6109,6110
4576,6110,5504,5503
4577,6106,6105,6551
4578,6551,6552,6106
4579,6555,6109,6108
4580,6108,6554,6555
4581,4576,4978,4882
4582,4882,4467,4576
4583,4378,4778,4682
4584,4682,4260,4378
4585,5500,5499,6105
4586,6105,6106,5500
4587,6108,6109,5503
4588,5503,5502,6108
4589,6558,6559,6113
4590,6113,6112,6558
4591,6110,6109,6555
4592,6555,6556,6110
4593,3447,3659,3658
4594,3658,3446,3447
4595,3756,3560,3559
4596,3559,3755,3756
4597,3838,3755,3754
4598,3754,3837,3838
4599,3561,3560,3756
4600,3756,3757,3561
4601,3840,3841,3758
4602,3758,3757,3840
4603,4200,3841,3840
4604,3840,4202,4200
4605,4593,4484,4202
4606,4483,4593,4202
4607,4202,4204,4483
4608,3975,4074,4073
4609,4073,3974,3975
4610,4394,4276,4072
4611,4277,4394,4072
4612,4072,4073,4277
4613,3973,3974,4073
4614,4073,4072,3973
4615,4395,4277,4073
4616,4278,4395,4073
4617,4073,4074,4278
4618,4206,3838,3837
4619,3837,4208,4206
4620,4592,4483,4204
4621,4482,4592,4204
4622,4204,4206,4482
4623,4596,4998,4902
4624,4902,4487,4596
4625,6146,5540,5539
4626,5539,6145,6146
4627,6148,6149,5543
4628,5543,5542,6148
4629,6599,6153,6152
4630,6152,6598,6599
4631,6150,6149,6595
4632,6595,6596,6150
4633,4597,4487,4902
4634,4902,4999,4597
4635,6152,6153,5547
4636,5547,5546,6152
4637,5543,6149,6150
4638,6150,5544,5543
4639,6146,6145,6591
4640,6591,6592,6146
4641,6595,6149,6148
4642,6148,6594,6595
4643,4593,4483,4898
4644,4898,4995,4593
4645,6144,6145,5539
4646,5539,5538,6144
4647,4396,4796,4700
4648,4700,4278,4396
4649,5535,6141,6142
4650,6142,5536,5535
4651,6138,6137,6583
4652,6583,6584,6138
4653,6586,6587,6141
4654,6141,6140,6586
4655,4592,4994,4898
4656,4898,4483,4592
4657,6138,5532,5531
4658,5531,6137,6138
4659,5534,6140,6141
4660,6141,5535,5534
4661,6591,6145,6144
4662,6144,6590,6591
4663,6142,6141,6587
4664,6587,6588,6142
4665,3463,3675,3674
4666,3674,3462,3463
4667,3991,3674,3675
4668,3675,3992,3991
4669,3993,3992,3675
4670,3675,3676,3993
4671,3772,3576,3575
4672,3575,3771,3772
4673,3902,3771,3770
4674,3770,3904,3902
4675,3773,3577,3576
4676,3576,3772,3773
4677,3896,3774,3773
4678,3773,3898,3896
4679,4168,3896,3898
4680,3898,4170,4168
4681,4609,4500,4170
4682,4499,4609,4170
4683,4170,4172,4499
4684,3991,4090,4089
4685,4089,3990,3991
4686,4410,4292,4088
4687,4293,4410,4088
4688,4088,4089,4293
4689,3989,3990,4089
4690,4089,4088,3989
4691,4293,4089,4090
4692,4090,4411,4293
4693,4090,4294,4411
4694,4174,3902,3904
4695,3904,4176,4174
4696,4608,4499,4172
4697,4498,4608,4172
4698,4172,4174,4498
4699,4612,5014,4918
4700,4918,4503,4612
4701,4414,4814,4718
4702,4718,4296,4414
4703,6243,5655,5571
4704,5571,6245,6243
4705,5651,6239,6237
4706,6237,5649,5651
4707,6229,6231,6630
4708,6630,6631,6229
4709,6235,6237,6627
4710,6627,6628,6235
4711,4613,4503,4918
4712,4918,5015,4613
4713,4417,4300,4722
4714,4722,4817,4417
4715,5643,6231,6229
4716,6229,5641,5643
4717,4416,4816,4720
4718,4720,4298,4416
4719,6235,5647,5649
4720,5649,6237,6235
4721,6243,6245,6623
4722,6623,6624,6243
4723,6237,6239,6626
4724,6626,6627,6237
4725,4609,4499,4914
4726,4914,5011,4609
4727,6245,5571,5570
4728,5570,6247,6245
4729,4412,4812,4716
4730,4716,4294,4412
4731,6251,5568,5567
4732,5567,6253,6251
4733,6616,6259,6261
4734,6261,6615,6616
4735,6253,6255,6618
4736,6618,6619,6253
4737,4608,5010,4914
4738,4914,4499,4608
4739,6259,5564,5563
4740,5563,6261,6259
4741,4411,4294,4716
4742,4716,4811,4411
4743,6253,5567,5566
4744,5566,6255,6253
4745,6245,6247,6622
4746,6622,6623,6245
4747,6251,6253,6619
4748,6619,6620,6251
4749,3691,3690,3478
4750,3478,3479,3691
4751,3691,3906,4007
4752,4007,3690,3691
4753,3800,3592,3591
4754,3591,3802,3800
4755,3802,3786,3872
4756,3872,3870,3802
4757,3797,3593,3592
4758,3592,3800,3797
4759,3797,3865,3863
4760,3863,3795,3797
4761,4135,3863,3865
4762,3865,4137,4135
4763,4635,4516,4137
4764,4518,4635,4137
4765,4137,4139,4518
4766,4007,4106,4105
4767,4105,4006,4007
4768,4426,4308,4104
4769,4309,4426,4104
4770,4104,4105,4309
4771,4005,4006,4105
4772,4105,4104,4005
4773,4427,4309,4105
4774,4310,4427,4105
4775,4105,4106,4310
4776,3872,4143,4141
4777,4141,3870,3872
4778,4637,4518,4139
4779,4520,4637,4139
4780,4139,4141,4520
4781,4540,5030,4934
4782,4934,4437,4540
4783,6181,6179,5588
4784,5588,5591,6181
4785,4431,4317,4834
4786,4834,4831,4431
4787,6172,5580,5584
4788,5584,6174,6172
4789,6664,6662,6075
4790,6075,6167,6664
4791,6670,6668,6170
4792,6170,6172,6670
4793,4537,4437,4934
4794,4934,5033,4537
4795,5854,5850,6167
4796,6167,6075,5854
4797,4834,4317,4332
4798,4332,5244,4834
4799,5035,4834,5244
4800,5240,5035,5244
4801,5244,5447,5240
4802,5583,5580,6172
4803,6172,6170,5583
4804,6678,6676,6179
4805,6179,6181,6678
4806,6672,6670,6172
4807,6172,6174,6672
4808,4635,4518,4930
4809,4930,5027,4635
4810,4429,4312,4734
4811,4734,4829,4429
4812,6183,6181,5591
4813,5591,5593,6183
4814,5597,5599,6189
4815,6189,6187,5597
4816,6195,6197,6647
4817,6647,6648,6195
4818,6189,6191,6650
4819,6650,6651,6189
4820,4637,5026,4930
4821,4930,4518,4637
4822,4426,4826,4730
4823,4730,4308,4426
4824,5607,6197,6195
4825,6195,5605,5607
4826,4427,4310,4732
4827,4732,4827,4427
4828,6191,6189,5599
4829,5599,5601,6191
4830,6678,6181,6183
4831,6183,6654,6678
4832,6187,6189,6651
4833,6651,6652,6187
4834,1254,1256,1145
4835,1145,1242,1254
4836,1145,935,939
4837,939,1242,1145
4838,1361,1488,1486
4839,1486,1256,1361
4840,1256,1254,1361
4841,2651,2544,2465
4842,2465,2653,2651
4843,2653,2465,2548
4844,2548,2655,2653
4845,2465,2340,2338
4846,2338,2548,2465
4847,2235,2407,2342
4848,2342,2233,2235
4849,1888,2114,2110
4850,2110,1781,1888
4851,1781,1676,1888
4852,3487,3597,3697
4853,3697,3485,3487
4854,3486,3387,3599
4855,3599,3598,3486
4856,3919,3599,3600
4857,3600,3917,3919
4858,3599,3919,3921
4859,3921,3598,3599
4860,7088,7087,6685
4861,6685,6686,7088
4862,7020,7019,7086
4863,7086,7087,7020
4864,6691,7093,7092
4865,7092,6690,6691
4866,7026,7093,7094
4867,7094,6882,7026
4868,6699,7101,7100
4869,7100,6698,6699
4870,6898,6896,7101
4871,7101,7102,6898
4872,6694,7096,7095
4873,7095,6693,6694
4874,6884,6882,7094
4875,7094,7095,6884
4876,7120,7119,6717
4877,6717,6718,7120
4878,6932,6930,7118
4879,7118,7119,6932
4880,7124,6722,6723
4881,6723,7125,7124
4882,6947,6945,7125
4883,7125,7126,6947
4884,6730,6731,7133
4885,7133,7132,6730
4886,6963,6961,7133
4887,7133,7134,6963
4888,7128,7127,6725
4889,6725,6726,7128
4890,6949,6947,7126
4891,7126,7127,6949
4892,7152,7151,6749
4893,6749,6750,7152
4894,6997,6995,7150
4895,7150,7151,6997
4896,7156,6754,6755
4897,6755,7157,7156
4898,7011,7009,7157
4899,7157,7158,7011
4900,6763,7165,7164
4901,7164,6762,6763
4902,7031,7165,7166
4903,7166,7032,7031
4904,7159,6757,6758
4905,6758,7160,7159
4906,7013,7011,7158
4907,7158,7159,7013
4908,7184,7183,6781
4909,6781,6782,7184
4910,7048,7182,7183
4911,7183,7049,7048
4912,6787,7189,7188
4913,7188,6786,6787
4914,7189,7190,7056
4915,7056,7055,7189
4916,6795,7197,7196
4917,7196,6794,6795
4918,7063,7197,7198
4919,7198,7064,7063
4920,7192,7191,6789
4921,6789,6790,7192
4922,7057,7056,7190
4923,7190,7191,7057
4924,7216,7215,6813
4925,6813,6814,7216
4926,6996,7214,7215
4927,7215,6994,6996
4928,6818,6819,7221
4929,7221,7220,6818
4930,6982,7221,7222
4931,7222,6980,6982
4932,6827,7229,7228
4933,7228,6826,6827
4934,6966,7229,7230
4935,7230,6964,6966
4936,7224,7223,6821
4937,6821,6822,7224
4938,6980,7222,7223
4939,7223,6978,6980
4940,7248,7247,6845
4941,6845,6846,7248
4942,6931,7246,7247
4943,7247,6929,6931
4944,6851,7253,7252
4945,7252,6850,6851
4946,6917,7253,7254
4947,7254,6915,6917
4948,7260,6858,6859
4949,6859,7261,7260
4950,6901,7261,7262
4951,7262,6899,6901
4952,7256,7255,6853
4953,6853,6854,7256
4954,6915,7254,7255
4955,7255,6913,6915
4956,6715,7117,7116
4957,7116,6714,6715
4958,6930,6928,7117
4959,7117,7118,6930
4960,6710,7112,7111
4961,7111,6709,6710
4962,6916,6914,7110
4963,7110,7111,6916
4964,6702,7104,7103
4965,7103,6701,6702
4966,6900,6898,7102
4967,7102,7103,6900
4968,6707,7109,7108
4969,7108,6706,6707
4970,6914,6912,7109
4971,7109,7110,6914
4972,7148,6746,6747
4973,6747,7149,7148
4974,6995,6993,7149
4975,7149,7150,6995
4976,7144,7143,6741
4977,6741,6742,7144
4978,6981,6979,7142
4979,7142,7143,6981
4980,6734,7136,7135
4981,7135,6733,6734
4982,6965,6963,7134
4983,7134,7135,6965
4984,6739,7141,7140
4985,7140,6738,6739
4986,6979,6977,7141
4987,7141,7142,6979
4988,6779,7181,7180
4989,7180,6778,6779
4990,7182,7048,7047
4991,7047,7181,7182
4992,7176,7175,6773
4993,6773,6774,7176
4994,7041,7040,7174
4995,7174,7175,7041
4996,7168,7167,6765
4997,6765,6766,7168
4998,7033,7032,7166
4999,7166,7167,7033
5000,6771,7173,7172
5001,7172,6770,6771
5002,7173,7174,7040
5003,7040,7039,7173
5004,6811,7213,7212
5005,7212,6810,6811
5006,6998,7213,7214
5007,7214,6996,6998
5008,7207,6805,6806
5009,6806,7208,7207
5010,7012,7206,7207
5011,7207,7010,7012
5012,6797,6798,7200
5013,7200,7199,6797
5014,7065,7064,7198
5015,7198,7199,7065
5016,7205,7204,6802
5017,6802,6803,7205
5018,7014,7205,7206
5019,7206,7012,7014
5020,6842,6843,7245
5021,7245,7244,6842
5022,6933,7245,7246
5023,7246,6931,6933
5024,7240,7239,6837
5025,6837,6838,7240
5026,6948,7238,7239
5027,7239,6946,6948
5028,6830,7232,7231
5029,7231,6829,6830
5030,6964,7230,7231
5031,7231,6962,6964
5032,6835,7237,7236
5033,7236,6834,6835
5034,6950,7237,7238
5035,7238,6948,6950
5036,6875,7277,7276
5037,7276,6874,6875
5038,7076,7277,7278
5039,7278,7077,7076
5040,7272,7271,6869
5041,6869,6870,7272
5042,7070,6883,7270
5043,7270,7271,7070
5044,6862,7264,7263
5045,7263,6861,6862
5046,6899,7262,7263
5047,7263,6897,6899
5048,6867,7269,7268
5049,7268,6866,6867
5050,6885,7269,7270
5051,7270,6883,6885
5052,3788,3858,3855
5053,3855,3705,3788
5054,3497,3705,3703
5055,3703,3495,3497
5056,4111,4334,4333
5057,4333,4110,4111
5058,3920,4111,4110
5059,4110,3918,3920
5060,4111,3920,3922
5061,3922,4125,4111
5062,4331,4334,4111
5063,4111,4125,4331
5064,3493,3595,3597
5065,3597,3487,3493
5066,4009,3855,3858
5067,3858,4010,4009
5068,4012,4009,4538
5069,4538,4541,4012
5070,3701,3490,3495
5071,3495,3703,3701
5072,4434,4213,4012
5073,4012,4536,4434
5074,4631,4536,4012
5075,4012,4541,4631
5076,3787,3704,3853
5077,3853,3854,3787
5078,3501,3494,3702
5079,3702,3704,3501
5080,3492,3486,3598
5081,3598,3596,3492
5082,4337,4219,4015
5083,4220,4337,4015
5084,4015,4016,4220
5085,3919,3917,4016
5086,4016,4015,3919
5087,4015,4112,3921
5088,3921,3919,4015
5089,4336,4313,4112
5090,4219,4336,4112
5091,4112,4015,4219
5092,3854,3853,4126
5093,4126,4127,3854
5094,4508,4126,4215
5095,4215,4624,4508
5096,4215,4523,4624
5097,3700,3702,3494
5098,3494,3489,3700
5099,4638,4523,4215
5100,4217,4433,4534
5101,4217,4534,4638
5102,4638,4215,4217
5103,4215,4128,4217
5104,6662,6660,6073
5105,6073,6075,6662
5106,6479,6068,6070
5107,6070,6656,6479
5108,5855,5854,6075
5109,6075,6073,5855
5110,6068,5851,5853
5111,5853,6070,6068
5112,5851,6068,6065
5113,6065,5656,5851
5114,6068,6479,6477
5115,6477,6065,6068
5116,6661,6076,6074
5117,6074,6659,6661
5118,6478,6655,6069
5119,6069,6067,6478
5120,6074,6076,5576
5121,5576,5575,6074
5122,4624,4523,4838
5123,4838,4935,4624
5124,4336,4736,4640
5125,4640,4313,4336
5126,6067,6069,5573
5127,5573,5572,6067
5128,4638,5032,4838
5129,4838,4523,4638
5130,6067,5572,5458
5131,5458,6268,6067
5132,6476,6478,6067
5133,6067,6268,6476
5134,5440,5589,5590
5135,5590,5247,5440
5136,5587,6176,6178
5137,6178,5589,5587
5138,5436,5434,5581
5139,5581,5585,5436
5140,6176,5587,5585
5141,5585,6175,6176
5142,5867,6282,6281
5143,6281,5866,5867
5144,5865,5866,6281
5145,6281,6280,5865
5146,6280,6686,6685
5147,6685,6279,6280
5148,6663,6661,7019
5149,7019,7020,6663
5150,6665,6169,6166
5151,6166,6663,6665
5152,6686,6687,7089
5153,7089,7088,6686
5154,7090,7023,7022
5155,7022,7089,7090
5156,6686,6280,6281
5157,6281,6687,6686
5158,6667,6171,6169
5159,6169,6665,6667
5160,6669,6667,7022
5161,7022,7023,6669
5162,5429,5428,5576
5163,5576,5577,5429
5164,6166,6169,5578
5165,5578,5577,6166
5166,5434,5432,5579
5167,5579,5581,5434
5168,6169,6171,5579
5169,5579,5578,6169
5170,5867,5868,6283
5171,6283,6282,5867
5172,5869,6284,6283
5173,6283,5868,5869
5174,6285,6691,6690
5175,6690,6284,6285
5176,6882,6677,6675
5177,6675,7026,6882
5178,6675,6178,6176
5179,6176,6673,6675
5180,7092,7091,6689
5181,6689,6690,7092
5182,7024,7023,7090
5183,7090,7091,7024
5184,6283,6284,6690
5185,6690,6689,6283
5186,6673,6176,6175
5187,6175,6671,6673
5188,6671,6669,7023
5189,7023,7024,6671
5190,5590,5592,5248
5191,5248,5247,5590
5192,5592,6182,6184
5193,6184,5594,5592
5194,6186,5596,5594
5195,5594,6184,6186
5196,5596,5598,5251
5197,5251,5250,5596
5198,5875,5876,6291
5199,6291,6290,5875
5200,5877,6292,6291
5201,6291,5876,5877
5202,7100,7099,6697
5203,6697,6698,7100
5204,6892,6890,7098
5205,7098,7099,6892
5206,6699,6698,6292
5207,6292,6293,6699
5208,6896,6898,6487
5209,6487,6486,6896
5210,6192,6485,6486
5211,6486,6194,6192
5212,6697,6291,6292
5213,6292,6698,6697
5214,6484,6483,6890
5215,6890,6892,6484
5216,6190,6484,6485
5217,6485,6192,6190
5218,5875,6290,6289
5219,6289,5874,5875
5220,5873,5874,6289
5221,6289,6288,5873
5222,6693,6287,6288
5223,6288,6694,6693
5224,6882,6884,6480
5225,6480,6677,6882
5226,6182,6480,6481
5227,6481,6184,6182
5228,7096,6694,6695
5229,6695,7097,7096
5230,6890,6888,7097
5231,7097,7098,6890
5232,6695,6694,6288
5233,6288,6289,6695
5234,6184,6481,6482
5235,6482,6186,6184
5236,6888,6890,6483
5237,6483,6482,6888
5238,5604,5606,5255
5239,5255,5254,5604
5240,6192,6194,5604
5241,5604,5602,6192
5242,5598,5600,5252
5243,5252,5251,5598
5244,6192,5602,5600
5245,5600,6190,6192
5246,5278,5654,5459
5247,5459,5279,5278
5248,6240,6242,5654
5249,5654,5652,6240
5250,5275,5648,5650
5251,5650,5276,5275
5252,5652,5650,6238
5253,6238,6240,5652
5254,5899,6314,6313
5255,6313,5898,5899
5256,5897,5898,6313
5257,6313,6312,5897
5258,6311,6312,6718
5259,6718,6717,6311
5260,6930,6932,6504
5261,6504,6503,6930
5262,6230,6504,6505
5263,6505,6232,6230
5264,6719,7121,7120
5265,7120,6718,6719
5266,6939,6937,7121
5267,7121,7122,6939
5268,6313,6719,6718
5269,6718,6312,6313
5270,6232,6505,6506
5271,6506,6234,6232
5272,6937,6939,6507
5273,6507,6506,6937
5274,5640,5642,5272
5275,5272,5271,5640
5276,6230,6232,5644
5277,5644,5642,6230
5278,5646,5648,5275
5279,5275,5274,5646
5280,5646,5644,6232
5281,6232,6234,5646
5282,5899,5900,6315
5283,6315,6314,5899
5284,5901,6316,6315
5285,6315,5900,5901
5286,6317,6723,6722
5287,6722,6316,6317
5288,6945,6947,6511
5289,6511,6510,6945
5290,6240,6509,6510
5291,6510,6242,6240
5292,6722,7124,7123
5293,7123,6721,6722
5294,6941,6939,7122
5295,7122,7123,6941
5296,6315,6316,6722
5297,6722,6721,6315
5298,6238,6508,6509
5299,6509,6240,6238
5300,6939,6941,6508
5301,6508,6507,6939
5302,5280,5279,5459
5303,5459,5460,5280
5304,6246,6248,5461
5305,5461,5460,6246
5306,6248,6250,5462
5307,5462,5461,6248
5308,5282,5462,5463
5309,5463,5283,5282
5310,5907,5908,6323
5311,6323,6322,5907
5312,5909,6324,6323
5313,6323,5908,5909
5314,7132,7131,6729
5315,6729,6730,7132
5316,6957,6955,7130
5317,7130,7131,6957
5318,6731,6730,6324
5319,6324,6325,6731
5320,6961,6963,6519
5321,6519,6518,6961
5322,6256,6517,6518
5323,6518,6258,6256
5324,6729,6323,6324
5325,6324,6730,6729
5326,6955,6957,6516
5327,6516,6515,6955
5328,6254,6516,6517
5329,6517,6256,6254
5330,5907,6322,6321
5331,6321,5906,5907
5332,5905,5906,6321
5333,6321,6320,5905
5334,6725,6319,6320
5335,6320,6726,6725
5336,6947,6949,6512
5337,6512,6511,6947
5338,6246,6512,6513
5339,6513,6248,6246
5340,6726,6727,7129
5341,7129,7128,6726
5342,6955,6953,7129
5343,7129,7130,6955
5344,6727,6726,6320
5345,6320,6321,6727
5346,6513,6514,6250
5347,6250,6248,6513
5348,6953,6955,6515
5349,6515,6514,6953
5350,5467,5287,5286
5351,5286,5466,5467
5352,6256,6258,5466
5353,5466,5465,6256
5354,5463,5464,5284
5355,5284,5283,5463
5356,6254,6256,5465
5357,5465,5464,6254
5358,5310,5490,5491
5359,5491,5311,5310
5360,6096,5490,5489
5361,5489,6095,6096
5362,5487,5488,5308
5363,5308,5307,5487
5364,6094,6095,5489
5365,5489,5488,6094
5366,5931,6346,6345
5367,6345,5930,5931
5368,5929,5930,6345
5369,6345,6344,5929
5370,6343,6344,6750
5371,6750,6749,6343
5372,6995,6997,6536
5373,6536,6535,6995
5374,6090,6536,6537
5375,6537,6091,6090
5376,6751,7153,7152
5377,7152,6750,6751
5378,7003,7001,7153
5379,7153,7154,7003
5380,6345,6751,6750
5381,6750,6344,6345
5382,6092,6091,6537
5383,6537,6538,6092
5384,7001,7003,6539
5385,6539,6538,7001
5386,5483,5484,5304
5387,5304,5303,5483
5388,5485,5484,6090
5389,6090,6091,5485
5390,5306,5486,5487
5391,5487,5307,5306
5392,6091,6092,5486
5393,5486,5485,6091
5394,5931,5932,6347
5395,6347,6346,5931
5396,5933,6348,6347
5397,6347,5932,5933
5398,6349,6755,6754
5399,6754,6348,6349
5400,7009,7011,6543
5401,6543,6542,7009
5402,6096,6095,6541
5403,6541,6542,6096
5404,6754,7156,7155
5405,7155,6753,6754
5406,7005,7003,7154
5407,7154,7155,7005
5408,6347,6348,6754
5409,6754,6753,6347
5410,6094,6540,6541
5411,6541,6095,6094
5412,7003,7005,6540
5413,6540,6539,7003
5414,5312,5311,5491
5415,5491,5492,5312
5416,6098,6099,5493
5417,5493,5492,6098
5418,6100,5494,5493
5419,5493,6099,6100
5420,5314,5494,5495
5421,5495,5315,5314
5422,6355,6354,5939
5423,5939,5940,6355
5424,5940,5941,6356
5425,6356,6355,5940
5426,6761,6762,7164
5427,7164,7163,6761
5428,7162,7163,7029
5429,7029,7028,7162
5430,6763,6762,6356
5431,6356,6357,6763
5432,6551,6550,7031
5433,7031,7032,6551
5434,6104,6103,6549
5435,6549,6550,6104
5436,6761,6355,6356
5437,6356,6762,6761
5438,7029,6548,6547
5439,6547,7028,7029
5440,6102,6548,6549
5441,6549,6103,6102
5442,5938,5939,6354
5443,6354,6353,5938
5444,6353,6352,5937
5445,5937,5938,6353
5446,6757,6351,6352
5447,6352,6758,6757
5448,7011,7013,6544
5449,6544,6543,7011
5450,6544,6545,6099
5451,6099,6098,6544
5452,6759,7161,7160
5453,7160,6758,6759
5454,7027,7161,7162
5455,7162,7028,7027
5456,6759,6758,6352
5457,6352,6353,6759
5458,6100,6099,6545
5459,6545,6546,6100
5460,6547,6546,7027
5461,7027,7028,6547
5462,5499,5319,5318
5463,5318,5498,5499
5464,5498,5497,6103
5465,6103,6104,5498
5466,5495,5496,5316
5467,5316,5315,5495
5468,6102,6103,5497
5469,5497,5496,6102
5470,5342,5522,5523
5471,5523,5343,5342
5472,6128,5522,5521
5473,5521,6127,6128
5474,5519,5520,5340
5475,5340,5339,5519
5476,6126,6127,5521
5477,5521,5520,6126
5478,5963,6378,6377
5479,6377,5962,5963
5480,5961,5962,6377
5481,6377,6376,5961
5482,6375,6376,6782
5483,6782,6781,6375
5484,7048,7049,6568
5485,6568,6567,7048
5486,6122,6568,6569
5487,6569,6123,6122
5488,6783,7185,7184
5489,7184,6782,6783
5490,7186,7052,7051
5491,7051,7185,7186
5492,6377,6783,6782
5493,6782,6376,6377
5494,6124,6123,6569
5495,6569,6570,6124
5496,6571,6570,7051
5497,7051,7052,6571
5498,5335,5515,5516
5499,5516,5336,5335
5500,5517,5516,6122
5501,6122,6123,5517
5502,5338,5518,5519
5503,5519,5339,5338
5504,6124,5518,5517
5505,5517,6123,6124
5506,5963,5964,6379
5507,6379,6378,5963
5508,5965,6380,6379
5509,6379,5964,5965
5510,6381,6787,6786
5511,6786,6380,6381
5512,6575,6574,7055
5513,7055,7056,6575
5514,6573,6574,6128
5515,6128,6127,6573
5516,7187,6785,6786
5517,6786,7188,7187
5518,7053,7052,7186
5519,7186,7187,7053
5520,6379,6380,6786
5521,6786,6785,6379
5522,6126,6572,6573
5523,6573,6127,6126
5524,7053,6572,6571
5525,6571,7052,7053
5526,5344,5343,5523
5527,5523,5524,5344
5528,5524,6130,6131
5529,6131,5525,5524
5530,5526,5525,6131
5531,6131,6132,5526
5532,5346,5526,5527
5533,5527,5347,5346
5534,5971,5972,6387
5535,6387,6386,5971
5536,5973,6388,6387
5537,6387,5972,5973
5538,6793,6794,7196
5539,7196,7195,6793
5540,7194,7195,7061
5541,7061,7060,7194
5542,6795,6794,6388
5543,6388,6389,6795
5544,7063,7064,6583
5545,6583,6582,7063
5546,6136,6135,6581
5547,6581,6582,6136
5548,6793,6387,6388
5549,6388,6794,6793
5550,7061,6580,6579
5551,6579,7060,7061
5552,6134,6580,6581
5553,6581,6135,6134
5554,5971,6386,6385
5555,6385,5970,5971
5556,5969,5970,6385
5557,6385,6384,5969
5558,6789,6383,6384
5559,6384,6790,6789
5560,7057,6576,6575
5561,6575,7056,7057
5562,6576,6577,6131
5563,6131,6130,6576
5564,7193,7192,6790
5565,6790,6791,7193
5566,7059,7193,7194
5567,7194,7060,7059
5568,6385,6791,6790
5569,6790,6384,6385
5570,6577,6578,6132
5571,6132,6131,6577
5572,6578,7059,7060
5573,7060,6579,6578
5574,5531,5351,5350
5575,5350,5530,5531
5576,5529,6135,6136
5577,6136,5530,5529
5578,5348,5347,5527
5579,5527,5528,5348
5580,5528,6134,6135
5581,6135,5529,5528
5582,5555,5375,5374
5583,5374,5554,5555
5584,5553,6159,6160
5585,6160,5554,5553
5586,5551,5552,5372
5587,5372,5371,5551
5588,6159,5553,5552
5589,5552,6158,6159
5590,5995,6410,6409
5591,6409,5994,5995
5592,5993,5994,6409
5593,6409,6408,5993
5594,6407,6408,6814
5595,6814,6813,6407
5596,6994,6600,6599
5597,6599,6996,6994
5598,6154,6600,6601
5599,6601,6155,6154
5600,6815,7217,7216
5601,7216,6814,6815
5602,6990,7217,7218
5603,7218,6988,6990
5604,6409,6815,6814
5605,6814,6408,6409
5606,6156,6155,6601
5607,6601,6602,6156
5608,6988,6603,6602
5609,6602,6990,6988
5610,5547,5548,5368
5611,5368,5367,5547
5612,6155,5549,5548
5613,5548,6154,6155
5614,5370,5550,5551
5615,5551,5371,5370
5616,5549,6155,6156
5617,6156,5550,5549
5618,5995,5996,6411
5619,6411,6410,5995
5620,5997,6412,6411
5621,6411,5996,5997
5622,6413,6819,6818
5623,6818,6412,6413
5624,6980,6607,6606
5625,6606,6982,6980
5626,6605,6606,6160
5627,6160,6159,6605
5628,7220,7219,6817
5629,6817,6818,7220
5630,6988,7218,7219
5631,7219,6986,6988
5632,6411,6412,6818
5633,6818,6817,6411
5634,6159,6158,6604
5635,6604,6605,6159
5636,6986,6604,6603
5637,6603,6988,6986
5638,5376,5375,5555
5639,5555,5556,5376
5640,6162,6163,5557
5641,5557,5556,6162
5642,6164,5558,5557
5643,5557,6163,6164
5644,5378,5558,5559
5645,5559,5379,5378
5646,6003,6004,6419
5647,6419,6418,6003
5648,6005,6420,6419
5649,6419,6004,6005
5650,7228,7227,6825
5651,6825,6826,7228
5652,6972,7226,7227
5653,7227,6970,6972
5654,6420,6421,6827
5655,6827,6826,6420
5656,6964,6615,6614
5657,6614,6966,6964
5658,6263,6265,6613
5659,6613,6614,6263
5660,6826,6825,6419
5661,6419,6420,6826
5662,6970,6612,6611
5663,6611,6972,6970
5664,6613,6265,6267
5665,6267,6612,6613
5666,6003,6418,6417
5667,6417,6002,6003
5668,6001,6002,6417
5669,6417,6416,6001
5670,6821,6415,6416
5671,6416,6822,6821
5672,6978,6608,6607
5673,6607,6980,6978
5674,6609,6163,6162
5675,6162,6608,6609
5676,6822,6823,7225
5677,7225,7224,6822
5678,6974,7225,7226
5679,7226,6972,6974
5680,6823,6822,6416
5681,6416,6417,6823
5682,6163,6609,6610
5683,6610,6164,6163
5684,6972,6611,6610
5685,6610,6974,6972
5686,5563,5383,5382
5687,5382,5562,5563
5688,5562,5561,6265
5689,6265,6263,5562
5690,5559,5560,5380
5691,5380,5379,5559
5692,6265,5561,5560
5693,5560,6267,6265
5694,5623,5407,5406
5695,5406,5625,5623
5696,5627,6217,6215
5697,6215,5625,5627
5698,5629,5404,5403
5699,5403,5631,5629
5700,6217,5627,5629
5701,5629,6219,6217
5702,6027,6442,6441
5703,6441,6026,6027
5704,6025,6026,6441
5705,6441,6440,6025
5706,6439,6440,6846
5707,6846,6845,6439
5708,6929,6632,6631
5709,6631,6931,6929
5710,6225,6227,6632
5711,6632,6633,6225
5712,6847,7249,7248
5713,7248,6846,6847
5714,6925,7249,7250
5715,7250,6923,6925
5716,6441,6847,6846
5717,6846,6440,6441
5718,6223,6225,6633
5719,6633,6634,6223
5720,6923,6635,6634
5721,6634,6925,6923
5722,5638,5400,5399
5723,5399,5641,5638
5724,6225,5636,5638
5725,5638,6227,6225
5726,5631,5403,5402
5727,5402,5634,5631
5728,5636,6225,6223
5729,6223,5634,5636
5730,6027,6028,6443
5731,6443,6442,6027
5732,6029,6444,6443
5733,6443,6028,6029
5734,6445,6851,6850
5735,6850,6444,6445
5736,6915,6639,6638
5737,6638,6917,6915
5738,6215,6217,6637
5739,6637,6638,6215
5740,7252,7251,6849
5741,6849,6850,7252
5742,6923,7250,7251
5743,7251,6921,6923
5744,6443,6444,6850
5745,6850,6849,6443
5746,6217,6219,6636
5747,6636,6637,6217
5748,6921,6636,6635
5749,6635,6923,6921
5750,5621,5408,5407
5751,5407,5623,5621
5752,5621,6211,6209
5753,6209,5619,5621
5754,6207,5617,5619
5755,5619,6209,6207
5756,5615,5411,5410
5757,5410,5617,5615
5758,6035,6036,6451
5759,6451,6450,6035
5760,6037,6452,6451
5761,6451,6036,6037
5762,6858,7260,7259
5763,7259,6857,6858
5764,6907,7258,7259
5765,7259,6905,6907
5766,6859,6858,6452
5767,6452,6453,6859
5768,6899,6647,6646
5769,6646,6901,6899
5770,6199,6201,6645
5771,6645,6646,6199
5772,6857,6451,6452
5773,6452,6858,6857
5774,6905,6644,6643
5775,6643,6907,6905
5776,6201,6203,6644
5777,6644,6645,6201
5778,6035,6450,6449
5779,6449,6034,6035
5780,6448,6033,6034
5781,6034,6449,6448
5782,6853,6447,6448
5783,6448,6854,6853
5784,6913,6640,6639
5785,6639,6915,6913
5786,6209,6211,6640
5787,6640,6641,6209
5788,6854,6855,7257
5789,7257,7256,6854
5790,6909,7257,7258
5791,7258,6907,6909
5792,6855,6854,6448
5793,6448,6449,6855
5794,6207,6209,6641
5795,6641,6642,6207
5796,6907,6643,6642
5797,6642,6909,6907
5798,5607,5415,5414
5799,5414,5609,5607
5800,5611,6201,6199
5801,6199,5609,5611
5802,5613,5412,5411
5803,5411,5615,5613
5804,6201,5611,5613
5805,5613,6203,6201
5806,5622,5624,5264
5807,5264,5263,5622
5808,5626,5624,6214
5809,6214,6216,5626
5810,5628,5630,5267
5811,5267,5266,5628
5812,6216,6218,5628
5813,5628,5626,6216
5814,5891,5892,6307
5815,6307,6306,5891
5816,5893,6308,6307
5817,6307,5892,5893
5818,6308,6309,6715
5819,6715,6714,6308
5820,6928,6930,6503
5821,6503,6502,6928
5822,6224,6501,6502
5823,6502,6226,6224
5824,7116,7115,6713
5825,6713,6714,7116
5826,6924,6922,7114
5827,7114,7115,6924
5828,6307,6308,6714
5829,6714,6713,6307
5830,6222,6500,6501
5831,6501,6224,6222
5832,6922,6924,6500
5833,6500,6499,6922
5834,5637,5640,5271
5835,5271,5270,5637
5836,6224,6226,5637
5837,5637,5635,6224
5838,5630,5633,5268
5839,5268,5267,5630
5840,5635,5633,6222
5841,6222,6224,5635
5842,5891,6306,6305
5843,6305,5890,5891
5844,5889,5890,6305
5845,6305,6304,5889
5846,6303,6304,6710
5847,6710,6709,6303
5848,6914,6916,6496
5849,6496,6495,6914
5850,6214,6496,6497
5851,6497,6216,6214
5852,7112,6710,6711
5853,6711,7113,7112
5854,6922,6920,7113
5855,7113,7114,6922
5856,6305,6711,6710
5857,6710,6304,6305
5858,6216,6497,6498
5859,6498,6218,6216
5860,6920,6922,6499
5861,6499,6498,6920
5862,5620,5622,5263
5863,5263,5262,5620
5864,5620,5618,6208
5865,6208,6210,5620
5866,5614,5616,5260
5867,5260,5259,5614
5868,6206,6208,5618
5869,5618,5616,6206
5870,5883,6298,6297
5871,6297,5882,5883
5872,5881,5882,6297
5873,6297,6296,5881
5874,6701,6295,6296
5875,6296,6702,6701
5876,6898,6900,6488
5877,6488,6487,6898
5878,6198,6488,6489
5879,6489,6200,6198
5880,7104,6702,6703
5881,6703,7105,7104
5882,6906,6904,7105
5883,7105,7106,6906
5884,6703,6702,6296
5885,6296,6297,6703
5886,6200,6489,6490
5887,6490,6202,6200
5888,6904,6906,6491
5889,6491,6490,6904
5890,5606,5608,5256
5891,5256,5255,5606
5892,5610,5608,6198
5893,6198,6200,5610
5894,5612,5614,5259
5895,5259,5258,5612
5896,6200,6202,5612
5897,5612,5610,6200
5898,5883,5884,6299
5899,6299,6298,5883
5900,6300,6299,5884
5901,5884,5885,6300
5902,6707,6706,6300
5903,6300,6301,6707
5904,6912,6914,6495
5905,6495,6494,6912
5906,6208,6493,6494
5907,6494,6210,6208
5908,7108,7107,6705
5909,6705,6706,7108
5910,6908,6906,7106
5911,7106,7107,6908
5912,6706,6705,6299
5913,6299,6300,6706
5914,6206,6492,6493
5915,6493,6208,6206
5916,6906,6908,6492
5917,6492,6491,6906
5918,5475,5476,5296
5919,5296,5295,5475
5920,6082,6083,5477
5921,5477,5476,6082
5922,5479,5299,5298
5923,5298,5478,5479
5924,6084,5478,5477
5925,5477,6083,6084
5926,5923,5924,6339
5927,6339,6338,5923
5928,5925,6340,6339
5929,6339,5924,5925
5930,6340,6341,6747
5931,6747,6746,6340
5932,6993,6995,6535
5933,6535,6534,6993
5934,6533,6534,6088
5935,6088,6087,6533
5936,6746,7148,7147
5937,7147,6745,6746
5938,6989,6987,7146
5939,7146,7147,6989
5940,6746,6745,6339
5941,6339,6340,6746
5942,6087,6086,6532
5943,6532,6533,6087
5944,6987,6989,6532
5945,6532,6531,6987
5946,5302,5482,5483
5947,5483,5303,5302
5948,5481,6087,6088
5949,6088,5482,5481
5950,5479,5480,5300
5951,5300,5299,5479
5952,5481,5480,6086
5953,6086,6087,5481
5954,5923,6338,6337
5955,6337,5922,5923
5956,5921,5922,6337
5957,6337,6336,5921
5958,6335,6336,6742
5959,6742,6741,6335
5960,6979,6981,6528
5961,6528,6527,6979
5962,6529,6083,6082
5963,6082,6528,6529
5964,6743,7145,7144
5965,7144,6742,6743
5966,6987,6985,7145
5967,7145,7146,6987
5968,6337,6743,6742
5969,6742,6336,6337
5970,6529,6530,6084
5971,6084,6083,6529
5972,6985,6987,6531
5973,6531,6530,6985
5974,5294,5474,5475
5975,5475,5295,5294
5976,6079,6080,5474
5977,5474,5473,6079
5978,5471,5472,5292
5979,5292,5291,5471
5980,5473,5472,6078
5981,6078,6079,5473
5982,5915,6330,6329
5983,6329,5914,5915
5984,5913,5914,6329
5985,6329,6328,5913
5986,6733,6327,6328
5987,6328,6734,6733
5988,6963,6965,6520
5989,6520,6519,6963
5990,6262,6520,6521
5991,6521,6264,6262
5992,7136,6734,6735
5993,6735,7137,7136
5994,6971,6969,7137
5995,7137,7138,6971
5996,6735,6734,6328
5997,6328,6329,6735
5998,6521,6522,6266
5999,6266,6264,6521
6000,6969,6971,6523
6001,6523,6522,6969
6002,5288,5287,5467
6003,5467,5468,5288
6004,5468,6262,6264
6005,6264,5469,5468
6006,5471,5291,5290
6007,5290,5470,5471
6008,6264,6266,5470
6009,5470,5469,6264
6010,5915,5916,6331
6011,6331,6330,5915
6012,5917,6332,6331
6013,6331,5916,5917
6014,6332,6333,6739
6015,6739,6738,6332
6016,6977,6979,6527
6017,6527,6526,6977
6018,6079,6525,6526
6019,6526,6080,6079
6020,7140,7139,6737
6021,6737,6738,7140
6022,6973,6971,7138
6023,7138,7139,6973
6024,6738,6737,6331
6025,6331,6332,6738
6026,6525,6079,6078
6027,6078,6524,6525
6028,6971,6973,6524
6029,6524,6523,6971
6030,5507,5508,5328
6031,5328,5327,5507
6032,6114,6115,5509
6033,5509,5508,6114
6034,5330,5510,5511
6035,5511,5331,5330
6036,6116,5510,5509
6037,5509,6115,6116
6038,5956,6371,6370
6039,6370,5955,5956
6040,6371,5956,5957
6041,5957,6372,6371
6042,6372,6373,6779
6043,6779,6778,6372
6044,6567,6566,7047
6045,7047,7048,6567
6046,6120,6119,6565
6047,6565,6566,6120
6048,6777,6778,7180
6049,7180,7179,6777
6050,7179,7045,7044
6051,7044,7178,7179
6052,6371,6372,6778
6053,6778,6777,6371
6054,6118,6564,6565
6055,6565,6119,6118
6056,6563,7044,7045
6057,7045,6564,6563
6058,5515,5335,5334
6059,5334,5514,5515
6060,5513,6119,6120
6061,6120,5514,5513
6062,5511,5512,5332
6063,5332,5331,5511
6064,5513,5512,6118
6065,6118,6119,5513
6066,5955,6370,6369
6067,6369,5954,5955
6068,5953,5954,6369
6069,6369,6368,5953
6070,6773,6367,6368
6071,6368,6774,6773
6072,6559,7040,7041
6073,7041,6560,6559
6074,6561,6115,6114
6075,6114,6560,6561
6076,6775,7177,7176
6077,7176,6774,6775
6078,7043,7177,7178
6079,7178,7044,7043
6080,6775,6774,6368
6081,6368,6369,6775
6082,6116,6115,6561
6083,6561,6562,6116
6084,6562,7043,7044
6085,7044,6563,6562
6086,5506,5507,5327
6087,5327,5326,5506
6088,6112,5506,5505
6089,5505,6111,6112
6090,5503,5504,5324
6091,5324,5323,5503
6092,5505,5504,6110
6093,6110,6111,5505
6094,5946,5947,6362
6095,6362,6361,5946
6096,6361,6360,5945
6097,5945,5946,6361
6098,6765,6359,6360
6099,6360,6766,6765
6100,7033,6552,6551
6101,6551,7032,7033
6102,6106,6552,6553
6103,6553,6107,6106
6104,7169,7168,6766
6105,6766,6767,7169
6106,7170,7036,7035
6107,7035,7169,7170
6108,6361,6767,6766
6109,6766,6360,6361
6110,6553,6554,6108
6111,6108,6107,6553
6112,6554,7035,7036
6113,7036,6555,6554
6114,5500,5320,5319
6115,5319,5499,5500
6116,6106,6107,5501
6117,5501,5500,6106
6118,5322,5502,5503
6119,5503,5323,5322
6120,5502,5501,6107
6121,6107,6108,5502
6122,6363,6362,5947
6123,5947,5948,6363
6124,5948,5949,6364
6125,6364,6363,5948
6126,6771,6770,6364
6127,6364,6365,6771
6128,6558,7039,7040
6129,7040,6559,6558
6130,6112,6111,6557
6131,6557,6558,6112
6132,7171,6769,6770
6133,6770,7172,7171
6134,7037,7036,7170
6135,7170,7171,7037
6136,6770,6769,6363
6137,6363,6364,6770
6138,6556,6557,6111
6139,6111,6110,6556
6140,7037,6556,6555
6141,6555,7036,7037
6142,5539,5540,5360
6143,5360,5359,5539
6144,6147,5541,5540
6145,5540,6146,6147
6146,5543,5363,5362
6147,5362,5542,5543
6148,5541,6147,6148
6149,6148,5542,5541
6150,5987,5988,6403
6151,6403,6402,5987
6152,5989,6404,6403
6153,6403,5988,5989
6154,6404,6405,6811
6155,6811,6810,6404
6156,6996,6599,6598
6157,6598,6998,6996
6158,6597,6598,6152
6159,6152,6151,6597
6160,7212,7211,6809
6161,6809,6810,7212
6162,7004,7210,7211
6163,7211,7002,7004
6164,6810,6809,6403
6165,6403,6404,6810
6166,6151,6150,6596
6167,6596,6597,6151
6168,7002,6596,6595
6169,6595,7004,7002
6170,5366,5546,5547
6171,5547,5367,5366
6172,5545,6151,6152
6173,6152,5546,5545
6174,5543,5544,5364
6175,5364,5363,5543
6176,5545,5544,6150
6177,6150,6151,5545
6178,5987,6402,6401
6179,6401,5986,5987
6180,6400,5985,5986
6181,5986,6401,6400
6182,6806,6805,6399
6183,6399,6400,6806
6184,7010,6592,6591
6185,6591,7012,7010
6186,6592,6593,6147
6187,6147,6146,6592
6188,6807,7209,7208
6189,7208,6806,6807
6190,7006,7209,7210
6191,7210,7004,7006
6192,6400,6401,6807
6193,6807,6806,6400
6194,6593,6594,6148
6195,6148,6147,6593
6196,7004,6595,6594
6197,6594,7006,7004
6198,5358,5538,5539
6199,5539,5359,5358
6200,6144,5538,5537
6201,5537,6143,6144
6202,5535,5536,5356
6203,5356,5355,5535
6204,5537,5536,6142
6205,6142,6143,5537
6206,6393,5978,5979
6207,5979,6394,6393
6208,5978,6393,6392
6209,6392,5977,5978
6210,6797,6391,6392
6211,6392,6798,6797
6212,7065,6584,6583
6213,6583,7064,7065
6214,6138,6584,6585
6215,6585,6139,6138
6216,6799,7201,7200
6217,7200,6798,6799
6218,7201,7202,7068
6219,7068,7067,7201
6220,6799,6798,6392
6221,6392,6393,6799
6222,6140,6139,6585
6223,6585,6586,6140
6224,6586,7067,7068
6225,7068,6587,6586
6226,5352,5351,5531
6227,5531,5532,5352
6228,5532,6138,6139
6229,6139,5533,5532
6230,5534,5535,5355
6231,5355,5354,5534
6232,6140,5534,5533
6233,5533,6139,6140
6234,5979,5980,6395
6235,6395,6394,5979
6236,5981,6396,6395
6237,6395,5980,5981
6238,6397,6803,6802
6239,6802,6396,6397
6240,7012,6591,6590
6241,6590,7014,7012
6242,6589,6590,6144
6243,6144,6143,6589
6244,7204,7203,6801
6245,6801,6802,7204
6246,7069,7068,7202
6247,7202,7203,7069
6248,6802,6801,6395
6249,6395,6396,6802
6250,6588,6589,6143
6251,6143,6142,6588
6252,7069,6588,6587
6253,6587,7068,7069
6254,5392,5391,5571
6255,5571,5655,5392
6256,6241,5653,5655
6257,5655,6243,6241
6258,5395,5394,5651
6259,5651,5649,5395
6260,5653,6241,6239
6261,6239,5651,5653
6262,6019,6020,6435
6263,6435,6434,6019
6264,6021,6436,6435
6265,6435,6020,6021
6266,6842,6436,6437
6267,6437,6843,6842
6268,6931,6631,6630
6269,6630,6933,6931
6270,6231,6233,6629
6271,6629,6630,6231
6272,7244,7243,6841
6273,6841,6842,7244
6274,6940,7242,7243
6275,7243,6938,6940
6276,6436,6842,6841
6277,6841,6435,6436
6278,6233,6235,6628
6279,6628,6629,6233
6280,6938,6628,6627
6281,6627,6940,6938
6282,5641,5399,5398
6283,5398,5643,5641
6284,6231,5643,5645
6285,5645,6233,6231
6286,5647,5396,5395
6287,5395,5649,5647
6288,5647,6235,6233
6289,6233,5645,5647
6290,6019,6434,6433
6291,6433,6018,6019
6292,6017,6018,6433
6293,6433,6432,6017
6294,6431,6432,6838
6295,6838,6837,6431
6296,6946,6624,6623
6297,6623,6948,6946
6298,6241,6243,6624
6299,6624,6625,6241
6300,6839,7241,7240
6301,7240,6838,6839
6302,6942,7241,7242
6303,7242,6940,6942
6304,6433,6839,6838
6305,6838,6432,6433
6306,6239,6241,6625
6307,6625,6626,6239
6308,6940,6627,6626
6309,6626,6942,6940
6310,5390,5570,5571
6311,5571,5391,5390
6312,6247,5570,5569
6313,5569,6249,6247
6314,5567,5568,5388
6315,5388,5387,5567
6316,6249,5569,5568
6317,5568,6251,6249
6318,6011,6426,6425
6319,6425,6010,6011
6320,6424,6009,6010
6321,6010,6425,6424
6322,6830,6829,6423
6323,6423,6424,6830
6324,6962,6616,6615
6325,6615,6964,6962
6326,6257,6259,6616
6327,6616,6617,6257
6328,7232,6830,6831
6329,6831,7233,7232
6330,6958,7233,7234
6331,7234,6956,6958
6332,6424,6425,6831
6333,6831,6830,6424
6334,6255,6257,6617
6335,6617,6618,6255
6336,6956,6619,6618
6337,6618,6958,6956
6338,5384,5383,5563
6339,5563,5564,5384
6340,6257,5565,5564
6341,5564,6259,6257
6342,5567,5387,5386
6343,5386,5566,5567
6344,6255,5566,5565
6345,5565,6257,6255
6346,6011,6012,6427
6347,6427,6426,6011
6348,6013,6428,6427
6349,6427,6012,6013
6350,6835,6834,6428
6351,6428,6429,6835
6352,6948,6623,6622
6353,6622,6950,6948
6354,6247,6249,6621
6355,6621,6622,6247
6356,7236,7235,6833
6357,6833,6834,7236
6358,6956,7234,7235
6359,7235,6954,6956
6360,6834,6833,6427
6361,6427,6428,6834
6362,6621,6249,6251
6363,6251,6620,6621
6364,6954,6620,6619
6365,6619,6956,6954
6366,5441,5423,5591
6367,5591,5588,5441
6368,5586,5588,6179
6369,6179,6177,5586
6370,5435,5584,5580
6371,5580,5433,5435
6372,6177,6174,5584
6373,5584,5586,6177
6374,6051,6052,6467
6375,6467,6466,6051
6376,6468,6467,6052
6377,6052,6053,6468
6378,6874,6468,6469
6379,6469,6875,6874
6380,6664,7076,7077
6381,7077,6662,6664
6382,6666,6664,6167
6383,6167,6168,6666
6384,7276,7275,6873
6385,6873,6874,7276
6386,7274,7275,7074
6387,7074,7073,7274
6388,6468,6874,6873
6389,6873,6467,6468
6390,6668,6666,6168
6391,6168,6170,6668
6392,6670,7073,7074
6393,7074,6668,6670
6394,6051,6466,6465
6395,6465,6050,6051
6396,6049,6050,6465
6397,6465,6464,6049
6398,6463,6464,6870
6399,6870,6869,6463
6400,6883,7070,6676
6401,6676,6678,6883
6402,6676,6674,6177
6403,6177,6179,6676
6404,6871,7273,7272
6405,7272,6870,6871
6406,7072,7273,7274
6407,7274,7073,7072
6408,6465,6871,6870
6409,6870,6464,6465
6410,6674,6672,6174
6411,6174,6177,6674
6412,6672,7072,7073
6413,7073,6670,6672
6414,5591,5423,5422
6415,5422,5593,5591
6416,5593,5595,6185
6417,6185,6183,5593
6418,5597,5420,5419
6419,5419,5599,5597
6420,6187,6185,5595
6421,5595,5597,6187
6422,6043,6458,6457
6423,6457,6042,6043
6424,6041,6042,6457
6425,6457,6456,6041
6426,6862,6861,6455
6427,6455,6456,6862
6428,6897,6648,6647
6429,6647,6899,6897
6430,6193,6195,6648
6431,6648,6649,6193
6432,7264,6862,6863
6433,6863,7265,7264
6434,6893,7265,7266
6435,7266,6891,6893
6436,6456,6457,6863
6437,6863,6862,6456
6438,6191,6193,6649
6439,6649,6650,6191
6440,6650,6893,6891
6441,6891,6651,6650
6442,5605,5416,5415
6443,5415,5607,5605
6444,6193,5603,5605
6445,5605,6195,6193
6446,5599,5419,5418
6447,5418,5601,5599
6448,6193,6191,5601
6449,5601,5603,6193
6450,6043,6044,6459
6451,6459,6458,6043
6452,6045,6460,6459
6453,6459,6044,6045
6454,6866,6460,6461
6455,6461,6867,6866
6456,6883,6678,6654
6457,6654,6885,6883
6458,6183,6185,6653
6459,6653,6654,6183
6460,7268,7267,6865
6461,6865,6866,7268
6462,6891,7266,7267
6463,7267,6889,6891
6464,6460,6866,6865
6465,6865,6459,6460
6466,6185,6187,6652
6467,6652,6653,6185
6468,6889,6652,6651
6469,6651,6891,6889
6470,7082,7077,7278
6471,7278,7279,7082
6472,7280,7279,6877
6473,6877,6878,7280
6474,7018,7085,7086
6475,7086,7019,7018
6476,6682,6683,7085
6477,7085,7084,6682
6478,7077,7082,6660
6479,6660,6662,7077
6480,6471,6472,6878
6481,6878,6877,6471
6482,6660,6658,6071
6483,6071,6073,6660
6484,6274,6473,6058
6485,6058,5860,6274
6486,6057,6058,6473
6487,6473,6472,6057
6488,6879,7281,7280
6489,7280,6878,6879
6490,7079,6880,7281
6491,7281,7283,7079
6492,6472,6473,6879
6493,6879,6878,6472
6494,6658,6656,6070
6495,6070,6071,6658
6496,6880,7079,6479
6497,6479,6656,6880
6498,6271,6274,5860
6499,5860,6060,6271
6500,6269,6271,6060
6501,6060,6062,6269
6502,7283,7284,7081
6503,7081,7079,7283
6504,6271,6269,6273
6505,6273,6477,6271
6506,7081,6477,6479
6507,6479,7079,7081
6508,6273,6066,6065
6509,6065,6477,6273
6510,6661,6659,7018
6511,7018,7019,6661
6512,6682,6276,6277
6513,6277,6683,6682
6514,6659,6074,6072
6515,6072,6657,6659
6516,6275,6059,5859
6517,5859,6474,6275
6518,6276,6474,5859
6519,5859,5861,6276
6520,7084,7083,6681
6521,6681,6682,7084
6522,7078,6934,7282
6523,7282,7083,7078
6524,6276,6682,6681
6525,6681,6474,6276
6526,6657,6072,6069
6527,6069,6655,6657
6528,6934,7078,6655
6529,6655,6478,6934
6530,5575,5576,5428
6531,5428,5427,5575
6532,6072,6074,5575
6533,5575,5574,6072
6534,6069,6072,5574
6535,5574,5573,6069
6536,5425,5424,5572
6537,5572,5573,5425
6538,5424,5246,5458
6539,5458,5572,5424
6540,6064,6268,5458
6541,5458,5657,6064
6542,6272,6061,6059
6543,6059,6275,6272
6544,6270,6063,6061
6545,6061,6272,6270
6546,7282,6934,7080
6547,7080,7285,7282
6548,6475,6270,6272
6549,6272,6476,6475
6550,6934,6478,6476
6551,6476,7080,6934
6552,6268,6064,6475
6553,6475,6476,6268
6554,4629,4512,4843
6555,4843,4940,4629
6556,5247,4844,4940
6557,4940,5440,5247
6558,4626,4937,4841
6559,4841,4510,4626
6560,4937,4840,5428
6561,5428,5429,4937
6562,4941,4844,5247
6563,5247,5248,4941
6564,4632,4941,4845
6565,4845,4515,4632
6566,4542,4519,4847
6567,4847,4944,4542
6568,4944,5254,5255
6569,5255,4848,4944
6570,4554,4444,4859
6571,4859,4956,4554
6572,4956,5278,5279
6573,5279,4860,4956
6574,4551,4953,4857
6575,4857,4442,4551
6576,4953,4856,5271
6577,5271,5272,4953
6578,4957,4860,5279
6579,5279,5280,4957
6580,4555,4957,4861
6581,4861,4446,4555
6582,4558,4448,4863
6583,4863,4960,4558
6584,4960,5286,5287
6585,5287,4864,4960
6586,4570,4460,4875
6587,4875,4972,4570
6588,4972,5310,5311
6589,5311,4876,4972
6590,4567,4969,4873
6591,4873,4458,4567
6592,4969,4872,5303
6593,5303,5304,4969
6594,4973,4876,5311
6595,5311,5312,4973
6596,4571,4973,4877
6597,4877,4462,4571
6598,4574,4464,4879
6599,4879,4976,4574
6600,4976,5318,5319
6601,5319,4880,4976
6602,4586,4476,4891
6603,4891,4988,4586
6604,4988,5342,5343
6605,5343,4892,4988
6606,4583,4985,4889
6607,4889,4474,4583
6608,4985,4888,5335
6609,5335,5336,4985
6610,4989,4892,5343
6611,5343,5344,4989
6612,4587,4989,4893
6613,4893,4478,4587
6614,4590,4480,4895
6615,4895,4992,4590
6616,4992,5350,5351
6617,5351,4896,4992
6618,4602,4492,4907
6619,4907,5004,4602
6620,5004,5374,5375
6621,5375,4908,5004
6622,4599,5001,4905
6623,4905,4490,4599
6624,5001,4904,5367
6625,5367,5368,5001
6626,5005,4908,5375
6627,5375,5376,5005
6628,4603,5005,4909
6629,4909,4494,4603
6630,4606,4496,4911
6631,4911,5008,4606
6632,5008,5382,5383
6633,5383,4912,5008
6634,4618,4533,4923
6635,4923,5020,4618
6636,5020,5406,5407
6637,5407,4924,5020
6638,4615,5017,4921
6639,4921,4506,4615
6640,5017,4920,5399
6641,5399,5400,5017
6642,5021,4924,5407
6643,5407,5408,5021
6644,4619,5021,4925
6645,4925,4529,4619
6646,4622,4525,4927
6647,4927,5024,4622
6648,5024,5414,5415
6649,5415,4928,5024
6650,4547,4949,4853
6651,4853,4532,4547
6652,4949,4852,5263
6653,5263,5264,4949
6654,4550,4440,4855
6655,4855,4952,4550
6656,4952,5270,5271
6657,5271,4856,4952
6658,4546,4528,4851
6659,4851,4948,4546
6660,4948,5262,5263
6661,5263,4852,4948
6662,4543,4945,4849
6663,4849,4524,4543
6664,4945,4848,5255
6665,5255,5256,4945
6666,4563,4965,4869
6667,4869,4454,4563
6668,4965,4868,5295
6669,5295,5296,4965
6670,4566,4456,4871
6671,4871,4968,4566
6672,4968,5302,5303
6673,5303,4872,4968
6674,4562,4452,4867
6675,4867,4964,4562
6676,4964,5294,5295
6677,5295,4868,4964
6678,4559,4961,4865
6679,4865,4450,4559
6680,4961,4864,5287
6681,5287,5288,4961
6682,4579,4981,4885
6683,4885,4470,4579
6684,4981,4884,5327
6685,5327,5328,4981
6686,4582,4472,4887
6687,4887,4984,4582
6688,4984,5334,5335
6689,5335,4888,4984
6690,4578,4468,4883
6691,4883,4980,4578
6692,4980,5326,5327
6693,5327,4884,4980
6694,4575,4977,4881
6695,4881,4466,4575
6696,4977,4880,5319
6697,5319,5320,4977
6698,4595,4997,4901
6699,4901,4486,4595
6700,4997,4900,5359
6701,5359,5360,4997
6702,4598,4488,4903
6703,4903,5000,4598
6704,5000,5366,5367
6705,5367,4904,5000
6706,4594,4484,4899
6707,4899,4996,4594
6708,4996,5358,5359
6709,5359,4900,4996
6710,4591,4993,4897
6711,4897,4482,4591
6712,4993,4896,5351
6713,5351,5352,4993
6714,4611,5013,4917
6715,4917,4502,4611
6716,5013,4916,5391
6717,5391,5392,5013
6718,4614,4504,4919
6719,4919,5016,4614
6720,5016,5398,5399
6721,5399,4920,5016
6722,4610,4500,4915
6723,4915,5012,4610
6724,5012,5390,5391
6725,5391,4916,5012
6726,4607,5009,4913
6727,4913,4498,4607
6728,5009,4912,5383
6729,5383,5384,5009
6730,4630,5029,4933
6731,4933,4438,4630
6732,5423,5441,5029
6733,5029,4932,5423
6734,4633,4516,4931
6735,4931,5028,4633
6736,5028,5422,5423
6737,5423,4932,5028
6738,4623,5025,4929
6739,4929,4520,4623
6740,5025,4928,5415
6741,5415,5416,5025
6742,4936,5427,5428
6743,5428,4840,4936
6744,4625,4508,4839
6745,4839,4936,4625
6746,4628,4939,4843
6747,4843,4512,4628
6748,5434,5436,4939
6749,4939,4842,5434
6750,5050,5051,5665
6751,5665,5664,5050
6752,5051,5052,5666
6753,5666,5665,5051
6754,4627,4510,4841
6755,4841,4938,4627
6756,5432,5434,4842
6757,4842,4938,5432
6758,5049,5050,5664
6759,5664,5663,5049
6760,4634,4515,4845
6761,4845,4942,4634
6762,4942,5250,5251
6763,5251,4846,4942
6764,5057,5058,5672
6765,5672,5671,5057
6766,5056,5057,5671
6767,5671,5670,5056
6768,5676,5675,5061
6769,5061,5062,5676
6770,4636,4943,4847
6771,4847,4519,4636
6772,4943,4846,5251
6773,5251,5252,4943
6774,5062,5063,5677
6775,5677,5676,5062
6776,5063,5064,5678
6777,5678,5677,5063
6778,4553,4955,4859
6779,4859,4444,4553
6780,4955,4858,5275
6781,5275,5276,4955
6782,5082,5083,5697
6783,5697,5696,5082
6784,5083,5084,5698
6785,5698,5697,5083
6786,4552,4442,4857
6787,4857,4954,4552
6788,4954,5274,5275
6789,5275,4858,4954
6790,5081,5082,5696
6791,5696,5695,5081
6792,4556,4446,4861
6793,4861,4958,4556
6794,4958,5282,5283
6795,5283,4862,4958
6796,5089,5090,5704
6797,5704,5703,5089
6798,5088,5089,5703
6799,5703,5702,5088
6800,5708,5707,5093
6801,5093,5094,5708
6802,4557,4959,4863
6803,4863,4448,4557
6804,4959,4862,5283
6805,5283,5284,4959
6806,5094,5095,5709
6807,5709,5708,5094
6808,5095,5096,5710
6809,5710,5709,5095
6810,4569,4971,4875
6811,4875,4460,4569
6812,4971,4874,5307
6813,5307,5308,4971
6814,5114,5115,5729
6815,5729,5728,5114
6816,5115,5116,5730
6817,5730,5729,5115
6818,4568,4458,4873
6819,4873,4970,4568
6820,4970,5306,5307
6821,5307,4874,4970
6822,5728,5727,5113
6823,5113,5114,5728
6824,4572,4462,4877
6825,4877,4974,4572
6826,4974,5314,5315
6827,5315,4878,4974
6828,5121,5122,5736
6829,5736,5735,5121
6830,5120,5121,5735
6831,5735,5734,5120
6832,5739,5125,5126
6833,5126,5740,5739
6834,4573,4975,4879
6835,4879,4464,4573
6836,4975,4878,5315
6837,5315,5316,4975
6838,5126,5127,5741
6839,5741,5740,5126
6840,5127,5128,5742
6841,5742,5741,5127
6842,4585,4987,4891
6843,4891,4476,4585
6844,4987,4890,5339
6845,5339,5340,4987
6846,5147,5761,5760
6847,5760,5146,5147
6848,5761,5147,5148
6849,5148,5762,5761
6850,4584,4474,4889
6851,4889,4986,4584
6852,4986,5338,5339
6853,5339,4890,4986
6854,5145,5146,5760
6855,5760,5759,5145
6856,4588,4478,4893
6857,4893,4990,4588
6858,4990,5346,5347
6859,5347,4894,4990
6860,5153,5154,5768
6861,5768,5767,5153
6862,5152,5153,5767
6863,5767,5766,5152
6864,5157,5158,5772
6865,5772,5771,5157
6866,4589,4991,4895
6867,4895,4480,4589
6868,4991,4894,5347
6869,5347,5348,4991
6870,5158,5159,5773
6871,5773,5772,5158
6872,5159,5160,5774
6873,5774,5773,5159
6874,4601,5003,4907
6875,4907,4492,4601
6876,5003,4906,5371
6877,5371,5372,5003
6878,5178,5179,5793
6879,5793,5792,5178
6880,5179,5180,5794
6881,5794,5793,5179
6882,4600,4490,4905
6883,4905,5002,4600
6884,5002,5370,5371
6885,5371,4906,5002
6886,5792,5791,5177
6887,5177,5178,5792
6888,4604,4494,4909
6889,4909,5006,4604
6890,5006,5378,5379
6891,5379,4910,5006
6892,5185,5186,5800
6893,5800,5799,5185
6894,5184,5185,5799
6895,5799,5798,5184
6896,5190,5804,5803
6897,5803,5189,5190
6898,4605,5007,4911
6899,4911,4496,4605
6900,5007,4910,5379
6901,5379,5380,5007
6902,5804,5190,5191
6903,5191,5805,5804
6904,5191,5192,5806
6905,5806,5805,5191
6906,4617,5019,4923
6907,4923,4533,4617
6908,5019,4922,5403
6909,5403,5404,5019
6910,5210,5211,5825
6911,5825,5824,5210
6912,5211,5212,5826
6913,5826,5825,5211
6914,4616,4506,4921
6915,4921,5018,4616
6916,5018,5402,5403
6917,5403,4922,5018
6918,5209,5210,5824
6919,5824,5823,5209
6920,4620,4529,4925
6921,4925,5022,4620
6922,5022,5410,5411
6923,5411,4926,5022
6924,5217,5218,5832
6925,5832,5831,5217
6926,5216,5217,5831
6927,5831,5830,5216
6928,5221,5222,5836
6929,5836,5835,5221
6930,4621,5023,4927
6931,4927,4525,4621
6932,5023,4926,5411
6933,5411,5412,5023
6934,5222,5223,5837
6935,5837,5836,5222
6936,5223,5224,5838
6937,5838,5837,5223
6938,4548,4532,4853
6939,4853,4950,4548
6940,4950,5266,5267
6941,5267,4854,4950
6942,5692,5691,5077
6943,5077,5078,5692
6944,5076,5077,5691
6945,5691,5690,5076
6946,4549,4951,4855
6947,4855,4440,4549
6948,4951,4854,5267
6949,5267,5268,4951
6950,5078,5079,5693
6951,5693,5692,5078
6952,4545,4947,4851
6953,4851,4528,4545
6954,4947,4850,5259
6955,5259,5260,4947
6956,5070,5071,5685
6957,5685,5684,5070
6958,5071,5072,5686
6959,5686,5685,5071
6960,5067,5068,5682
6961,5682,5681,5067
6962,4544,4524,4849
6963,4849,4946,4544
6964,4946,5258,5259
6965,5259,4850,4946
6966,5065,5066,5680
6967,5680,5679,5065
6968,4564,4454,4869
6969,4869,4966,4564
6970,4966,5298,5299
6971,5299,4870,4966
6972,5109,5110,5724
6973,5724,5723,5109
6974,5108,5109,5723
6975,5723,5722,5108
6976,4565,4967,4871
6977,4871,4456,4565
6978,4967,4870,5299
6979,5299,5300,4967
6980,5110,5111,5725
6981,5725,5724,5110
6982,4561,4963,4867
6983,4867,4452,4561
6984,4963,4866,5291
6985,5291,5292,4963
6986,5102,5103,5717
6987,5717,5716,5102
6988,5103,5104,5718
6989,5718,5717,5103
6990,5099,5100,5714
6991,5714,5713,5099
6992,4560,4450,4865
6993,4865,4962,4560
6994,4962,5290,5291
6995,5291,4866,4962
6996,5097,5098,5712
6997,5712,5711,5097
6998,4580,4470,4885
6999,4885,4982,4580
7000,4982,5330,5331
7001,5331,4886,4982
7002,5141,5142,5756
7003,5756,5755,5141
7004,5140,5141,5755
7005,5755,5754,5140
7006,4581,4983,4887
7007,4887,4472,4581
7008,4983,4886,5331
7009,5331,5332,4983
7010,5142,5143,5757
7011,5757,5756,5142
7012,4577,4979,4883
7013,4883,4468,4577
7014,4979,4882,5323
7015,5323,5324,4979
7016,5134,5135,5749
7017,5749,5748,5134
7018,5135,5136,5750
7019,5750,5749,5135
7020,5131,5132,5746
7021,5746,5745,5131
7022,4576,4466,4881
7023,4881,4978,4576
7024,4978,5322,5323
7025,5323,4882,4978
7026,5129,5130,5744
7027,5744,5743,5129
7028,4596,4486,4901
7029,4901,4998,4596
7030,4998,5362,5363
7031,5363,4902,4998
7032,5788,5787,5173
7033,5173,5174,5788
7034,5172,5173,5787
7035,5787,5786,5172
7036,4597,4999,4903
7037,4903,4488,4597
7038,4999,4902,5363
7039,5363,5364,4999
7040,5174,5175,5789
7041,5789,5788,5174
7042,4593,4995,4899
7043,4899,4484,4593
7044,4995,4898,5355
7045,5355,5356,4995
7046,5166,5167,5781
7047,5781,5780,5166
7048,5167,5168,5782
7049,5782,5781,5167
7050,5777,5163,5164
7051,5164,5778,5777
7052,4592,4482,4897
7053,4897,4994,4592
7054,4994,5354,5355
7055,5355,4898,4994
7056,5161,5162,5776
7057,5776,5775,5161
7058,4612,4502,4917
7059,4917,5014,4612
7060,5014,5394,5395
7061,5395,4918,5014
7062,5206,5820,5819
7063,5819,5205,5206
7064,5204,5205,5819
7065,5819,5818,5204
7066,4613,5015,4919
7067,4919,4504,4613
7068,5015,4918,5395
7069,5395,5396,5015
7070,5820,5206,5207
7071,5207,5821,5820
7072,4609,5011,4915
7073,4915,4500,4609
7074,5011,4914,5387
7075,5387,5388,5011
7076,5198,5199,5813
7077,5813,5812,5198
7078,5199,5200,5814
7079,5814,5813,5199
7080,5195,5196,5810
7081,5810,5809,5195
7082,4608,4498,4913
7083,4913,5010,4608
7084,5010,5386,5387
7085,5387,4914,5010
7086,5193,5194,5808
7087,5808,5807,5193
7088,4540,4438,4933
7089,4933,5030,4540
7090,5433,4934,5030
7091,5030,5435,5433
7092,5447,5244,5450
7093,5450,5456,5447
7094,5457,5456,6052
7095,6052,6051,5457
7096,5447,5456,5457
7097,5457,5240,5447
7098,5456,5450,6053
7099,6053,6052,5456
7100,5850,5632,6168
7101,6168,6167,5850
7102,5433,5580,5583
7103,5583,5430,5433
7104,5632,5583,6170
7105,6170,6168,5632
7106,5229,5230,5844
7107,5844,5843,5229
7108,4635,5027,4931
7109,4931,4516,4635
7110,5027,4930,5419
7111,5419,5420,5027
7112,4637,4520,4929
7113,4929,5026,4637
7114,5026,5418,5419
7115,5419,4930,5026
7116,5226,5840,5839
7117,5839,5225,5226
7118,5224,5225,5839
7119,5839,5838,5224
7120,5855,6073,6071
7121,6071,5852,5855
7122,5448,5455,5452
7123,5452,5243,5448
7124,5455,5449,5860
7125,5860,6058,5455
7126,5455,6058,6057
7127,6057,5452,5455
7128,5448,5241,5449
7129,5449,5455,5448
7130,5853,5852,6071
7131,6071,6070,5853
7132,5582,5443,5239
7133,5239,5857,5582
7134,5582,6060,5860
7135,5860,5449,5582
7136,5443,5582,5449
7137,5449,5241,5443
7138,5857,6062,6060
7139,6060,5582,5857
7140,6066,5856,5656
7141,5656,6065,6066
7142,5047,5048,5662
7143,5662,5661,5047
7144,5660,5046,5047
7145,5047,5661,5660
7146,4624,4935,4839
7147,4839,4508,4624
7148,4935,4838,5424
7149,5424,5425,4935
7150,5445,5041,5043
7151,5445,5043,5849
7152,5849,5858,5445
7153,4638,4534,4835
7154,4835,5032,4638
7155,5032,5246,5424
7156,5424,4838,5032
7157,4741,4646,5056
7158,5056,5055,4741
7159,4740,5053,5052
7160,5052,4644,4740
7161,4338,4221,4643
7162,4643,4738,4338
7163,4738,5049,5048
7164,5048,4642,4738
7165,4739,4644,5052
7166,5052,5051,4739
7167,4342,4225,4647
7168,4647,4742,4342
7169,4742,5057,5056
7170,5056,4646,4742
7171,4743,4648,5060
7172,5060,5059,4743
7173,4345,4745,4649
7174,4649,4227,4345
7175,4745,4650,5064
7176,5064,5063,4745
7177,4744,5061,5060
7178,5060,4648,4744
7179,4344,4227,4649
7180,4649,4744,4344
7181,4757,4662,5088
7182,5088,5087,4757
7183,4756,5085,5084
7184,5084,4660,4756
7185,4354,4237,4659
7186,4659,4754,4354
7187,4754,5081,5080
7188,5080,4658,4754
7189,4755,4660,5084
7190,5084,5083,4755
7191,4355,4755,4659
7192,4659,4237,4355
7193,4758,5089,5088
7194,5088,4662,4758
7195,4759,4664,5092
7196,5092,5091,4759
7197,4361,4761,4665
7198,4665,4243,4361
7199,4761,4666,5096
7200,5096,5095,4761
7201,4760,5093,5092
7202,5092,4664,4760
7203,4373,4773,4677
7204,4677,4255,4373
7205,4773,4678,5120
7206,5120,5119,4773
7207,4772,5117,5116
7208,5116,4676,4772
7209,4370,4253,4675
7210,4675,4770,4370
7211,4770,5113,5112
7212,5112,4674,4770
7213,4771,4676,5116
7214,5116,5115,4771
7215,4371,4771,4675
7216,4675,4253,4371
7217,4774,5121,5120
7218,5120,4678,4774
7219,4775,4680,5124
7220,5124,5123,4775
7221,4377,4777,4681
7222,4681,4259,4377
7223,4777,4682,5128
7224,5128,5127,4777
7225,4776,5125,5124
7226,5124,4680,4776
7227,4789,4694,5152
7228,5152,5151,4789
7229,4788,5149,5148
7230,5148,4692,4788
7231,4386,4269,4691
7232,4691,4786,4386
7233,4786,5145,5144
7234,5144,4690,4786
7235,4787,4692,5148
7236,5148,5147,4787
7237,4790,5153,5152
7238,5152,4694,4790
7239,4791,4696,5156
7240,5156,5155,4791
7241,4393,4793,4697
7242,4697,4275,4393
7243,4793,4698,5160
7244,5160,5159,4793
7245,4792,5157,5156
7246,5156,4696,4792
7247,4392,4275,4697
7248,4697,4792,4392
7249,4805,4710,5184
7250,5184,5183,4805
7251,4804,5181,5180
7252,5180,4708,4804
7253,4402,4285,4707
7254,4707,4802,4402
7255,4802,5177,5176
7256,5176,4706,4802
7257,4803,4708,5180
7258,5180,5179,4803
7259,4406,4289,4711
7260,4711,4806,4406
7261,4806,5185,5184
7262,5184,4710,4806
7263,4807,4712,5188
7264,5188,5187,4807
7265,4409,4809,4713
7266,4713,4291,4409
7267,4809,4714,5192
7268,5192,5191,4809
7269,4808,5189,5188
7270,5188,4712,4808
7271,4408,4291,4713
7272,4713,4808,4408
7273,4821,4726,5216
7274,5216,5215,4821
7275,4820,5213,5212
7276,5212,4724,4820
7277,4418,4301,4723
7278,4723,4818,4418
7279,4818,5209,5208
7280,5208,4722,4818
7281,4819,4724,5212
7282,5212,5211,4819
7283,4419,4819,4723
7284,4723,4301,4419
7285,4822,5217,5216
7286,5216,4726,4822
7287,4823,4728,5220
7288,5220,5219,4823
7289,4425,4825,4729
7290,4729,4307,4425
7291,4825,4730,5224
7292,5224,5223,4825
7293,4824,5221,5220
7294,5220,4728,4824
7295,4350,4233,4655
7296,4655,4750,4350
7297,4750,5073,5072
7298,5072,4654,4750
7299,4751,4656,5076
7300,5076,5075,4751
7301,4353,4753,4657
7302,4657,4235,4353
7303,4753,4658,5080
7304,5080,5079,4753
7305,4752,5077,5076
7306,5076,4656,4752
7307,4352,4235,4657
7308,4657,4752,4352
7309,4749,4654,5072
7310,5072,5071,4749
7311,4748,5069,5068
7312,5068,4652,4748
7313,4746,5065,5064
7314,5064,4650,4746
7315,4346,4229,4651
7316,4651,4746,4346
7317,4747,4652,5068
7318,5068,5067,4747
7319,4347,4747,4651
7320,4651,4229,4347
7321,4366,4249,4671
7322,4671,4766,4366
7323,4766,5105,5104
7324,5104,4670,4766
7325,4767,4672,5108
7326,5108,5107,4767
7327,4369,4769,4673
7328,4673,4251,4369
7329,4769,4674,5112
7330,5112,5111,4769
7331,4768,5109,5108
7332,5108,4672,4768
7333,4365,4765,4669
7334,4669,4247,4365
7335,4765,4670,5104
7336,5104,5103,4765
7337,4764,5101,5100
7338,5100,4668,4764
7339,4762,5097,5096
7340,5096,4666,4762
7341,4362,4245,4667
7342,4667,4762,4362
7343,4763,4668,5100
7344,5100,5099,4763
7345,4363,4763,4667
7346,4667,4245,4363
7347,4782,5137,5136
7348,5136,4686,4782
7349,4783,4688,5140
7350,5140,5139,4783
7351,4785,4690,5144
7352,5144,5143,4785
7353,4784,5141,5140
7354,5140,4688,4784
7355,4781,4686,5136
7356,5136,5135,4781
7357,4780,5133,5132
7358,5132,4684,4780
7359,4778,5129,5128
7360,5128,4682,4778
7361,4378,4261,4683
7362,4683,4778,4378
7363,4779,4684,5132
7364,5132,5131,4779
7365,4798,5169,5168
7366,5168,4702,4798
7367,4799,4704,5172
7368,5172,5171,4799
7369,4401,4801,4705
7370,4705,4283,4401
7371,4801,4706,5176
7372,5176,5175,4801
7373,4800,5173,5172
7374,5172,4704,4800
7375,4400,4283,4705
7376,4705,4800,4400
7377,4797,4702,5168
7378,5168,5167,4797
7379,4796,5165,5164
7380,5164,4700,4796
7381,4794,5161,5160
7382,5160,4698,4794
7383,4795,4700,5164
7384,5164,5163,4795
7385,4414,4297,4719
7386,4719,4814,4414
7387,4814,5201,5200
7388,5200,4718,4814
7389,4815,4720,5204
7390,5204,5203,4815
7391,4417,4817,4721
7392,4721,4299,4417
7393,4817,4722,5208
7394,5208,5207,4817
7395,4816,5205,5204
7396,5204,4720,4816
7397,4416,4299,4721
7398,4721,4816,4416
7399,4813,4718,5200
7400,5200,5199,4813
7401,4812,5197,5196
7402,5196,4716,4812
7403,4810,5193,5192
7404,5192,4714,4810
7405,4410,4293,4715
7406,4715,4810,4410
7407,4811,4716,5196
7408,5196,5195,4811
7409,4411,4811,4715
7410,4715,4293,4411
7411,4430,4314,4735
7412,4735,4830,4430
7413,4830,5233,5232
7414,5232,4734,4830
7415,4834,5035,5042
7416,5042,4831,4834
7417,4436,4537,5033
7418,5031,4539,4436
7419,4436,5033,5031
7420,5033,4934,5433
7421,5433,5430,5033
7422,4429,4829,4733
7423,4733,4311,4429
7424,4829,4734,5232
7425,5232,5231,4829
7426,4828,5229,5228
7427,5228,4732,4828
7428,4826,5225,5224
7429,5224,4730,4826
7430,4827,4732,5228
7431,5228,5227,4827
7432,4427,4827,4731
7433,4731,4309,4427
7434,4737,4642,5048
7435,5048,5047,4737
7436,4337,4737,4641
7437,4641,4219,4337
7438,4736,5045,5044
7439,5044,4640,4736
7440,5043,4639,4640
7441,4640,5044,5043
7442,1889,1895,2103
7443,1679,1475,1477
7444,1477,1681,1679
7445,1693,1490,1491
7446,1491,1694,1693
7447,1681,1899,1897
7448,1897,1679,1681
7449,1910,1909,1693
7450,1693,1694,1910
7451,1701,1498,1499
7452,1499,1702,1701
7453,1491,1492,1695
7454,1695,1694,1491
7455,1918,1917,1701
7456,1701,1702,1918
7457,1695,1911,1910
7458,1910,1694,1695
7459,1499,1500,1703
7460,1703,1702,1499
7461,1709,1506,1507
7462,1507,1710,1709
7463,1703,1919,1918
7464,1918,1702,1703
7465,1925,1709,1710
7466,1710,1926,1925
7467,1514,1515,1718
7468,1718,1717,1514
7469,1711,1710,1507
7470,1507,1508,1711
7471,1934,1933,1717
7472,1717,1718,1934
7473,1711,1927,1926
7474,1926,1710,1711
7475,1516,1719,1718
7476,1718,1515,1516
7477,1725,1522,1523
7478,1523,1726,1725
7479,1935,1934,1718
7480,1718,1719,1935
7481,1942,1941,1725
7482,1725,1726,1942
7483,1531,1734,1733
7484,1733,1530,1531
7485,1523,1524,1727
7486,1727,1726,1523
7487,1950,1949,1733
7488,1733,1734,1950
7489,1727,1943,1942
7490,1942,1726,1727
7491,1734,1531,1532
7492,1532,1735,1734
7493,1741,1538,1539
7494,1539,1742,1741
7495,1734,1735,1951
7496,1951,1950,1734
7497,1958,1957,1741
7498,1741,1742,1958
7499,1749,1546,1547
7500,1547,1750,1749
7501,1539,1540,1743
7502,1743,1742,1539
7503,1966,1965,1749
7504,1749,1750,1966
7505,1743,1959,1958
7506,1958,1742,1743
7507,1547,1548,1751
7508,1751,1750,1547
7509,1757,1554,1555
7510,1555,1758,1757
7511,1967,1966,1750
7512,1750,1751,1967
7513,1757,1758,1974
7514,1974,1973,1757
7515,1765,1562,1563
7516,1563,1766,1765
7517,1759,1758,1555
7518,1555,1556,1759
7519,1982,1981,1765
7520,1765,1766,1982
7521,1759,1975,1974
7522,1974,1758,1759
7523,1563,1564,1767
7524,1767,1766,1563
7525,1773,1570,1571
7526,1571,1774,1773
7527,1767,1983,1982
7528,1982,1766,1767
7529,1990,1989,1773
7530,1773,1774,1990
7531,1680,1682,1478
7532,1478,1476,1680
7533,1571,1572,1775
7534,1775,1774,1571
7535,1682,1680,1898
7536,1898,1900,1682
7537,1991,1990,1774
7538,1774,1775,1991
7539,1890,2104,1896
7540,496,731,732
7541,732,498,496
7542,944,732,731
7543,731,943,944
7544,735,734,946
7545,946,947,735
7546,747,748,423
7547,423,422,747
7548,960,748,747
7549,747,959,960
7550,962,963,751
7551,751,750,962
7552,750,751,426
7553,426,425,750
7554,763,764,439
7555,439,438,763
7556,976,764,763
7557,763,975,976
7558,767,766,978
7559,978,979,767
7560,992,780,779
7561,779,991,992
7562,783,782,994
7563,994,995,783
7564,782,783,458
7565,458,457,782
7566,1008,796,795
7567,795,1007,1008
7568,799,798,1010
7569,1010,1011,799
7570,798,799,474
7571,474,473,798
7572,1024,812,811
7573,811,1023,1024
7574,814,1026,1027
7575,1027,815,814
7576,814,815,490
7577,490,489,814
7578,958,959,747
7579,747,746,958
7580,956,744,743
7581,743,955,956
7582,763,762,974
7583,974,975,763
7584,972,760,759
7585,759,971,972
7586,435,434,759
7587,759,760,435
7588,779,778,990
7589,990,991,779
7590,988,776,775
7591,775,987,988
7592,1006,1007,795
7593,795,794,1006
7594,792,791,1003
7595,1003,1004,792
7596,791,792,467
7597,467,466,791
7598,811,810,1022
7599,1022,1023,811
7600,1020,808,807
7601,807,1019,1020
7602,827,826,1038
7603,1038,1039,827
7604,1036,824,823
7605,823,1035,1036
7606,503,507,823
7607,823,824,503
7608,1679,1683,1483
7609,1483,1475,1679
7610,1901,1683,1679
7611,1679,1897,1901
7612,1243,1245,944
7613,944,943,1243
7614,946,1146,1147
7615,1147,947,946
7616,615,738,739
7617,739,617,615
7618,739,738,950
7619,950,951,739
7620,948,736,735
7621,735,947,948
7622,950,1150,1151
7623,1151,951,950
7624,1147,1148,948
7625,948,947,1147
7626,1159,1160,960
7627,960,959,1159
7628,962,1162,1163
7629,1163,963,962
7630,754,755,430
7631,430,429,754
7632,755,754,966
7633,966,967,755
7634,964,752,751
7635,751,963,964
7636,751,752,427
7637,427,426,751
7638,966,1166,1167
7639,1167,967,966
7640,1163,1164,964
7641,964,963,1163
7642,976,975,1175
7643,1175,1176,976
7644,1178,1179,979
7645,979,978,1178
7646,770,771,446
7647,446,445,770
7648,771,770,982
7649,982,983,771
7650,980,768,767
7651,767,979,980
7652,767,768,443
7653,443,442,767
7654,982,1182,1183
7655,1183,983,982
7656,1179,1180,980
7657,980,979,1179
7658,1191,1192,992
7659,992,991,1191
7660,994,1194,1195
7661,1195,995,994
7662,786,787,462
7663,462,461,786
7664,787,786,998
7665,998,999,787
7666,996,784,783
7667,783,995,996
7668,998,1198,1199
7669,1199,999,998
7670,1195,1196,996
7671,996,995,1195
7672,1207,1208,1008
7673,1008,1007,1207
7674,1010,1210,1211
7675,1211,1011,1010
7676,802,803,478
7677,478,477,802
7678,803,802,1014
7679,1014,1015,803
7680,1012,800,799
7681,799,1011,1012
7682,799,800,475
7683,475,474,799
7684,1014,1214,1215
7685,1215,1015,1014
7686,1212,1012,1011
7687,1011,1211,1212
7688,1223,1224,1024
7689,1024,1023,1223
7690,1026,1226,1227
7691,1227,1027,1026
7692,618,620,818
7693,818,819,618
7694,818,1030,1031
7695,1031,819,818
7696,1028,816,815
7697,815,1027,1028
7698,491,490,815
7699,815,816,491
7700,1030,1230,1231
7701,1231,1031,1030
7702,1028,1027,1227
7703,1227,1228,1028
7704,1680,1476,1484
7705,1484,1684,1680
7706,1902,1898,1680
7707,1680,1684,1902
7708,1473,1471,1690
7709,1690,1689,1473
7710,1471,1469,1691
7711,1691,1690,1471
7712,1906,1905,1689
7713,1689,1690,1906
7714,1691,1907,1906
7715,1906,1690,1691
7716,1495,1496,1699
7717,1699,1698,1495
7718,1697,1494,1495
7719,1495,1698,1697
7720,1699,1915,1914
7721,1914,1698,1699
7722,1914,1913,1697
7723,1697,1698,1914
7724,617,739,740
7725,740,619,617
7726,952,740,739
7727,739,951,952
7728,954,955,743
7729,743,742,954
7730,958,1158,1159
7731,1159,959,958
7732,1155,1156,956
7733,956,955,1155
7734,1151,1152,952
7735,952,951,1151
7736,954,1154,1155
7737,1155,955,954
7738,1705,1502,1503
7739,1503,1706,1705
7740,1503,1504,1707
7741,1707,1706,1503
7742,1922,1921,1705
7743,1705,1706,1922
7744,1707,1923,1922
7745,1922,1706,1707
7746,1511,1512,1715
7747,1715,1714,1511
7748,1713,1510,1511
7749,1511,1714,1713
7750,1715,1931,1930
7751,1930,1714,1715
7752,1930,1929,1713
7753,1713,1714,1930
7754,755,756,431
7755,431,430,755
7756,968,756,755
7757,755,967,968
7758,759,758,970
7759,970,971,759
7760,433,758,759
7761,759,434,433
7762,974,1174,1175
7763,1175,975,974
7764,1171,1172,972
7765,972,971,1171
7766,1167,1168,968
7767,968,967,1167
7768,1170,1171,971
7769,971,970,1170
7770,1721,1518,1519
7771,1519,1722,1721
7772,1519,1520,1723
7773,1723,1722,1519
7774,1721,1722,1938
7775,1938,1937,1721
7776,1723,1939,1938
7777,1938,1722,1723
7778,1527,1528,1731
7779,1731,1730,1527
7780,1729,1526,1527
7781,1527,1730,1729
7782,1731,1947,1946
7783,1946,1730,1731
7784,1946,1945,1729
7785,1729,1730,1946
7786,771,772,447
7787,447,446,771
7788,984,772,771
7789,771,983,984
7790,775,774,986
7791,986,987,775
7792,990,1190,1191
7793,1191,991,990
7794,1187,1188,988
7795,988,987,1187
7796,1183,1184,984
7797,984,983,1183
7798,986,1186,1187
7799,1187,987,986
7800,1737,1534,1535
7801,1535,1738,1737
7802,1535,1536,1739
7803,1739,1738,1535
7804,1954,1953,1737
7805,1737,1738,1954
7806,1739,1955,1954
7807,1954,1738,1739
7808,1543,1544,1747
7809,1747,1746,1543
7810,1745,1542,1543
7811,1543,1746,1745
7812,1747,1963,1962
7813,1962,1746,1747
7814,1962,1961,1745
7815,1745,1746,1962
7816,787,788,463
7817,463,462,787
7818,1000,788,787
7819,787,999,1000
7820,791,790,1002
7821,1002,1003,791
7822,790,791,466
7823,466,465,790
7824,1006,1206,1207
7825,1207,1007,1006
7826,1204,1004,1003
7827,1003,1203,1204
7828,1199,1200,1000
7829,1000,999,1199
7830,1002,1202,1203
7831,1203,1003,1002
7832,1753,1550,1551
7833,1551,1754,1753
7834,1551,1552,1755
7835,1755,1754,1551
7836,1970,1969,1753
7837,1753,1754,1970
7838,1755,1971,1970
7839,1970,1754,1755
7840,1559,1560,1763
7841,1763,1762,1559
7842,1761,1558,1559
7843,1559,1762,1761
7844,1763,1979,1978
7845,1978,1762,1763
7846,1978,1977,1761
7847,1761,1762,1978
7848,803,804,479
7849,479,478,803
7850,1016,804,803
7851,803,1015,1016
7852,807,806,1018
7853,1018,1019,807
7854,1022,1222,1223
7855,1223,1023,1022
7856,1219,1220,1020
7857,1020,1019,1219
7858,1215,1216,1016
7859,1016,1015,1215
7860,1018,1218,1219
7861,1219,1019,1018
7862,1769,1566,1567
7863,1567,1770,1769
7864,1771,1770,1567
7865,1567,1568,1771
7866,1769,1770,1986
7867,1986,1985,1769
7868,1771,1987,1986
7869,1986,1770,1771
7870,1474,1779,1778
7871,1778,1472,1474
7872,1472,1778,1777
7873,1777,1470,1472
7874,1779,1995,1994
7875,1994,1778,1779
7876,1994,1993,1777
7877,1777,1778,1994
7878,616,618,819
7879,819,820,616
7880,820,819,1031
7881,1031,1032,820
7882,823,822,1034
7883,1034,1035,823
7884,507,509,822
7885,822,823,507
7886,1244,1039,1038
7887,1038,1246,1244
7888,1236,1036,1035
7889,1035,1235,1236
7890,1232,1032,1031
7891,1031,1231,1232
7892,1034,1234,1235
7893,1235,1035,1034
7894,495,497,827
7895,827,828,495
7896,827,1039,1040
7897,1040,828,827
7898,519,518,215
7899,215,216,519
7900,107,108,215
7901,215,214,107
7902,3,108,107
7903,107,1,3
7904,517,214,215
7905,215,518,517
7906,109,216,215
7907,215,108,109
7908,5,109,108
7909,108,3,5
7910,531,228,229
7911,229,532,531
7912,123,230,229
7913,229,122,123
7914,33,123,122
7915,122,31,33
7916,422,324,323
7917,323,421,422
7918,420,421,323
7919,323,322,420
7920,533,532,229
7921,229,230,533
7922,121,122,229
7923,229,228,121
7924,31,122,121
7925,121,29,31
7926,3289,3288,2975
7927,2975,2976,3289
7928,3301,2988,2989
7929,2989,3302,3301
7930,534,231,232
7931,232,535,534
7932,123,124,231
7933,231,230,123
7934,35,124,123
7935,123,33,35
7936,231,534,533
7937,533,230,231
7938,125,232,231
7939,231,124,125
7940,37,125,124
7941,124,35,37
7942,245,548,547
7943,547,244,245
7944,139,246,245
7945,245,138,139
7946,96,139,138
7947,138,94,96
7948,339,437,438
7949,438,340,339
7950,437,339,338
7951,338,436,437
7952,548,245,246
7953,246,549,548
7954,137,138,245
7955,245,244,137
7956,94,138,137
7957,137,92,94
7958,3305,3304,2991
7959,2991,2992,3305
7960,3005,3318,3317
7961,3317,3004,3005
7962,550,247,248
7963,248,551,550
7964,139,140,247
7965,247,246,139
7966,98,140,139
7967,139,96,98
7968,247,550,549
7969,549,246,247
7970,141,248,247
7971,247,140,141
7972,100,141,140
7973,140,98,100
7974,563,260,261
7975,261,564,563
7976,155,262,261
7977,261,154,155
7978,57,155,154
7979,154,56,57
7980,454,356,355
7981,355,453,454
7982,452,453,355
7983,355,354,452
7984,262,565,564
7985,564,261,262
7986,153,154,261
7987,261,260,153
7988,153,55,56
7989,56,154,153
7990,3320,3007,3008
7991,3008,3321,3320
7992,3333,3020,3021
7993,3021,3334,3333
7994,567,566,263
7995,263,264,567
7996,155,156,263
7997,263,262,155
7998,155,57,58
7999,58,156,155
8000,565,262,263
8001,263,566,565
8002,157,264,263
8003,263,156,157
8004,157,156,58
8005,58,59,157
8006,579,276,277
8007,277,580,579
8008,277,170,171
8009,171,278,277
8010,99,97,171
8011,171,170,99
8012,469,470,372
8013,372,371,469
8014,371,370,468
8015,468,469,371
8016,581,580,277
8017,277,278,581
8018,170,277,276
8019,276,169,170
8020,101,99,170
8021,170,169,101
8022,3337,3336,3023
8023,3023,3024,3337
8024,3349,3036,3037
8025,3037,3350,3349
8026,583,582,279
8027,279,280,583
8028,171,172,279
8029,279,278,171
8030,97,95,172
8031,172,171,97
8032,581,278,279
8033,279,582,581
8034,173,280,279
8035,279,172,173
8036,95,93,173
8037,173,172,95
8038,595,292,293
8039,293,596,595
8040,187,294,293
8041,293,186,187
8042,36,34,187
8043,187,186,36
8044,486,388,387
8045,387,485,486
8046,484,485,387
8047,387,386,484
8048,597,596,293
8049,293,294,597
8050,185,186,293
8051,293,292,185
8052,38,36,186
8053,186,185,38
8054,3352,3039,3040
8055,3040,3353,3352
8056,3365,3052,3053
8057,3053,3366,3365
8058,599,598,295
8059,295,296,599
8060,187,188,295
8061,295,294,187
8062,34,32,188
8063,188,187,34
8064,597,294,295
8065,295,598,597
8066,189,296,295
8067,295,188,189
8068,32,30,189
8069,189,188,32
8070,611,308,309
8071,309,612,611
8072,202,203,310
8073,310,309,202
8074,4,2,203
8075,203,202,4
8076,410,499,497
8077,497,408,410
8078,412,501,499
8079,499,410,412
8080,309,308,201
8081,201,202,309
8082,6,4,202
8083,202,201,6
8084,613,612,309
8085,309,310,613
8086,3369,3368,3055
8087,3055,3056,3369
8088,3382,3381,3068
8089,3068,3069,3382
8090,494,730,731
8091,731,496,494
8092,942,943,731
8093,731,730,942
8094,1245,1364,1365
8095,1365,1247,1245
8096,1365,1364,1578
8097,1578,1579,1365
8098,1784,1785,1578
8099,1578,1577,1784
8100,1363,1577,1578
8101,1578,1364,1363
8102,1786,1579,1578
8103,1578,1785,1786
8104,1369,1583,1584
8105,1584,1370,1369
8106,1369,1370,1150
8107,1150,1149,1369
8108,1584,1791,1792
8109,1792,1585,1584
8110,1791,1584,1583
8111,1583,1790,1791
8112,1371,1370,1584
8113,1584,1585,1371
8114,1380,1381,1161
8115,1161,1160,1380
8116,1380,1594,1595
8117,1595,1381,1380
8118,1594,1593,1800
8119,1800,1801,1594
8120,1160,1159,1379
8121,1379,1380,1160
8122,1594,1380,1379
8123,1379,1593,1594
8124,1801,1802,1595
8125,1595,1594,1801
8126,1385,1599,1600
8127,1600,1386,1385
8128,1600,1807,1808
8129,1808,1601,1600
8130,1807,1600,1599
8131,1599,1806,1807
8132,1387,1386,1600
8133,1600,1601,1387
8134,1397,1177,1176
8135,1176,1396,1397
8136,1396,1610,1611
8137,1611,1397,1396
8138,1816,1817,1610
8139,1610,1609,1816
8140,1610,1396,1395
8141,1395,1609,1610
8142,1818,1611,1610
8143,1610,1817,1818
8144,1401,1615,1616
8145,1616,1402,1401
8146,1401,1402,1182
8147,1182,1181,1401
8148,1824,1617,1616
8149,1616,1823,1824
8150,1822,1823,1616
8151,1616,1615,1822
8152,1403,1402,1616
8153,1616,1617,1403
8154,1413,1193,1192
8155,1192,1412,1413
8156,1413,1412,1626
8157,1626,1627,1413
8158,1625,1832,1833
8159,1833,1626,1625
8160,1411,1412,1192
8161,1192,1191,1411
8162,1411,1625,1626
8163,1626,1412,1411
8164,1834,1627,1626
8165,1626,1833,1834
8166,1417,1631,1632
8167,1632,1418,1417
8168,1840,1633,1632
8169,1632,1839,1840
8170,1838,1839,1632
8171,1632,1631,1838
8172,1419,1418,1632
8173,1632,1633,1419
8174,1428,1642,1643
8175,1643,1429,1428
8176,1642,1641,1848
8177,1848,1849,1642
8178,1642,1428,1427
8179,1427,1641,1642
8180,1849,1850,1643
8181,1643,1642,1849
8182,1433,1647,1648
8183,1648,1434,1433
8184,1856,1649,1648
8185,1648,1855,1856
8186,1854,1855,1648
8187,1648,1647,1854
8188,1435,1434,1648
8189,1648,1649,1435
8190,1444,1445,1225
8191,1225,1224,1444
8192,1445,1444,1658
8193,1658,1659,1445
8194,1864,1865,1658
8195,1658,1657,1864
8196,1224,1223,1443
8197,1443,1444,1224
8198,1443,1657,1658
8199,1658,1444,1443
8200,1866,1659,1658
8201,1658,1865,1866
8202,1449,1663,1664
8203,1664,1450,1449
8204,1872,1665,1664
8205,1664,1871,1872
8206,1870,1871,1664
8207,1664,1663,1870
8208,1451,1450,1664
8209,1664,1665,1451
8210,1681,1477,1479
8211,1479,1687,1681
8212,523,220,221
8213,221,524,523
8214,115,222,221
8215,221,114,115
8216,17,115,114
8217,114,15,17
8218,113,114,221
8219,221,220,113
8220,15,114,113
8221,113,13,15
8222,525,524,221
8223,221,222,525
8224,1489,1490,1693
8225,1693,1692,1489
8226,1491,1490,1265
8227,1265,1266,1491
8228,2226,2230,1897
8229,1897,1899,2226
8230,1687,1903,1899
8231,1899,1681,1687
8232,1908,1692,1693
8233,1693,1909,1908
8234,2135,1909,1910
8235,1910,2136,2135
8236,2450,2135,2136
8237,2136,2448,2450
8238,2452,2134,2135
8239,2135,2450,2452
8240,527,526,223
8241,223,224,527
8242,115,116,223
8243,223,222,115
8244,19,116,115
8245,115,17,19
8246,617,619,317
8247,317,316,617
8248,117,224,223
8249,223,116,117
8250,21,117,116
8251,116,19,21
8252,525,222,223
8253,223,526,525
8254,619,621,318
8255,318,317,619
8256,1499,1498,1273
8257,1273,1274,1499
8258,1497,1498,1701
8259,1701,1700,1497
8260,1492,1491,1266
8261,1266,1267,1492
8262,1493,1696,1695
8263,1695,1492,1493
8264,2143,1917,1918
8265,1918,2144,2143
8266,2143,2144,2472
8267,2472,2471,2143
8268,1916,1700,1701
8269,1701,1917,1916
8270,2142,2143,2471
8271,2471,2470,2142
8272,2137,2136,1910
8273,1910,1911,2137
8274,1912,1911,1695
8275,1695,1696,1912
8276,2137,2138,2466
8277,2466,2446,2137
8278,2319,2321,2004
8279,2004,2003,2319
8280,1784,2002,2003
8281,2003,1785,1784
8282,2317,2319,2003
8283,2003,2002,2317
8284,1786,1785,2003
8285,2003,2004,1786
8286,2330,2333,2009
8287,2009,2008,2330
8288,2009,2010,1792
8289,1792,1791,2009
8290,1791,1790,2008
8291,2008,2009,1791
8292,2333,2335,2010
8293,2010,2009,2333
8294,1378,1158,1157
8295,1157,1377,1378
8296,1378,1377,1591
8297,1591,1592,1378
8298,1592,1799,1800
8299,1800,1593,1592
8300,1592,1593,1379
8301,1379,1378,1592
8302,1799,1592,1591
8303,1591,1798,1799
8304,1373,1372,1586
8305,1586,1587,1373
8306,1792,1793,1586
8307,1586,1585,1792
8308,1371,1585,1586
8309,1586,1372,1371
8310,1794,1587,1586
8311,1586,1793,1794
8312,2017,2016,2241
8313,2241,2242,2017
8314,1800,1799,2017
8315,2017,2018,1800
8316,1798,2016,2017
8317,2017,1799,1798
8318,2242,2243,2018
8319,2018,2017,2242
8320,2237,2012,2011
8321,2011,2236,2237
8322,1792,2010,2011
8323,2011,1793,1792
8324,2010,2335,2236
8325,2236,2011,2010
8326,1794,1793,2011
8327,2011,2012,1794
8328,1500,1499,1274
8329,1274,1275,1500
8330,1501,1704,1703
8331,1703,1500,1501
8332,539,236,237
8333,237,540,539
8334,131,238,237
8335,237,130,131
8336,78,131,130
8337,130,76,78
8338,129,130,237
8339,237,236,129
8340,76,130,129
8341,129,74,76
8342,541,540,237
8343,237,238,541
8344,1505,1506,1709
8345,1709,1708,1505
8346,1281,1282,1507
8347,1507,1506,1281
8348,2145,2144,1918
8349,1918,1919,2145
8350,1920,1919,1703
8351,1703,1704,1920
8352,1709,1925,1924
8353,1924,1708,1709
8354,2151,1925,1926
8355,1926,2152,2151
8356,2151,2152,2480
8357,2480,2479,2151
8358,2150,2151,2479
8359,2479,2478,2150
8360,542,239,240
8361,240,543,542
8362,131,132,239
8363,239,238,131
8364,80,132,131
8365,131,78,80
8366,430,431,333
8367,333,332,430
8368,133,240,239
8369,239,132,133
8370,84,133,132
8371,132,80,84
8372,239,542,541
8373,541,238,239
8374,432,334,333
8375,333,431,432
8376,1514,1289,1290
8377,1290,1515,1514
8378,1717,1716,1513
8379,1513,1514,1717
8380,1283,1508,1507
8381,1507,1282,1283
8382,1508,1509,1712
8383,1712,1711,1508
8384,2159,1933,1934
8385,1934,2160,2159
8386,1932,1716,1717
8387,1717,1933,1932
8388,2158,2159,2487
8389,2487,2486,2158
8390,2153,2152,1926
8391,1926,1927,2153
8392,2152,2153,2481
8393,2481,2480,2152
8394,1928,1927,1711
8395,1711,1712,1928
8396,2019,2244,2245
8397,2245,2020,2019
8398,1800,2018,2019
8399,2019,1801,1800
8400,1802,1801,2019
8401,2019,2020,1802
8402,2244,2019,2018
8403,2018,2243,2244
8404,3309,2996,2997
8405,2997,3310,3309
8406,2249,2250,2025
8407,2025,2024,2249
8408,1808,1807,2025
8409,2025,2026,1808
8410,1806,2024,2025
8411,2025,1807,1806
8412,2251,2026,2025
8413,2025,2250,2251
8414,1608,1394,1393
8415,1393,1607,1608
8416,1816,1609,1608
8417,1608,1815,1816
8418,1394,1395,1175
8419,1175,1174,1394
8420,1394,1608,1609
8421,1609,1395,1394
8422,1814,1815,1608
8423,1608,1607,1814
8424,1602,1603,1389
8425,1389,1388,1602
8426,1809,1602,1601
8427,1601,1808,1809
8428,1388,1387,1601
8429,1601,1602,1388
8430,1602,1809,1810
8431,1810,1603,1602
8432,2257,2258,2033
8433,2033,2032,2257
8434,2033,2034,1816
8435,1816,1815,2033
8436,1815,1814,2032
8437,2032,2033,1815
8438,2259,2034,2033
8439,2033,2258,2259
8440,2252,2253,2028
8441,2028,2027,2252
8442,1808,2026,2027
8443,2027,1809,1808
8444,2027,2026,2251
8445,2251,2252,2027
8446,1810,1809,2027
8447,2027,2028,1810
8448,1516,1515,1290
8449,1290,1291,1516
8450,1719,1516,1517
8451,1517,1720,1719
8452,555,252,253
8453,253,556,555
8454,147,254,253
8455,253,146,147
8456,147,146,48
8457,48,49,147
8458,145,146,253
8459,253,252,145
8460,145,47,48
8461,48,146,145
8462,557,556,253
8463,253,254,557
8464,1521,1522,1725
8465,1725,1724,1521
8466,1935,2161,2160
8467,2160,1934,1935
8468,1719,1720,1936
8469,1936,1935,1719
8470,1940,1724,1725
8471,1725,1941,1940
8472,2167,1941,1942
8473,1942,2168,2167
8474,2167,2168,2496
8475,2496,2495,2167
8476,2166,2167,2495
8477,2495,2494,2166
8478,559,558,255
8479,255,256,559
8480,147,148,255
8481,255,254,147
8482,147,49,50
8483,50,148,147
8484,446,447,349
8485,349,348,446
8486,149,256,255
8487,255,148,149
8488,149,148,50
8489,50,51,149
8490,557,254,255
8491,255,558,557
8492,448,350,349
8493,349,447,448
8494,1529,1530,1733
8495,1733,1732,1529
8496,1524,1523,1298
8497,1298,1299,1524
8498,1525,1728,1727
8499,1727,1524,1525
8500,2176,2175,1949
8501,1949,1950,2176
8502,2504,2503,2175
8503,2175,2176,2504
8504,1948,1732,1733
8505,1733,1949,1948
8506,2174,2175,2503
8507,2503,2502,2174
8508,2169,2168,1942
8509,1942,1943,2169
8510,1944,1943,1727
8511,1727,1728,1944
8512,2169,2170,2498
8513,2498,2497,2169
8514,2260,2261,2036
8515,2036,2035,2260
8516,1816,2034,2035
8517,2035,1817,1816
8518,1818,1817,2035
8519,2035,2036,1818
8520,2035,2034,2259
8521,2259,2260,2035
8522,2265,2266,2041
8523,2041,2040,2265
8524,1824,1823,2041
8525,2041,2042,1824
8526,1822,2040,2041
8527,2041,1823,1822
8528,2267,2042,2041
8529,2041,2266,2267
8530,1409,1410,1190
8531,1190,1189,1409
8532,1409,1623,1624
8533,1624,1410,1409
8534,1832,1625,1624
8535,1624,1831,1832
8536,1625,1411,1410
8537,1410,1624,1625
8538,1830,1831,1624
8539,1624,1623,1830
8540,1405,1404,1618
8541,1618,1619,1405
8542,1824,1825,1618
8543,1618,1617,1824
8544,1403,1617,1618
8545,1618,1404,1403
8546,1826,1619,1618
8547,1618,1825,1826
8548,2273,2274,2049
8549,2049,2048,2273
8550,2050,1832,1831
8551,1831,2049,2050
8552,1830,2048,2049
8553,2049,1831,1830
8554,2275,2050,2049
8555,2049,2274,2275
8556,2269,2044,2043
8557,2043,2268,2269
8558,1824,2042,2043
8559,2043,1825,1824
8560,2267,2268,2043
8561,2043,2042,2267
8562,1826,1825,2043
8563,2043,2044,1826
8564,1531,1306,1307
8565,1307,1532,1531
8566,1533,1736,1735
8567,1735,1532,1533
8568,571,268,269
8569,269,572,571
8570,163,270,269
8571,269,162,163
8572,163,162,64
8573,64,65,163
8574,161,162,269
8575,269,268,161
8576,161,63,64
8577,64,162,161
8578,573,572,269
8579,269,270,573
8580,1537,1538,1741
8581,1741,1740,1537
8582,1539,1538,1313
8583,1313,1314,1539
8584,1950,1951,2177
8585,2177,2176,1950
8586,1952,1951,1735
8587,1735,1736,1952
8588,1956,1740,1741
8589,1741,1957,1956
8590,2183,1957,1958
8591,1958,2184,2183
8592,2183,2184,2512
8593,2512,2511,2183
8594,2182,2183,2511
8595,2511,2510,2182
8596,575,574,271
8597,271,272,575
8598,163,164,271
8599,271,270,163
8600,163,65,66
8601,66,164,163
8602,462,463,365
8603,365,364,462
8604,165,272,271
8605,271,164,165
8606,165,164,66
8607,66,67,165
8608,573,270,271
8609,271,574,573
8610,464,366,365
8611,365,463,464
8612,1547,1546,1321
8613,1321,1322,1547
8614,1545,1546,1749
8615,1749,1748,1545
8616,1540,1539,1314
8617,1314,1315,1540
8618,1541,1744,1743
8619,1743,1540,1541
8620,2191,1965,1966
8621,1966,2192,2191
8622,1964,1748,1749
8623,1749,1965,1964
8624,2190,2191,2519
8625,2519,2518,2190
8626,2185,2184,1958
8627,1958,1959,2185
8628,2184,2185,2513
8629,2513,2512,2184
8630,1960,1959,1743
8631,1743,1744,1960
8632,2277,2052,2051
8633,2051,2276,2277
8634,1832,2050,2051
8635,2051,1833,1832
8636,1834,1833,2051
8637,2051,2052,1834
8638,2050,2275,2276
8639,2276,2051,2050
8640,3341,3028,3029
8641,3029,3342,3341
8642,2281,2282,2057
8643,2057,2056,2281
8644,1840,1839,2057
8645,2057,2058,1840
8646,1838,2056,2057
8647,2057,1839,1838
8648,2283,2058,2057
8649,2057,2282,2283
8650,1425,1639,1640
8651,1640,1426,1425
8652,1847,1848,1641
8653,1641,1640,1847
8654,1427,1207,1206
8655,1206,1426,1427
8656,1427,1426,1640
8657,1640,1641,1427
8658,1640,1639,1846
8659,1846,1847,1640
8660,1421,1420,1634
8661,1634,1635,1421
8662,1840,1841,1634
8663,1634,1633,1840
8664,1419,1633,1634
8665,1634,1420,1419
8666,1842,1635,1634
8667,1634,1841,1842
8668,2289,2290,2065
8669,2065,2064,2289
8670,1848,1847,2065
8671,2065,2066,1848
8672,1846,2064,2065
8673,2065,1847,1846
8674,2291,2066,2065
8675,2065,2290,2291
8676,2285,2060,2059
8677,2059,2284,2285
8678,1840,2058,2059
8679,2059,1841,1840
8680,2283,2284,2059
8681,2059,2058,2283
8682,1842,1841,2059
8683,2059,2060,1842
8684,1548,1547,1322
8685,1322,1323,1548
8686,1549,1752,1751
8687,1751,1548,1549
8688,588,587,284
8689,284,285,588
8690,285,178,179
8691,179,286,285
8692,81,79,179
8693,179,178,81
8694,178,285,284
8695,284,177,178
8696,85,81,178
8697,178,177,85
8698,285,286,589
8699,589,588,285
8700,1554,1757,1756
8701,1756,1553,1554
8702,1967,2193,2192
8703,2192,1966,1967
8704,1751,1752,1968
8705,1968,1967,1751
8706,1973,1972,1756
8707,1756,1757,1973
8708,2199,1973,1974
8709,1974,2200,2199
8710,2199,2200,2528
8711,2528,2527,2199
8712,2527,2526,2198
8713,2198,2199,2527
8714,287,288,591
8715,591,590,287
8716,180,287,286
8717,286,179,180
8718,79,77,180
8719,180,179,79
8720,381,380,478
8721,478,479,381
8722,287,180,181
8723,181,288,287
8724,77,75,181
8725,181,180,77
8726,590,589,286
8727,286,287,590
8728,479,480,382
8729,382,381,479
8730,1561,1562,1765
8731,1765,1764,1561
8732,1331,1556,1555
8733,1555,1330,1331
8734,1556,1557,1760
8735,1760,1759,1556
8736,2207,1981,1982
8737,1982,2208,2207
8738,2207,2208,2536
8739,2536,2535,2207
8740,1980,1764,1765
8741,1765,1981,1980
8742,2206,2207,2535
8743,2535,2534,2206
8744,2201,2200,1974
8745,1974,1975,2201
8746,1975,1759,1760
8747,1760,1976,1975
8748,2201,2202,2530
8749,2530,2529,2201
8750,2292,2293,2068
8751,2068,2067,2292
8752,2067,1849,1848
8753,1848,2066,2067
8754,1849,2067,2068
8755,2068,1850,1849
8756,2067,2066,2291
8757,2291,2292,2067
8758,2073,2072,2297
8759,2297,2298,2073
8760,1855,2073,2074
8761,2074,1856,1855
8762,2073,1855,1854
8763,1854,2072,2073
8764,2298,2299,2074
8765,2074,2073,2298
8766,1441,1442,1222
8767,1222,1221,1441
8768,1441,1655,1656
8769,1656,1442,1441
8770,1864,1657,1656
8771,1656,1863,1864
8772,1443,1442,1656
8773,1656,1657,1443
8774,1862,1863,1656
8775,1656,1655,1862
8776,1437,1436,1650
8777,1650,1651,1437
8778,1856,1857,1650
8779,1650,1649,1856
8780,1435,1649,1650
8781,1650,1436,1435
8782,1858,1651,1650
8783,1650,1857,1858
8784,2305,2306,2081
8785,2081,2080,2305
8786,1863,2081,2082
8787,2082,1864,1863
8788,2081,1863,1862
8789,1862,2080,2081
8790,2307,2082,2081
8791,2081,2306,2307
8792,2301,2076,2075
8793,2075,2300,2301
8794,2075,1857,1856
8795,1856,2074,2075
8796,2299,2300,2075
8797,2075,2074,2299
8798,1857,2075,2076
8799,2076,1858,1857
8800,1564,1563,1338
8801,1338,1339,1564
8802,1565,1768,1767
8803,1767,1564,1565
8804,603,300,301
8805,301,604,603
8806,195,302,301
8807,301,194,195
8808,20,18,195
8809,195,194,20
8810,193,194,301
8811,301,300,193
8812,22,20,194
8813,194,193,22
8814,605,604,301
8815,301,302,605
8816,1569,1570,1773
8817,1773,1772,1569
8818,1570,1345,1346
8819,1346,1571,1570
8820,2209,2208,1982
8821,1982,1983,2209
8822,1983,1767,1768
8823,1768,1984,1983
8824,1988,1772,1773
8825,1773,1989,1988
8826,2215,1989,1990
8827,1990,2216,2215
8828,2449,2447,2215
8829,2215,2216,2449
8830,2215,2447,2542
8831,2542,2214,2215
8832,606,303,304
8833,304,607,606
8834,195,196,303
8835,303,302,195
8836,18,16,196
8837,196,195,18
8838,616,397,396
8839,396,618,616
8840,197,304,303
8841,303,196,197
8842,16,14,197
8843,197,196,16
8844,303,606,605
8845,605,302,303
8846,513,398,397
8847,397,616,513
8848,1476,1478,1353
8849,1353,1354,1476
8850,1682,1688,1480
8851,1480,1478,1682
8852,1572,1571,1346
8853,1346,1347,1572
8854,1573,1776,1775
8855,1775,1572,1573
8856,2227,1900,1898
8857,1898,2231,2227
8858,1688,1682,1900
8859,1900,1904,1688
8860,2227,2463,2461
8861,2461,2223,2227
8862,1991,2217,2216
8863,2216,1990,1991
8864,2451,2449,2216
8865,2216,2217,2451
8866,1775,1776,1992
8867,1992,1991,1775
8868,2309,2084,2083
8869,2083,2308,2309
8870,1864,2082,2083
8871,2083,1865,1864
8872,1866,1865,2083
8873,2083,2084,1866
8874,2307,2308,2083
8875,2083,2082,2307
8876,3374,3373,3060
8877,3060,3061,3374
8878,2313,2314,2089
8879,2089,2088,2313
8880,1871,2089,2090
8881,2090,1872,1871
8882,2089,1871,1870
8883,1870,2088,2089
8884,2090,2089,2314
8885,2314,2336,2090
8886,1672,1458,1457
8887,1457,1671,1672
8888,1879,1880,1673
8889,1673,1672,1879
8890,1244,1246,1458
8891,1458,1459,1244
8892,1458,1672,1673
8893,1673,1459,1458
8894,1672,1671,1878
8895,1878,1879,1672
8896,1666,1667,1453
8897,1453,1452,1666
8898,1873,1666,1665
8899,1665,1872,1873
8900,1452,1451,1665
8901,1665,1666,1452
8902,1666,1873,1874
8903,1874,1667,1666
8904,3377,3376,3063
8905,3063,3064,3377
8906,2320,2097,2096
8907,2096,2322,2320
8908,1880,1879,2097
8909,2097,2098,1880
8910,2318,2098,2097
8911,2097,2320,2318
8912,1878,2096,2097
8913,2097,1879,1878
8914,2331,2092,2091
8915,2091,2334,2331
8916,1873,1872,2090
8917,2090,2091,1873
8918,2334,2091,2090
8919,2090,2336,2334
8920,2091,2092,1874
8921,1874,1873,2091
8922,498,732,733
8923,733,500,498
8924,944,945,733
8925,733,732,944
8926,733,945,946
8927,946,734,733
8928,748,749,424
8929,424,423,748
8930,960,961,749
8931,749,748,960
8932,749,750,425
8933,425,424,749
8934,750,749,961
8935,961,962,750
8936,764,976,977
8937,977,765,764
8938,765,977,978
8939,978,766,765
8940,780,781,456
8941,456,455,780
8942,992,993,781
8943,781,780,992
8944,781,782,457
8945,457,456,781
8946,781,993,994
8947,994,782,781
8948,1008,1009,797
8949,797,796,1008
8950,797,798,473
8951,473,472,797
8952,797,1009,1010
8953,1010,798,797
8954,812,813,488
8955,488,487,812
8956,812,1024,1025
8957,1025,813,812
8958,489,488,813
8959,813,814,489
8960,1026,814,813
8961,813,1025,1026
8962,1240,1040,1039
8963,1039,1244,1240
8964,519,630,629
8965,629,518,519
8966,836,628,629
8967,629,837,836
8968,517,518,629
8969,629,628,517
8970,838,837,629
8971,629,630,838
8972,519,216,217
8973,217,520,519
8974,111,218,217
8975,217,110,111
8976,9,111,110
8977,110,7,9
8978,109,110,217
8979,217,216,109
8980,7,110,109
8981,109,5,7
8982,521,520,217
8983,217,218,521
8984,531,530,227
8985,227,228,531
8986,119,120,227
8987,227,226,119
8988,27,120,119
8989,119,25,27
8990,418,419,321
8991,321,320,418
8992,420,322,321
8993,321,419,420
8994,121,228,227
8995,227,120,121
8996,29,121,120
8997,120,27,29
8998,529,226,227
8999,227,530,529
9000,531,532,643
9001,643,642,531
9002,421,746,747
9003,747,422,421
9004,852,851,643
9005,643,644,852
9006,533,644,643
9007,643,532,533
9008,850,642,643
9009,643,851,850
9010,418,743,744
9011,744,419,418
9012,3080,2872,2871
9013,2871,3079,3080
9014,2414,2660,2661
9015,2661,2416,2414
9016,2412,2659,2660
9017,2660,2414,2412
9018,3187,3079,3078
9019,3078,3186,3187
9020,3078,3079,2871
9021,2871,2870,3078
9022,2408,2657,2658
9023,2658,2410,2408
9024,3080,3079,3187
9025,3187,3188,3080
9026,746,421,420
9027,420,745,746
9028,746,745,957
9029,957,958,746
9030,744,745,420
9031,420,419,744
9032,956,957,745
9033,745,744,956
9034,2883,2882,3090
9035,3090,3091,2883
9036,2432,2669,2670
9037,2670,2434,2432
9038,3092,3091,3199
9039,3199,3200,3092
9040,3199,3091,3090
9041,3090,3198,3199
9042,2883,3091,3092
9043,3092,2884,2883
9044,534,535,646
9045,646,645,534
9046,852,644,645
9047,645,853,852
9048,645,644,533
9049,533,534,645
9050,854,853,645
9051,645,646,854
9052,233,536,535
9053,535,232,233
9054,127,234,233
9055,233,126,127
9056,41,127,126
9057,126,39,41
9058,125,126,233
9059,233,232,125
9060,39,126,125
9061,125,37,39
9062,536,233,234
9063,234,537,536
9064,547,546,243
9065,243,244,547
9066,135,136,243
9067,243,242,135
9068,90,136,135
9069,135,88,90
9070,434,435,337
9071,337,336,434
9072,436,338,337
9073,337,435,436
9074,137,244,243
9075,243,136,137
9076,92,137,136
9077,136,90,92
9078,545,242,243
9079,243,546,545
9080,547,548,659
9081,659,658,547
9082,438,437,762
9083,762,763,438
9084,659,660,868
9085,868,867,659
9086,549,660,659
9087,659,548,549
9088,867,866,658
9089,658,659,867
9090,2887,3095,3096
9091,3096,2888,2887
9092,2676,2677,2345
9093,2345,2344,2676
9094,3203,3095,3094
9095,3094,3202,3203
9096,3096,3095,3203
9097,3203,3204,3096
9098,2886,3094,3095
9099,3095,2887,2886
9100,761,762,437
9101,437,436,761
9102,974,762,761
9103,761,973,974
9104,760,761,436
9105,436,435,760
9106,760,972,973
9107,973,761,760
9108,2898,3106,3107
9109,3107,2899,2898
9110,3108,3107,3215
9111,3215,3216,3108
9112,3215,3107,3106
9113,3106,3214,3215
9114,2899,3107,3108
9115,3108,2900,2899
9116,2688,2689,2357
9117,2357,2356,2688
9118,2356,2355,2687
9119,2687,2688,2356
9120,551,662,661
9121,661,550,551
9122,868,660,661
9123,661,869,868
9124,549,550,661
9125,661,660,549
9126,870,869,661
9127,661,662,870
9128,249,552,551
9129,551,248,249
9130,143,250,249
9131,249,142,143
9132,44,45,143
9133,143,142,44
9134,141,142,249
9135,249,248,141
9136,44,142,141
9137,141,100,44
9138,552,249,250
9139,250,553,552
9140,563,562,259
9141,259,260,563
9142,151,152,259
9143,259,258,151
9144,151,53,54
9145,54,152,151
9146,450,451,353
9147,353,352,450
9148,452,354,353
9149,353,451,452
9150,153,260,259
9151,259,152,153
9152,153,152,54
9153,54,55,153
9154,561,258,259
9155,259,562,561
9156,563,564,675
9157,675,674,563
9158,454,453,778
9159,778,779,454
9160,884,883,675
9161,675,676,884
9162,676,675,564
9163,564,565,676
9164,882,674,675
9165,675,883,882
9166,450,775,776
9167,776,451,450
9168,2903,3111,3112
9169,3112,2904,2903
9170,2692,2693,2361
9171,2361,2360,2692
9172,2360,2359,2691
9173,2691,2692,2360
9174,3218,3219,3111
9175,3111,3110,3218
9176,3112,3111,3219
9177,3219,3220,3112
9178,2902,3110,3111
9179,3111,2903,2902
9180,2689,2690,2358
9181,2358,2357,2689
9182,777,778,453
9183,453,452,777
9184,990,778,777
9185,777,989,990
9186,776,777,452
9187,452,451,776
9188,988,989,777
9189,777,776,988
9190,2915,2914,3122
9191,3122,3123,2915
9192,2701,2702,2370
9193,2370,2369,2701
9194,3124,3123,3231
9195,3231,3232,3124
9196,3231,3123,3122
9197,3122,3230,3231
9198,2915,3123,3124
9199,3124,2916,2915
9200,567,678,677
9201,677,566,567
9202,884,676,677
9203,677,885,884
9204,565,566,677
9205,677,676,565
9206,886,885,677
9207,677,678,886
9208,567,264,265
9209,265,568,567
9210,159,266,265
9211,265,158,159
9212,159,158,60
9213,60,61,159
9214,157,158,265
9215,265,264,157
9216,157,59,60
9217,60,158,157
9218,569,568,265
9219,265,266,569
9220,578,275,276
9221,276,579,578
9222,167,168,275
9223,275,274,167
9224,168,167,69
9225,69,70,168
9226,466,467,369
9227,369,368,466
9228,468,370,369
9229,369,467,468
9230,169,276,275
9231,275,168,169
9232,70,101,169
9233,169,168,70
9234,275,578,577
9235,577,274,275
9236,691,690,579
9237,579,580,691
9238,469,794,795
9239,795,470,469
9240,900,899,691
9241,691,692,900
9242,580,581,692
9243,692,691,580
9244,898,690,691
9245,691,899,898
9246,2919,3127,3128
9247,3128,2920,2919
9248,2708,2709,2377
9249,2377,2376,2708
9250,3235,3127,3126
9251,3126,3234,3235
9252,3128,3127,3235
9253,3235,3236,3128
9254,3126,3127,2919
9255,2919,2918,3126
9256,794,469,468
9257,468,793,794
9258,794,793,1005
9259,1005,1006,794
9260,792,793,468
9261,468,467,792
9262,1004,1005,793
9263,793,792,1004
9264,2930,3138,3139
9265,3139,2931,2930
9266,3140,3139,3247
9267,3247,3248,3140
9268,3247,3139,3138
9269,3138,3246,3247
9270,2931,3139,3140
9271,3140,2932,2931
9272,2388,2720,2721
9273,2721,2389,2388
9274,2720,2388,2387
9275,2387,2719,2720
9276,693,582,583
9277,583,694,693
9278,901,900,692
9279,692,693,901
9280,582,693,692
9281,692,581,582
9282,693,694,902
9283,902,901,693
9284,583,280,281
9285,281,584,583
9286,281,174,175
9287,175,282,281
9288,91,89,175
9289,175,174,91
9290,174,281,280
9291,280,173,174
9292,93,91,174
9293,174,173,93
9294,585,584,281
9295,281,282,585
9296,595,594,291
9297,291,292,595
9298,183,184,291
9299,291,290,183
9300,42,40,184
9301,184,183,42
9302,385,384,482
9303,482,483,385
9304,483,484,386
9305,386,385,483
9306,185,292,291
9307,291,184,185
9308,40,38,185
9309,185,184,40
9310,593,290,291
9311,291,594,593
9312,707,706,595
9313,595,596,707
9314,486,485,810
9315,810,811,486
9316,915,707,708
9317,708,916,915
9318,596,597,708
9319,708,707,596
9320,707,915,914
9321,914,706,707
9322,808,483,482
9323,482,807,808
9324,2935,3143,3144
9325,3144,2936,2935
9326,2392,2724,2725
9327,2725,2393,2392
9328,2724,2392,2391
9329,2391,2723,2724
9330,3250,3251,3143
9331,3143,3142,3250
9332,3144,3143,3251
9333,3251,3252,3144
9334,3142,3143,2935
9335,2935,2934,3142
9336,2722,2390,2389
9337,2389,2721,2722
9338,809,810,485
9339,485,484,809
9340,1022,810,809
9341,809,1021,1022
9342,483,808,809
9343,809,484,483
9344,1020,1021,809
9345,809,808,1020
9346,2947,2946,3154
9347,3154,3155,2947
9348,2402,2401,2733
9349,2733,2734,2402
9350,3156,3155,3263
9351,3263,3264,3156
9352,3263,3155,3154
9353,3154,3262,3263
9354,3156,2948,2947
9355,2947,3155,3156
9356,598,599,710
9357,710,709,598
9358,916,708,709
9359,709,917,916
9360,709,708,597
9361,597,598,709
9362,918,917,709
9363,709,710,918
9364,599,296,297
9365,297,600,599
9366,190,191,298
9367,298,297,190
9368,28,26,191
9369,191,190,28
9370,297,296,189
9371,189,190,297
9372,30,28,190
9373,190,189,30
9374,601,600,297
9375,297,298,601
9376,611,610,307
9377,307,308,611
9378,199,200,307
9379,307,306,199
9380,10,8,200
9381,200,199,10
9382,414,400,507
9383,507,503,414
9384,414,503,501
9385,501,412,414
9386,201,308,307
9387,307,200,201
9388,8,6,201
9389,201,200,8
9390,609,306,307
9391,307,610,609
9392,612,723,722
9393,722,611,612
9394,497,499,826
9395,826,827,497
9396,932,931,723
9397,723,724,932
9398,723,612,613
9399,613,724,723
9400,930,722,723
9401,723,931,930
9402,3160,2952,2951
9403,2951,3159,3160
9404,2433,2435,2740
9405,2740,2741,2433
9406,3267,3159,3158
9407,3158,3266,3267
9408,3160,3159,3267
9409,3267,3268,3160
9410,3158,3159,2951
9411,2951,2950,3158
9412,499,501,825
9413,825,826,499
9414,1038,826,825
9415,825,1037,1038
9416,501,503,824
9417,824,825,501
9418,1036,1037,825
9419,825,824,1036
9420,2963,2962,3170
9421,3170,3171,2963
9422,3172,3171,3279
9423,3279,3280,3172
9424,3279,3171,3170
9425,3170,3278,3279
9426,2963,3171,3172
9427,3172,2964,2963
9428,2409,2411,2752
9429,2752,2753,2409
9430,2411,2413,2751
9431,2751,2752,2411
9432,1239,1243,943
9433,943,942,1239
9434,1243,1363,1364
9435,1364,1245,1243
9436,1247,945,944
9437,944,1245,1247
9438,1146,1247,1365
9439,1365,1366,1146
9440,1365,1579,1580
9441,1580,1366,1365
9442,1788,1581,1580
9443,1580,1787,1788
9444,1367,1147,1146
9445,1146,1366,1367
9446,1367,1366,1580
9447,1580,1581,1367
9448,1786,1787,1580
9449,1580,1579,1786
9450,945,1247,1146
9451,1146,946,945
9452,950,738,737
9453,737,949,950
9454,512,737,738
9455,738,615,512
9456,948,949,737
9457,737,736,948
9458,508,736,737
9459,737,512,508
9460,1369,1149,1148
9461,1148,1368,1369
9462,1369,1368,1582
9463,1582,1583,1369
9464,1788,1789,1582
9465,1582,1581,1788
9466,1367,1581,1582
9467,1582,1368,1367
9468,1790,1583,1582
9469,1582,1789,1790
9470,1151,1150,1370
9471,1370,1371,1151
9472,1149,1150,950
9473,950,949,1149
9474,1147,1367,1368
9475,1368,1148,1147
9476,948,1148,1149
9477,1149,949,948
9478,1161,961,960
9479,960,1160,1161
9480,1382,1162,1161
9481,1161,1381,1382
9482,1382,1381,1595
9483,1595,1596,1382
9484,1596,1803,1804
9485,1804,1597,1596
9486,1162,1382,1383
9487,1383,1163,1162
9488,1596,1597,1383
9489,1383,1382,1596
9490,1803,1596,1595
9491,1595,1802,1803
9492,962,961,1161
9493,1161,1162,962
9494,966,754,753
9495,753,965,966
9496,753,754,429
9497,429,428,753
9498,964,965,753
9499,753,752,964
9500,1384,1598,1599
9501,1599,1385,1384
9502,1598,1597,1804
9503,1804,1805,1598
9504,1598,1384,1383
9505,1383,1597,1598
9506,1805,1806,1599
9507,1599,1598,1805
9508,1167,1166,1386
9509,1386,1387,1167
9510,1165,1166,966
9511,966,965,1165
9512,1164,1163,1383
9513,1383,1384,1164
9514,964,1164,1165
9515,1165,965,964
9516,1175,1395,1396
9517,1396,1176,1175
9518,1176,1177,977
9519,977,976,1176
9520,1398,1178,1177
9521,1177,1397,1398
9522,1397,1611,1612
9523,1612,1398,1397
9524,1820,1613,1612
9525,1612,1819,1820
9526,1178,1398,1399
9527,1399,1179,1178
9528,1399,1398,1612
9529,1612,1613,1399
9530,1818,1819,1612
9531,1612,1611,1818
9532,978,977,1177
9533,1177,1178,978
9534,982,770,769
9535,769,981,982
9536,769,770,445
9537,445,444,769
9538,980,981,769
9539,769,768,980
9540,769,444,443
9541,443,768,769
9542,1401,1181,1180
9543,1180,1400,1401
9544,1401,1400,1614
9545,1614,1615,1401
9546,1820,1821,1614
9547,1614,1613,1820
9548,1399,1613,1614
9549,1614,1400,1399
9550,1822,1615,1614
9551,1614,1821,1822
9552,1183,1182,1402
9553,1402,1403,1183
9554,1181,1182,982
9555,982,981,1181
9556,1179,1399,1400
9557,1400,1180,1179
9558,980,1180,1181
9559,1181,981,980
9560,1193,993,992
9561,992,1192,1193
9562,1413,1414,1194
9563,1194,1193,1413
9564,1413,1627,1628
9565,1628,1414,1413
9566,1836,1629,1628
9567,1628,1835,1836
9568,1415,1195,1194
9569,1194,1414,1415
9570,1415,1414,1628
9571,1628,1629,1415
9572,1834,1835,1628
9573,1628,1627,1834
9574,994,993,1193
9575,1193,1194,994
9576,998,786,785
9577,785,997,998
9578,996,997,785
9579,785,784,996
9580,1417,1197,1196
9581,1196,1416,1417
9582,1417,1416,1630
9583,1630,1631,1417
9584,1836,1837,1630
9585,1630,1629,1836
9586,1415,1629,1630
9587,1630,1416,1415
9588,1838,1631,1630
9589,1630,1837,1838
9590,1199,1198,1418
9591,1418,1419,1199
9592,1197,1198,998
9593,998,997,1197
9594,1195,1415,1416
9595,1416,1196,1195
9596,996,1196,1197
9597,1197,997,996
9598,1208,1207,1427
9599,1427,1428,1208
9600,1209,1009,1008
9601,1008,1208,1209
9602,1429,1430,1210
9603,1210,1209,1429
9604,1429,1643,1644
9605,1644,1430,1429
9606,1851,1852,1645
9607,1645,1644,1851
9608,1431,1211,1210
9609,1210,1430,1431
9610,1431,1430,1644
9611,1644,1645,1431
9612,1644,1643,1850
9613,1850,1851,1644
9614,1010,1009,1209
9615,1209,1210,1010
9616,1014,802,801
9617,801,1013,1014
9618,801,802,477
9619,477,476,801
9620,1012,1013,801
9621,801,800,1012
9622,801,476,475
9623,475,800,801
9624,1433,1432,1646
9625,1646,1647,1433
9626,1852,1853,1646
9627,1646,1645,1852
9628,1431,1645,1646
9629,1646,1432,1431
9630,1854,1647,1646
9631,1646,1853,1854
9632,1434,1435,1215
9633,1215,1214,1434
9634,1213,1214,1014
9635,1014,1013,1213
9636,1211,1431,1432
9637,1432,1212,1211
9638,1012,1212,1213
9639,1213,1013,1012
9640,1225,1025,1024
9641,1024,1224,1225
9642,1445,1446,1226
9643,1226,1225,1445
9644,1446,1445,1659
9645,1659,1660,1446
9646,1660,1867,1868
9647,1868,1661,1660
9648,1447,1227,1226
9649,1226,1446,1447
9650,1660,1661,1447
9651,1447,1446,1660
9652,1867,1660,1659
9653,1659,1866,1867
9654,1026,1025,1225
9655,1225,1226,1026
9656,1030,818,817
9657,817,1029,1030
9658,818,620,622
9659,622,817,818
9660,816,1028,1029
9661,1029,817,816
9662,817,622,491
9663,491,816,817
9664,1449,1229,1228
9665,1228,1448,1449
9666,1449,1448,1662
9667,1662,1663,1449
9668,1868,1869,1662
9669,1662,1661,1868
9670,1447,1661,1662
9671,1662,1448,1447
9672,1870,1663,1662
9673,1662,1869,1870
9674,1450,1451,1231
9675,1231,1230,1450
9676,1229,1230,1030
9677,1030,1029,1229
9678,1227,1447,1448
9679,1448,1228,1227
9680,1228,1229,1029
9681,1029,1028,1228
9682,5236,5036,5031
9683,5031,5040,5236
9684,5031,5036,4535
9685,4535,4539,5031
9686,5444,5244,4332
9687,5242,5444,4332
9688,4332,4333,5242
9689,5236,5850,5854
9690,5854,5036,5236
9691,5437,5632,5850
9692,5850,5236,5437
9693,5236,5040,5437
9694,5040,5031,5033
9695,5437,5040,5033
9696,5033,5430,5437
9697,1047,1048,1260
9698,1260,1259,1047
9699,837,1047,1046
9700,1046,836,837
9701,1047,837,838
9702,838,1048,1047
9703,1259,1258,1046
9704,1046,1047,1259
9705,1687,1479,1473
9706,1473,1689,1687
9707,523,522,219
9708,219,220,523
9709,111,112,219
9710,219,218,111
9711,11,112,111
9712,111,9,11
9713,521,218,219
9714,219,522,521
9715,113,220,219
9716,219,112,113
9717,13,113,112
9718,112,11,13
9719,523,524,635
9720,635,634,523
9721,844,843,635
9722,635,636,844
9723,842,634,635
9724,635,843,842
9725,525,636,635
9726,635,524,525
9727,1691,1469,1489
9728,1489,1692,1691
9729,1262,1263,1469
9730,1469,1471,1262
9731,1264,1052,1053
9732,1053,1265,1264
9733,844,1054,1053
9734,1053,843,844
9735,842,843,1053
9736,1053,1052,842
9737,1266,1265,1053
9738,1053,1054,1266
9739,1689,1905,1903
9740,1903,1687,1689
9741,1906,2132,2131
9742,2131,1905,1906
9743,1908,1907,1691
9744,1691,1692,1908
9745,2133,2132,1906
9746,1906,1907,2133
9747,2456,2132,2133
9748,2133,2454,2456
9749,2454,2133,2134
9750,2134,2452,2454
9751,527,224,225
9752,225,528,527
9753,119,226,225
9754,225,118,119
9755,25,119,118
9756,118,23,25
9757,417,418,320
9758,320,319,417
9759,529,528,225
9760,225,226,529
9761,117,118,225
9762,225,224,117
9763,23,118,117
9764,117,21,23
9765,318,621,417
9766,417,319,318
9767,527,638,637
9768,637,526,527
9769,844,636,637
9770,637,845,844
9771,525,526,637
9772,637,636,525
9773,846,845,637
9774,637,638,846
9775,417,742,743
9776,743,418,417
9777,1061,1273,1272
9778,1272,1060,1061
9779,851,852,1062
9780,1062,1061,851
9781,1061,1060,850
9782,850,851,1061
9783,1273,1061,1062
9784,1062,1274,1273
9785,1699,1496,1497
9786,1497,1700,1699
9787,1055,1056,1268
9788,1268,1267,1055
9789,845,1055,1054
9790,1054,844,845
9791,1267,1266,1054
9792,1054,1055,1267
9793,1055,845,846
9794,846,1056,1055
9795,1697,1696,1493
9796,1493,1494,1697
9797,1495,1494,1269
9798,1269,1270,1495
9799,1916,1915,1699
9800,1699,1700,1916
9801,1914,1915,2141
9802,2141,2140,1914
9803,2140,2141,2469
9804,2469,2468,2140
9805,2141,2142,2470
9806,2470,2469,2141
9807,1912,1696,1697
9808,1697,1913,1912
9809,2139,1913,1914
9810,1914,2140,2139
9811,2321,2319,2410
9812,2410,2412,2321
9813,2410,2658,2659
9814,2659,2412,2410
9815,2319,2317,2408
9816,2408,2410,2319
9817,2321,2323,2005
9818,2005,2004,2321
9819,1788,1787,2005
9820,2005,2006,1788
9821,1786,2004,2005
9822,2005,1787,1786
9823,2323,2325,2006
9824,2006,2005,2323
9825,2875,2874,3082
9826,3082,3083,2875
9827,2418,2662,2663
9828,2663,2420,2418
9829,3293,3292,2979
9830,2979,2980,3293
9831,3084,3083,3191
9832,3191,3192,3084
9833,3191,3083,3082
9834,3082,3190,3191
9835,2875,3083,3084
9836,3084,2876,2875
9837,2327,2330,2008
9838,2008,2007,2327
9839,1789,1788,2006
9840,2006,2007,1789
9841,2007,2008,1790
9842,1790,1789,2007
9843,2325,2327,2007
9844,2007,2006,2325
9845,2333,2330,2420
9846,2420,2422,2333
9847,2422,2664,2665
9848,2665,2424,2422
9849,2420,2663,2664
9850,2664,2422,2420
9851,2335,2333,2422
9852,2422,2424,2335
9853,740,741,621
9854,621,619,740
9855,952,953,741
9856,741,740,952
9857,741,742,417
9858,417,621,741
9859,742,741,953
9860,953,954,742
9861,1158,1378,1379
9862,1379,1159,1158
9863,1157,1158,958
9864,958,957,1157
9865,1376,1377,1157
9866,1157,1156,1376
9867,1376,1590,1591
9868,1591,1377,1376
9869,1796,1797,1590
9870,1590,1589,1796
9871,1156,1155,1375
9872,1375,1376,1156
9873,1590,1376,1375
9874,1375,1589,1590
9875,1798,1591,1590
9876,1590,1797,1798
9877,1157,957,956
9878,956,1156,1157
9879,1152,1151,1371
9880,1371,1372,1152
9881,1153,953,952
9882,952,1152,1153
9883,1588,1374,1373
9884,1373,1587,1588
9885,1796,1589,1588
9886,1588,1795,1796
9887,1374,1375,1155
9888,1155,1154,1374
9889,1374,1588,1589
9890,1589,1375,1374
9891,1794,1795,1588
9892,1588,1587,1794
9893,1154,954,953
9894,953,1153,1154
9895,2879,3087,3088
9896,3088,2880,2879
9897,2430,2668,2669
9898,2669,2432,2430
9899,2428,2667,2668
9900,2668,2430,2428
9901,2985,3298,3297
9902,3297,2984,2985
9903,3086,3194,3195
9904,3195,3087,3086
9905,3088,3087,3195
9906,3195,3196,3088
9907,3086,3087,2879
9908,2879,2878,3086
9909,2436,2438,2242
9910,2242,2241,2436
9911,2438,2672,2673
9912,2673,2440,2438
9913,2436,2671,2672
9914,2672,2438,2436
9915,2438,2440,2243
9916,2243,2242,2438
9917,2241,2016,2015
9918,2015,2240,2241
9919,1796,2014,2015
9920,2015,1797,1796
9921,1798,1797,2015
9922,2015,2016,1798
9923,2239,2240,2015
9924,2015,2014,2239
9925,2426,2428,2237
9926,2237,2236,2426
9927,2424,2665,2666
9928,2666,2426,2424
9929,2424,2426,2236
9930,2236,2335,2424
9931,2426,2666,2667
9932,2667,2428,2426
9933,2237,2238,2013
9934,2013,2012,2237
9935,2013,2014,1796
9936,1796,1795,2013
9937,1795,1794,2012
9938,2012,2013,1795
9939,2239,2014,2013
9940,2013,2238,2239
9941,1276,1275,1063
9942,1063,1064,1276
9943,852,853,1063
9944,1063,1062,852
9945,854,1064,1063
9946,1063,853,854
9947,1274,1062,1063
9948,1063,1275,1274
9949,1502,1705,1704
9950,1704,1501,1502
9951,539,538,235
9952,235,236,539
9953,128,235,234
9954,234,127,128
9955,72,128,127
9956,127,41,72
9957,537,234,235
9958,235,538,537
9959,235,128,129
9960,129,236,235
9961,74,129,128
9962,128,72,74
9963,539,540,651
9964,651,650,539
9965,860,859,651
9966,651,652,860
9967,858,650,651
9968,651,859,858
9969,541,652,651
9970,651,540,541
9971,1707,1504,1505
9972,1505,1708,1707
9973,1504,1503,1278
9974,1278,1279,1504
9975,1069,1281,1280
9976,1280,1068,1069
9977,859,860,1070
9978,1070,1069,859
9979,1069,1068,858
9980,858,859,1069
9981,1281,1069,1070
9982,1070,1282,1281
9983,1920,1704,1705
9984,1705,1921,1920
9985,1921,1922,2148
9986,2148,2147,1921
9987,2475,2147,2148
9988,2148,2476,2475
9989,1924,1923,1707
9990,1707,1708,1924
9991,2149,2148,1922
9992,1922,1923,2149
9993,2477,2149,2150
9994,2150,2478,2477
9995,544,543,240
9996,240,241,544
9997,241,134,135
9998,135,242,241
9999,88,135,134
10000,134,86,88
10001,433,434,336
10002,336,335,433
10003,241,242,545
10004,545,544,241
10005,134,241,240
10006,240,133,134
10007,86,134,133
10008,133,84,86
10009,335,334,432
10010,432,433,335
10011,542,543,654
10012,654,653,542
10013,653,861,860
10014,860,652,653
10015,653,652,541
10016,541,542,653
10017,861,653,654
10018,654,862,861
10019,1288,1076,1077
10020,1077,1289,1288
10021,868,1078,1077
10022,1077,867,868
10023,866,867,1077
10024,1077,1076,866
10025,1290,1289,1077
10026,1077,1078,1290
10027,1715,1512,1513
10028,1513,1716,1715
10029,1071,1072,1284
10030,1284,1283,1071
10031,860,861,1071
10032,1071,1070,860
10033,1283,1282,1070
10034,1070,1071,1283
10035,862,1072,1071
10036,1071,861,862
10037,1713,1712,1509
10038,1509,1510,1713
10039,1510,1285,1286
10040,1286,1511,1510
10041,1931,1715,1716
10042,1716,1932,1931
10043,1930,1931,2157
10044,2157,2156,1930
10045,2485,2484,2156
10046,2156,2157,2485
10047,2157,2158,2486
10048,2486,2485,2157
10049,1928,1712,1713
10050,1713,1929,1928
10051,1929,1930,2156
10052,2156,2155,1929
10053,2483,2155,2156
10054,2156,2484,2483
10055,2155,2483,2482
10056,2482,2154,2155
10057,2244,2442,2343
10058,2343,2245,2244
10059,2440,2673,2674
10060,2674,2442,2440
10061,2674,2675,2343
10062,2343,2442,2674
10063,2440,2442,2244
10064,2244,2243,2440
10065,2021,2020,2245
10066,2245,2246,2021
10067,1804,1803,2021
10068,2021,2022,1804
10069,1802,2020,2021
10070,2021,1803,1802
10071,2246,2247,2022
10072,2022,2021,2246
10073,2891,2890,3098
10074,3098,3099,2891
10075,2677,2678,2346
10076,2346,2345,2677
10077,3308,2995,2996
10078,2996,3309,3308
10079,3100,3099,3207
10080,3207,3208,3100
10081,3207,3099,3098
10082,3098,3206,3207
10083,2891,3099,3100
10084,3100,2892,2891
10085,2249,2024,2023
10086,2023,2248,2249
10087,2023,1805,1804
10088,1804,2022,2023
10089,1805,2023,2024
10090,2024,1806,1805
10091,2247,2248,2023
10092,2023,2022,2247
10093,2250,2249,2347
10094,2347,2348,2250
10095,2349,2348,2680
10096,2680,2681,2349
10097,2348,2347,2679
10098,2679,2680,2348
10099,2348,2349,2251
10100,2251,2250,2348
10101,757,432,431
10102,431,756,757
10103,968,969,757
10104,757,756,968
10105,758,433,432
10106,432,757,758
10107,757,969,970
10108,970,758,757
10109,1173,1174,974
10110,974,973,1173
10111,1392,1393,1173
10112,1173,1172,1392
10113,1393,1392,1606
10114,1606,1607,1393
10115,1813,1606,1605
10116,1605,1812,1813
10117,1391,1605,1606
10118,1606,1392,1391
10119,1606,1813,1814
10120,1814,1607,1606
10121,1173,973,972
10122,972,1172,1173
10123,1172,1171,1391
10124,1391,1392,1172
10125,1168,1167,1387
10126,1387,1388,1168
10127,1169,969,968
10128,968,1168,1169
10129,1389,1390,1170
10130,1170,1169,1389
10131,1389,1603,1604
10132,1604,1390,1389
10133,1812,1605,1604
10134,1604,1811,1812
10135,1391,1390,1604
10136,1604,1605,1391
10137,1810,1811,1604
10138,1604,1603,1810
10139,970,969,1169
10140,1169,1170,970
10141,1171,1170,1390
10142,1390,1391,1171
10143,2895,3103,3104
10144,3104,2896,2895
10145,2684,2685,2353
10146,2353,2352,2684
10147,3211,3103,3102
10148,3102,3210,3211
10149,3104,3103,3211
10150,3211,3212,3104
10151,3102,3103,2895
10152,2895,2894,3102
10153,2681,2682,2350
10154,2350,2349,2681
10155,2682,2683,2351
10156,2351,2350,2682
10157,2356,2258,2257
10158,2257,2355,2356
10159,2258,2356,2357
10160,2357,2259,2258
10161,2257,2032,2031
10162,2031,2256,2257
10163,1813,1812,2030
10164,2030,2031,1813
10165,2031,2032,1814
10166,1814,1813,2031
10167,2255,2256,2031
10168,2031,2030,2255
10169,2252,2350,2351
10170,2351,2253,2252
10171,2350,2252,2251
10172,2251,2349,2350
10173,2253,2254,2029
10174,2029,2028,2253
10175,1811,2029,2030
10176,2030,1812,1811
10177,2029,1811,1810
10178,1810,2028,2029
10179,2255,2030,2029
10180,2029,2254,2255
10181,1292,1291,1079
10182,1079,1080,1292
10183,1079,1078,868
10184,868,869,1079
10185,869,870,1080
10186,1080,1079,869
10187,1290,1078,1079
10188,1079,1291,1290
10189,1721,1720,1517
10190,1517,1518,1721
10191,555,554,251
10192,251,252,555
10193,143,144,251
10194,251,250,143
10195,143,45,46
10196,46,144,143
10197,553,250,251
10198,251,554,553
10199,145,252,251
10200,251,144,145
10201,145,144,46
10202,46,47,145
10203,555,556,667
10204,667,666,555
10205,876,875,667
10206,667,668,876
10207,874,666,667
10208,667,875,874
10209,557,668,667
10210,667,556,557
10211,1723,1520,1521
10212,1521,1724,1723
10213,1520,1519,1294
10214,1294,1295,1520
10215,1296,1084,1085
10216,1085,1297,1296
10217,876,1086,1085
10218,1085,875,876
10219,874,875,1085
10220,1085,1084,874
10221,1298,1297,1085
10222,1085,1086,1298
10223,1937,1936,1720
10224,1720,1721,1937
10225,2163,1937,1938
10226,1938,2164,2163
10227,1940,1939,1723
10228,1723,1724,1940
10229,2165,2164,1938
10230,1938,1939,2165
10231,2164,2165,2493
10232,2493,2492,2164
10233,2165,2166,2494
10234,2494,2493,2165
10235,559,256,257
10236,257,560,559
10237,151,258,257
10238,257,150,151
10239,151,150,52
10240,52,53,151
10241,450,352,351
10242,351,449,450
10243,561,560,257
10244,257,258,561
10245,149,150,257
10246,257,256,149
10247,149,51,52
10248,52,150,149
10249,448,449,351
10250,351,350,448
10251,559,670,669
10252,669,558,559
10253,876,668,669
10254,669,877,876
10255,557,558,669
10256,669,668,557
10257,878,877,669
10258,669,670,878
10259,450,449,774
10260,774,775,450
10261,1304,1092,1093
10262,1093,1305,1304
10263,1094,1093,883
10264,883,884,1094
10265,882,883,1093
10266,1093,1092,882
10267,1094,1306,1305
10268,1305,1093,1094
10269,1731,1528,1529
10270,1529,1732,1731
10271,1300,1299,1087
10272,1087,1088,1300
10273,876,877,1087
10274,1087,1086,876
10275,1298,1086,1087
10276,1087,1299,1298
10277,878,1088,1087
10278,1087,877,878
10279,1729,1728,1525
10280,1525,1526,1729
10281,1527,1526,1301
10282,1301,1302,1527
10283,1948,1947,1731
10284,1731,1732,1948
10285,1946,1947,2173
10286,2173,2172,1946
10287,2172,2173,2501
10288,2501,2500,2172
10289,2173,2174,2502
10290,2502,2501,2173
10291,1944,1728,1729
10292,1729,1945,1944
10293,2171,1945,1946
10294,1946,2172,2171
10295,2260,2358,2359
10296,2359,2261,2260
10297,2359,2358,2690
10298,2690,2691,2359
10299,2358,2260,2259
10300,2259,2357,2358
10301,2037,2036,2261
10302,2261,2262,2037
10303,1820,1819,2037
10304,2037,2038,1820
10305,1818,2036,2037
10306,2037,1819,1818
10307,2262,2263,2038
10308,2038,2037,2262
10309,2907,2906,3114
10310,3114,3115,2907
10311,2694,2695,2363
10312,2363,2362,2694
10313,3325,3324,3011
10314,3011,3012,3325
10315,3116,3115,3223
10316,3223,3224,3116
10317,3223,3115,3114
10318,3114,3222,3223
10319,2907,3115,3116
10320,3116,2908,2907
10321,2265,2040,2039
10322,2039,2264,2265
10323,1820,2038,2039
10324,2039,1821,1820
10325,1822,1821,2039
10326,2039,2040,1822
10327,2263,2264,2039
10328,2039,2038,2263
10329,2265,2363,2364
10330,2364,2266,2265
10331,2365,2364,2696
10332,2696,2697,2365
10333,2364,2363,2695
10334,2695,2696,2364
10335,2267,2266,2364
10336,2364,2365,2267
10337,773,448,447
10338,447,772,773
10339,984,985,773
10340,773,772,984
10341,773,774,449
10342,449,448,773
10343,773,985,986
10344,986,774,773
10345,1191,1190,1410
10346,1410,1411,1191
10347,1189,1190,990
10348,990,989,1189
10349,1409,1189,1188
10350,1188,1408,1409
10351,1409,1408,1622
10352,1622,1623,1409
10353,1828,1829,1622
10354,1622,1621,1828
10355,1407,1408,1188
10356,1188,1187,1407
10357,1407,1621,1622
10358,1622,1408,1407
10359,1830,1623,1622
10360,1622,1829,1830
10361,1189,989,988
10362,988,1188,1189
10363,1184,1183,1403
10364,1403,1404,1184
10365,1185,985,984
10366,984,1184,1185
10367,1405,1619,1620
10368,1620,1406,1405
10369,1828,1621,1620
10370,1620,1827,1828
10371,1407,1187,1186
10372,1186,1406,1407
10373,1407,1406,1620
10374,1620,1621,1407
10375,1826,1827,1620
10376,1620,1619,1826
10377,986,985,1185
10378,1185,1186,986
10379,2911,3119,3120
10380,3120,2912,2911
10381,2700,2701,2369
10382,2369,2368,2700
10383,2699,2700,2368
10384,2368,2367,2699
10385,3329,3016,3017
10386,3017,3330,3329
10387,3227,3119,3118
10388,3118,3226,3227
10389,3120,3119,3227
10390,3227,3228,3120
10391,3118,3119,2911
10392,2911,2910,3118
10393,2273,2371,2372
10394,2372,2274,2273
10395,2705,2373,2372
10396,2372,2704,2705
10397,2372,2371,2703
10398,2703,2704,2372
10399,2275,2274,2372
10400,2372,2373,2275
10401,2273,2048,2047
10402,2047,2272,2273
10403,1828,2046,2047
10404,2047,1829,1828
10405,1830,1829,2047
10406,2047,2048,1830
10407,2271,2272,2047
10408,2047,2046,2271
10409,2269,2268,2366
10410,2366,2367,2269
10411,2366,2365,2697
10412,2697,2698,2366
10413,2267,2365,2366
10414,2366,2268,2267
10415,2367,2366,2698
10416,2698,2699,2367
10417,2269,2270,2045
10418,2045,2044,2269
10419,1828,1827,2045
10420,2045,2046,1828
10421,1826,2044,2045
10422,2045,1827,1826
10423,2271,2046,2045
10424,2045,2270,2271
10425,1308,1307,1095
10426,1095,1096,1308
10427,884,885,1095
10428,1095,1094,884
10429,886,1096,1095
10430,1095,885,886
10431,1306,1094,1095
10432,1095,1307,1306
10433,1737,1736,1533
10434,1533,1534,1737
10435,571,570,267
10436,267,268,571
10437,159,160,267
10438,267,266,159
10439,159,61,62
10440,62,160,159
10441,569,266,267
10442,267,570,569
10443,161,268,267
10444,267,160,161
10445,161,160,62
10446,62,63,161
10447,571,572,683
10448,683,682,571
10449,892,891,683
10450,683,684,892
10451,890,682,683
10452,683,891,890
10453,573,684,683
10454,683,572,573
10455,1739,1536,1537
10456,1537,1740,1739
10457,1536,1535,1310
10458,1310,1311,1536
10459,1312,1100,1101
10460,1101,1313,1312
10461,892,1102,1101
10462,1101,891,892
10463,890,891,1101
10464,1101,1100,890
10465,1314,1313,1101
10466,1101,1102,1314
10467,1952,1736,1737
10468,1737,1953,1952
10469,1954,2180,2179
10470,2179,1953,1954
10471,2179,2180,2508
10472,2508,2507,2179
10473,1956,1955,1739
10474,1739,1740,1956
10475,2181,2180,1954
10476,1954,1955,2181
10477,2181,2182,2510
10478,2510,2509,2181
10479,575,272,273
10480,273,576,575
10481,167,274,273
10482,273,166,167
10483,167,166,68
10484,68,69,167
10485,466,368,367
10486,367,465,466
10487,577,576,273
10488,273,274,577
10489,165,166,273
10490,273,272,165
10491,165,67,68
10492,68,166,165
10493,464,465,367
10494,367,366,464
10495,575,686,685
10496,685,574,575
10497,892,684,685
10498,685,893,892
10499,573,574,685
10500,685,684,573
10501,894,893,685
10502,685,686,894
10503,1320,1108,1109
10504,1109,1321,1320
10505,900,1110,1109
10506,1109,899,900
10507,898,899,1109
10508,1109,1108,898
10509,1322,1321,1109
10510,1109,1110,1322
10511,1747,1544,1545
10512,1545,1748,1747
10513,1316,1315,1103
10514,1103,1104,1316
10515,892,893,1103
10516,1103,1102,892
10517,1314,1102,1103
10518,1103,1315,1314
10519,894,1104,1103
10520,1103,893,894
10521,1745,1744,1541
10522,1541,1542,1745
10523,1543,1542,1317
10524,1317,1318,1543
10525,1964,1963,1747
10526,1747,1748,1964
10527,1963,2189,2188
10528,2188,1962,1963
10529,2188,2189,2517
10530,2517,2516,2188
10531,2189,2190,2518
10532,2518,2517,2189
10533,1960,1744,1745
10534,1745,1961,1960
10535,2187,1961,1962
10536,1962,2188,2187
10537,2187,2188,2516
10538,2516,2515,2187
10539,2186,2187,2515
10540,2515,2514,2186
10541,2277,2276,2374
10542,2374,2375,2277
10543,2373,2705,2706
10544,2706,2374,2373
10545,2375,2374,2706
10546,2706,2707,2375
10547,2373,2374,2276
10548,2276,2275,2373
10549,2277,2278,2053
10550,2053,2052,2277
10551,1836,1835,2053
10552,2053,2054,1836
10553,1834,2052,2053
10554,2053,1835,1834
10555,2279,2054,2053
10556,2053,2278,2279
10557,2923,2922,3130
10558,3130,3131,2923
10559,2709,2710,2378
10560,2378,2377,2709
10561,3341,3340,3027
10562,3027,3028,3341
10563,3132,3131,3239
10564,3239,3240,3132
10565,3239,3131,3130
10566,3130,3238,3239
10567,2923,3131,3132
10568,3132,2924,2923
10569,2281,2056,2055
10570,2055,2280,2281
10571,1836,2054,2055
10572,2055,1837,1836
10573,1838,1837,2055
10574,2055,2056,1838
10575,2279,2280,2055
10576,2055,2054,2279
10577,2281,2379,2380
10578,2380,2282,2281
10579,2381,2380,2712
10580,2712,2713,2381
10581,2380,2379,2711
10582,2711,2712,2380
10583,2283,2282,2380
10584,2380,2381,2283
10585,789,464,463
10586,463,788,789
10587,1000,1001,789
10588,789,788,1000
10589,789,790,465
10590,465,464,789
10591,789,1001,1002
10592,1002,790,789
10593,1206,1006,1005
10594,1005,1205,1206
10595,1424,1425,1205
10596,1205,1204,1424
10597,1424,1638,1639
10598,1639,1425,1424
10599,1638,1637,1844
10600,1844,1845,1638
10601,1638,1424,1423
10602,1423,1637,1638
10603,1845,1846,1639
10604,1639,1638,1845
10605,1004,1204,1205
10606,1205,1005,1004
10607,1204,1203,1423
10608,1423,1424,1204
10609,1200,1199,1419
10610,1419,1420,1200
10611,1201,1001,1000
10612,1000,1200,1201
10613,1421,1422,1202
10614,1202,1201,1421
10615,1421,1635,1636
10616,1636,1422,1421
10617,1844,1637,1636
10618,1636,1843,1844
10619,1423,1422,1636
10620,1636,1637,1423
10621,1842,1843,1636
10622,1636,1635,1842
10623,1002,1001,1201
10624,1201,1202,1002
10625,1203,1202,1422
10626,1422,1423,1203
10627,2927,3135,3136
10628,3136,2928,2927
10629,2716,2717,2385
10630,2385,2384,2716
10631,3243,3135,3134
10632,3134,3242,3243
10633,3136,3135,3243
10634,3243,3244,3136
10635,3134,3135,2927
10636,2927,2926,3134
10637,2713,2714,2382
10638,2382,2381,2713
10639,2714,2715,2383
10640,2383,2382,2714
10641,2289,2387,2388
10642,2388,2290,2289
10643,2291,2290,2388
10644,2388,2389,2291
10645,2289,2064,2063
10646,2063,2288,2289
10647,1844,2062,2063
10648,2063,1845,1844
10649,1846,1845,2063
10650,2063,2064,1846
10651,2287,2288,2063
10652,2063,2062,2287
10653,2285,2284,2382
10654,2382,2383,2285
10655,2283,2381,2382
10656,2382,2284,2283
10657,2285,2286,2061
10658,2061,2060,2285
10659,1844,1843,2061
10660,2061,2062,1844
10661,1842,2060,2061
10662,2061,1843,1842
10663,2287,2062,2061
10664,2061,2286,2287
10665,1323,1111,1112
10666,1112,1324,1323
10667,900,901,1111
10668,1111,1110,900
10669,902,1112,1111
10670,1111,901,902
10671,1111,1323,1322
10672,1322,1110,1111
10673,1753,1752,1549
10674,1549,1550,1753
10675,587,586,283
10676,283,284,587
10677,175,176,283
10678,283,282,175
10679,89,87,176
10680,176,175,89
10681,585,282,283
10682,283,586,585
10683,177,284,283
10684,283,176,177
10685,87,85,177
10686,177,176,87
10687,588,699,698
10688,698,587,588
10689,908,907,699
10690,699,700,908
10691,906,698,699
10692,699,907,906
10693,699,588,589
10694,589,700,699
10695,1755,1552,1553
10696,1553,1756,1755
10697,1552,1551,1326
10698,1326,1327,1552
10699,1328,1116,1117
10700,1117,1329,1328
10701,908,1118,1117
10702,1117,907,908
10703,906,907,1117
10704,1117,1116,906
10705,1330,1329,1117
10706,1117,1118,1330
10707,1968,1752,1753
10708,1753,1969,1968
10709,1970,2196,2195
10710,2195,1969,1970
10711,1972,1971,1755
10712,1755,1756,1972
10713,1971,2197,2196
10714,2196,1970,1971
10715,2525,2524,2196
10716,2196,2197,2525
10717,2197,2198,2526
10718,2526,2525,2197
10719,592,591,288
10720,288,289,592
10721,183,290,289
10722,289,182,183
10723,73,42,183
10724,183,182,73
10725,482,384,383
10726,383,481,482
10727,289,290,593
10728,593,592,289
10729,181,182,289
10730,289,288,181
10731,75,73,182
10732,182,181,75
10733,480,481,383
10734,383,382,480
10735,591,702,701
10736,701,590,591
10737,908,700,701
10738,701,909,908
10739,589,590,701
10740,701,700,589
10741,910,909,701
10742,701,702,910
10743,482,481,806
10744,806,807,482
10745,1125,1337,1336
10746,1336,1124,1125
10747,915,916,1126
10748,1126,1125,915
10749,1125,1124,914
10750,914,915,1125
10751,1337,1125,1126
10752,1126,1338,1337
10753,1763,1560,1561
10754,1561,1764,1763
10755,1332,1331,1119
10756,1119,1120,1332
10757,908,909,1119
10758,1119,1118,908
10759,1330,1118,1119
10760,1119,1331,1330
10761,910,1120,1119
10762,1119,909,910
10763,1761,1760,1557
10764,1557,1558,1761
10765,1333,1334,1559
10766,1559,1558,1333
10767,1980,1979,1763
10768,1763,1764,1980
10769,1979,2205,2204
10770,2204,1978,1979
10771,2204,2205,2533
10772,2533,2532,2204
10773,2205,2206,2534
10774,2534,2533,2205
10775,1976,1760,1761
10776,1761,1977,1976
10777,2203,1977,1978
10778,1978,2204,2203
10779,2293,2292,2390
10780,2390,2391,2293
10781,2390,2722,2723
10782,2723,2391,2390
10783,2291,2389,2390
10784,2390,2292,2291
10785,2293,2294,2069
10786,2069,2068,2293
10787,1851,2069,2070
10788,2070,1852,1851
10789,2069,1851,1850
10790,1850,2068,2069
10791,2295,2070,2069
10792,2069,2294,2295
10793,2939,2938,3146
10794,3146,3147,2939
10795,2394,2726,2727
10796,2727,2395,2394
10797,3357,3356,3043
10798,3043,3044,3357
10799,3148,3147,3255
10800,3255,3256,3148
10801,3255,3147,3146
10802,3146,3254,3255
10803,2939,3147,3148
10804,3148,2940,2939
10805,2297,2072,2071
10806,2071,2296,2297
10807,1852,2070,2071
10808,2071,1853,1852
10809,1854,1853,2071
10810,2071,2072,1854
10811,2295,2296,2071
10812,2071,2070,2295
10813,2396,2298,2297
10814,2297,2395,2396
10815,2728,2729,2397
10816,2397,2396,2728
10817,2396,2395,2727
10818,2727,2728,2396
10819,2298,2396,2397
10820,2397,2299,2298
10821,805,480,479
10822,479,804,805
10823,1016,1017,805
10824,805,804,1016
10825,805,806,481
10826,481,480,805
10827,805,1017,1018
10828,1018,806,805
10829,1223,1222,1442
10830,1442,1443,1223
10831,1221,1222,1022
10832,1022,1021,1221
10833,1441,1221,1220
10834,1220,1440,1441
10835,1654,1655,1441
10836,1441,1440,1654
10837,1860,1861,1654
10838,1654,1653,1860
10839,1439,1440,1220
10840,1220,1219,1439
10841,1440,1439,1653
10842,1653,1654,1440
10843,1862,1655,1654
10844,1654,1861,1862
10845,1221,1021,1020
10846,1020,1220,1221
10847,1216,1215,1435
10848,1435,1436,1216
10849,1217,1017,1016
10850,1016,1216,1217
10851,1437,1651,1652
10852,1652,1438,1437
10853,1859,1860,1653
10854,1653,1652,1859
10855,1439,1219,1218
10856,1218,1438,1439
10857,1439,1438,1652
10858,1652,1653,1439
10859,1652,1651,1858
10860,1858,1859,1652
10861,1018,1017,1217
10862,1217,1218,1018
10863,2943,3151,3152
10864,3152,2944,2943
10865,2732,2733,2401
10866,2401,2400,2732
10867,2400,2399,2731
10868,2731,2732,2400
10869,3361,3048,3049
10870,3049,3362,3361
10871,3259,3151,3150
10872,3150,3258,3259
10873,3260,3152,3151
10874,3151,3259,3260
10875,2942,3150,3151
10876,3151,2943,2942
10877,2306,2305,2403
10878,2403,2443,2306
10879,2441,2443,2736
10880,2736,2737,2441
10881,2736,2443,2403
10882,2403,2735,2736
10883,2441,2307,2306
10884,2306,2443,2441
10885,2304,2305,2080
10886,2080,2079,2304
10887,2079,1861,1860
10888,1860,2078,2079
10889,1861,2079,2080
10890,2080,1862,1861
10891,2079,2078,2303
10892,2303,2304,2079
10893,2301,2300,2398
10894,2398,2399,2301
10895,2398,2397,2729
10896,2729,2730,2398
10897,2299,2397,2398
10898,2398,2300,2299
10899,2730,2731,2399
10900,2399,2398,2730
10901,2301,2302,2077
10902,2077,2076,2301
10903,1859,2077,2078
10904,2078,1860,1859
10905,2077,1859,1858
10906,1858,2076,2077
10907,2303,2078,2077
10908,2077,2302,2303
10909,1340,1339,1127
10910,1127,1128,1340
10911,917,1127,1126
10912,1126,916,917
10913,1127,917,918
10914,918,1128,1127
10915,1338,1126,1127
10916,1127,1339,1338
10917,1566,1769,1768
10918,1768,1565,1566
10919,603,602,299
10920,299,300,603
10921,191,192,299
10922,299,298,191
10923,26,24,192
10924,192,191,26
10925,601,298,299
10926,299,602,601
10927,193,300,299
10928,299,192,193
10929,24,22,193
10930,193,192,24
10931,715,714,603
10932,603,604,715
10933,923,715,716
10934,716,924,923
10935,715,923,922
10936,922,714,715
10937,604,605,716
10938,716,715,604
10939,1568,1569,1772
10940,1772,1771,1568
10941,1343,1568,1567
10942,1567,1342,1343
10943,1345,1344,1132
10944,1132,1133,1345
10945,924,1134,1133
10946,1133,923,924
10947,922,923,1133
10948,1133,1132,922
10949,1133,1134,1346
10950,1346,1345,1133
10951,1985,1984,1768
10952,1768,1769,1985
10953,1986,2212,2211
10954,2211,1985,1986
10955,2211,2212,2540
10956,2540,2539,2211
10957,1987,1771,1772
10958,1772,1988,1987
10959,2213,2212,1986
10960,1986,1987,2213
10961,2213,2214,2542
10962,2542,2541,2213
10963,608,607,304
10964,304,305,608
10965,199,306,305
10966,305,198,199
10967,12,10,199
10968,199,198,12
10969,507,400,399
10970,399,509,507
10971,305,306,609
10972,609,608,305
10973,197,198,305
10974,305,304,197
10975,14,12,198
10976,198,197,14
10977,509,399,398
10978,398,513,509
10979,606,607,718
10980,718,717,606
10981,717,925,924
10982,924,716,717
10983,717,716,605
10984,605,606,717
10985,925,717,718
10986,718,926,925
10987,1141,1353,1352
10988,1352,1140,1141
10989,931,932,1142
10990,1142,1141,931
10991,1141,1140,930
10992,930,931,1141
10993,1353,1141,1142
10994,1142,1354,1353
10995,1688,1779,1474
10996,1474,1480,1688
10997,1348,1347,1135
10998,1135,1136,1348
10999,924,925,1135
11000,1135,1134,924
11001,1346,1134,1135
11002,1135,1347,1346
11003,926,1136,1135
11004,1135,925,926
11005,1777,1776,1573
11006,1573,1470,1777
11007,1350,1472,1470
11008,1470,1349,1350
11009,1779,1688,1904
11010,1904,1995,1779
11011,1994,1995,2221
11012,2221,2220,1994
11013,2459,2457,2220
11014,2220,2221,2459
11015,2223,2461,2459
11016,2459,2221,2223
11017,1992,1776,1777
11018,1777,1993,1992
11019,2219,1993,1994
11020,1994,2220,2219
11021,2457,2455,2219
11022,2219,2220,2457
11023,2455,2453,2218
11024,2218,2219,2455
11025,2437,2309,2308
11026,2308,2439,2437
11027,2439,2441,2737
11028,2737,2738,2439
11029,2437,2439,2738
11030,2738,2739,2437
11031,2439,2308,2307
11032,2307,2441,2439
11033,2309,2310,2085
11034,2085,2084,2309
11035,1868,1867,2085
11036,2085,2086,1868
11037,1866,2084,2085
11038,2085,1867,1866
11039,2311,2086,2085
11040,2085,2310,2311
11041,3162,3163,2955
11042,2955,2954,3162
11043,2431,2433,2741
11044,2741,2742,2431
11045,3372,3059,3060
11046,3060,3373,3372
11047,3164,3163,3271
11048,3271,3272,3164
11049,3271,3163,3162
11050,3162,3270,3271
11051,2955,3163,3164
11052,3164,2956,2955
11053,2313,2088,2087
11054,2087,2312,2313
11055,2087,1869,1868
11056,1868,2086,2087
11057,1869,2087,2088
11058,2088,1870,1869
11059,2311,2312,2087
11060,2087,2086,2311
11061,2427,2314,2313
11062,2313,2429,2427
11063,2425,2427,2744
11064,2744,2745,2425
11065,2427,2429,2743
11066,2743,2744,2427
11067,2425,2336,2314
11068,2314,2427,2425
11069,513,616,820
11070,820,821,513
11071,1032,1033,821
11072,821,820,1032
11073,509,513,821
11074,821,822,509
11075,821,1033,1034
11076,1034,822,821
11077,1248,1246,1038
11078,1038,1037,1248
11079,1236,1456,1457
11080,1457,1248,1236
11081,1456,1670,1671
11082,1671,1457,1456
11083,1876,1877,1670
11084,1670,1669,1876
11085,1670,1456,1455
11086,1455,1669,1670
11087,1878,1671,1670
11088,1670,1877,1878
11089,1037,1036,1236
11090,1236,1248,1037
11091,1236,1235,1455
11092,1455,1456,1236
11093,1232,1231,1451
11094,1451,1452,1232
11095,1032,1232,1233
11096,1233,1033,1032
11097,1454,1234,1233
11098,1233,1453,1454
11099,1453,1667,1668
11100,1668,1454,1453
11101,1875,1876,1669
11102,1669,1668,1875
11103,1455,1454,1668
11104,1668,1669,1455
11105,1668,1667,1874
11106,1874,1875,1668
11107,1034,1033,1233
11108,1233,1234,1034
11109,1234,1454,1455
11110,1455,1235,1234
11111,2960,2959,3167
11112,3167,3168,2960
11113,2417,2419,2748
11114,2748,2749,2417
11115,3274,3275,3167
11116,3167,3166,3274
11117,3276,3168,3167
11118,3167,3275,3276
11119,3166,3167,2959
11120,2959,2958,3166
11121,2423,2425,2745
11122,2745,2746,2423
11123,2421,2423,2746
11124,2746,2747,2421
11125,2322,2413,2411
11126,2411,2320,2322
11127,2320,2411,2409
11128,2409,2318,2320
11129,2322,2096,2095
11130,2095,2324,2322
11131,1876,2094,2095
11132,2095,1877,1876
11133,1878,1877,2095
11134,2095,2096,1878
11135,2324,2095,2094
11136,2094,2326,2324
11137,2334,2423,2421
11138,2421,2331,2334
11139,2336,2425,2423
11140,2423,2334,2336
11141,2328,2093,2092
11142,2092,2331,2328
11143,1876,1875,2093
11144,2093,2094,1876
11145,1874,2092,2093
11146,2093,1875,1874
11147,2326,2094,2093
11148,2093,2328,2326
11149,3917,3600,3601
11150,3601,3915,3917
11151,3617,3934,3933
11152,3933,3616,3617
11153,3632,3633,3950
11154,3950,3949,3632
11155,3634,3951,3950
11156,3950,3633,3634
11157,3648,3649,3966
11158,3966,3965,3648
11159,3650,3967,3966
11160,3966,3649,3650
11161,3666,3983,3982
11162,3982,3665,3666
11163,213,106,107
11164,107,214,213
11165,43,1,107
11166,107,106,43
11167,407,403,494
11168,494,496,407
11169,517,516,213
11170,213,214,517
11171,213,516,514
11172,514,211,213
11173,403,401,492
11174,492,494,403
11175,105,106,213
11176,213,211,105
11177,105,82,43
11178,43,106,105
11179,2973,3286,3284
11180,3284,2971,2973
11181,3615,3616,3933
11182,3933,3932,3615
11183,3631,3632,3949
11184,3949,3948,3631
11185,3965,3964,3647
11186,3647,3648,3965
11187,3646,3647,3964
11188,3964,3963,3646
11189,3980,3979,3662
11190,3662,3663,3980
11191,3679,3680,3997
11192,3997,3996,3679
11193,3678,3679,3996
11194,3996,3995,3678
11195,3916,3913,3694
11196,3694,3695,3916
11197,204,311,310
11198,310,203,204
11199,71,204,203
11200,203,2,71
11201,613,310,311
11202,311,614,613
11203,311,212,515
11204,515,614,311
11205,205,212,311
11206,311,204,205
11207,205,204,71
11208,71,83,205
11209,3071,2972,3285
11210,3285,3384,3071
11211,3608,3925,3924
11212,3924,3607,3608
11213,3624,3941,3940
11214,3940,3623,3624
11215,3640,3957,3956
11216,3956,3639,3640
11217,3638,3639,3956
11218,3956,3955,3638
11219,3656,3973,3972
11220,3972,3655,3656
11221,3654,3655,3972
11222,3972,3971,3654
11223,3671,3988,3987
11224,3987,3670,3671
11225,1880,1882,1674
11226,1674,1673,1880
11227,1240,1244,1459
11228,1459,1460,1240
11229,1459,1673,1674
11230,1674,1460,1459
11231,1460,1462,1238
11232,1238,1240,1460
11233,1462,1460,1674
11234,1674,1575,1462
11235,1783,1575,1674
11236,1674,1882,1783
11237,1683,1883,1485
11238,1485,1483,1683
11239,2228,1901,1897
11240,1897,2230,2228
11241,2129,2339,2224
11242,2129,2224,2101
11243,2101,1996,2129
11244,1901,1996,1883
11245,1883,1683,1901
11246,1784,1577,1576
11247,1576,1881,1784
11248,1576,1577,1363
11249,1363,1362,1576
11250,1362,1239,1237
11251,1237,1461,1362
11252,1461,1574,1576
11253,1576,1362,1461
11254,1885,2105,2109
11255,2109,1780,1885
11256,1782,1881,1576
11257,1576,1574,1782
11258,1881,2099,2002
11259,2002,1784,1881
11260,2315,2317,2002
11261,2002,2099,2315
11262,2234,2315,2099
11263,2099,2000,2234
11264,1881,1782,2000
11265,2000,2099,1881
11266,3609,3610,3927
11267,3927,3926,3609
11268,3640,3641,3958
11269,3958,3957,3640
11270,3656,3657,3974
11271,3974,3973,3656
11272,3990,3989,3672
11273,3672,3673,3990
11274,3673,3674,3991
11275,3991,3990,3673
11276,3689,4006,4005
11277,4005,3688,3689
11278,4006,3689,3690
11279,3690,4007,4006
11280,1684,1484,1486
11281,1486,1884,1684
11282,2229,2231,1898
11283,1898,1902,2229
11284,2231,2229,2544
11285,2544,2546,2231
11286,2130,1997,2102
11287,2102,2225,2130
11288,2225,2340,2130
11289,1902,1684,1884
11290,1884,1997,1902
11291,2340,2465,2544
11292,2340,2544,2229
11293,2229,2130,2340
11294,1882,1880,2098
11295,2098,2100,1882
11296,2316,2100,2098
11297,2098,2318,2316
11298,2235,2001,2100
11299,2100,2316,2235
11300,1882,2100,2001
11301,2001,1783,1882
11302,3791,3789,3856
11303,3856,3857,3791
11304,3910,3603,3604
11305,3604,3907,3910
11306,3912,3602,3603
11307,3603,3910,3912
11308,3794,3791,3857
11309,3857,3859,3794
11310,4131,4132,3859
11311,3859,3857,4131
11312,3912,3910,4019
11313,4019,4018,3912
11314,4341,4223,4019
11315,4224,4341,4019
11316,4019,4020,4224
11317,4341,4224,4646
11318,4646,4741,4341
11319,4341,4741,4645
11320,4645,4223,4341
11321,3910,3907,4020
11322,4020,4019,3910
11323,4340,4222,4018
11324,4223,4340,4018
11325,4018,4019,4223
11326,4340,4223,4645
11327,4645,4740,4340
11328,3857,3856,4129
11329,4129,4131,3857
11330,4338,4738,4642
11331,4642,4220,4338
11332,4339,4739,4643
11333,4643,4221,4339
11334,3889,3891,3716
11335,3716,3715,3889
11336,3620,3937,3936
11337,3936,3619,3620
11338,3618,3619,3936
11339,3936,3935,3618
11340,3891,3893,3717
11341,3717,3716,3891
11342,4163,4165,3893
11343,3893,3891,4163
11344,3935,3936,4035
11345,4035,4034,3935
11346,4357,4239,4035
11347,4240,4357,4035
11348,4035,4036,4240
11349,4357,4240,4662
11350,4662,4757,4357
11351,4357,4757,4661
11352,4661,4239,4357
11353,3937,4036,4035
11354,4035,3936,3937
11355,4356,4238,4034
11356,4239,4356,4034
11357,4034,4035,4239
11358,4356,4239,4661
11359,4661,4756,4356
11360,3891,3889,4161
11361,4161,4163,3891
11362,4354,4754,4658
11363,4658,4236,4354
11364,4355,4238,4660
11365,4660,4755,4355
11366,3814,3815,3732
11367,3732,3731,3814
11368,3634,3635,3952
11369,3952,3951,3634
11370,3733,3732,3815
11371,3815,3816,3733
11372,4195,4197,3816
11373,3816,3815,4195
11374,3951,3952,4051
11375,4051,4050,3951
11376,4373,4255,4051
11377,4256,4373,4051
11378,4051,4052,4256
11379,3953,4052,4051
11380,4051,3952,3953
11381,4372,4254,4050
11382,4255,4372,4050
11383,4050,4051,4255
11384,4372,4772,4676
11385,4676,4254,4372
11386,4372,4255,4677
11387,4677,4772,4372
11388,4193,4195,3815
11389,3815,3814,4193
11390,3830,3831,3748
11391,3748,3747,3830
11392,3652,3969,3968
11393,3968,3651,3652
11394,3748,3831,3832
11395,3832,3749,3748
11396,4121,4122,3832
11397,3832,3831,4121
11398,3967,3968,4067
11399,4067,4066,3967
11400,4389,4271,4067
11401,4272,4389,4067
11402,4067,4068,4272
11403,4389,4789,4693
11404,4693,4271,4389
11405,3969,4068,4067
11406,4067,3968,3969
11407,4388,4270,4066
11408,4271,4388,4066
11409,4066,4067,4271
11410,4388,4271,4693
11411,4693,4788,4388
11412,3830,4120,4121
11413,4121,3831,3830
11414,4387,4270,4692
11415,4692,4787,4387
11416,4387,4787,4691
11417,4691,4269,4387
11418,3846,3847,3764
11419,3764,3763,3846
11420,3765,3764,3847
11421,3847,3848,3765
11422,4186,3848,3847
11423,3847,4188,4186
11424,3983,3984,4083
11425,4083,4082,3983
11426,4287,4083,4084
11427,4084,4405,4287
11428,4084,4288,4405
11429,4405,4288,4710
11430,4710,4805,4405
11431,4405,4805,4709
11432,4709,4287,4405
11433,3985,4084,4083
11434,4083,3984,3985
11435,4404,4286,4082
11436,4287,4404,4082
11437,4082,4083,4287
11438,4404,4804,4708
11439,4708,4286,4404
11440,4404,4287,4709
11441,4709,4804,4404
11442,4188,3847,3846
11443,3846,4190,4188
11444,4402,4802,4706
11445,4706,4284,4402
11446,4403,4286,4708
11447,4708,4803,4403
11448,4403,4803,4707
11449,4707,4285,4403
11450,3884,3780,3779
11451,3779,3886,3884
11452,3882,3781,3780
11453,3780,3884,3882
11454,3884,4156,4154
11455,4154,3882,3884
11456,3999,4000,4099
11457,4099,4098,3999
11458,4421,4303,4099
11459,4304,4421,4099
11460,4099,4100,4304
11461,4421,4821,4725
11462,4725,4303,4421
11463,4001,4100,4099
11464,4099,4000,4001
11465,4420,4302,4098
11466,4303,4420,4098
11467,4098,4099,4303
11468,4420,4303,4725
11469,4725,4820,4420
11470,3886,4158,4156
11471,4156,3884,3886
11472,4418,4818,4722
11473,4722,4300,4418
11474,941,830,828
11475,828,1040,941
11476,624,416,493
11477,493,830,624
11478,830,832,624
11479,937,832,830
11480,830,941,937
11481,5038,4538,4535
11482,4535,5237,5038
11483,4535,5036,5237
11484,5237,5036,5854
11485,5854,5855,5237
11486,836,835,627
11487,627,628,836
11488,517,628,627
11489,627,516,517
11490,627,726,514
11491,514,516,627
11492,835,934,726
11493,726,627,835
11494,211,514,510
11495,510,207,211
11496,415,492,401
11497,401,405,415
11498,104,105,211
11499,211,207,104
11500,104,102,82
11501,82,105,104
11502,623,831,829
11503,623,829,492
11504,492,415,623
11505,730,494,492
11506,492,829,730
11507,940,942,730
11508,730,829,940
11509,936,940,829
11510,829,831,936
11511,3076,3074,3182
11512,3182,3184,3076
11513,3074,3076,2868
11514,2868,2866,3074
11515,2866,2864,3072
11516,3072,3074,2866
11517,3177,2969,2971
11518,3177,2971,3284
11519,3284,3385,3177
11520,3179,3182,3074
11521,3074,3072,3179
11522,3612,3613,3930
11523,3930,3929,3612
11524,3613,3614,3931
11525,3931,3930,3613
11526,3883,3885,3713
11527,3713,3712,3883
11528,3881,3883,3712
11529,3712,3711,3881
11530,3883,3881,4153
11531,4153,4155,3883
11532,3930,3931,4030
11533,4030,4029,3930
11534,4350,4232,4028
11535,4233,4350,4028
11536,4028,4029,4233
11537,4350,4750,4654
11538,4654,4232,4350
11539,4029,4028,3929
11540,3929,3930,4029
11541,4233,4029,4030
11542,4030,4351,4233
11543,4030,4234,4351
11544,4351,4234,4656
11545,4656,4751,4351
11546,4351,4751,4655
11547,4655,4233,4351
11548,3885,3883,4155
11549,4155,4157,3885
11550,4353,4236,4658
11551,4658,4753,4353
11552,4352,4752,4656
11553,4656,4234,4352
11554,3629,3630,3947
11555,3947,3946,3629
11556,3729,3728,3811
11557,3811,3812,3729
11558,3810,3811,3728
11559,3728,3727,3810
11560,4185,4187,3811
11561,3811,3810,4185
11562,3946,3947,4046
11563,4046,4045,3946
11564,4366,4248,4044
11565,4249,4366,4044
11566,4044,4045,4249
11567,4045,4044,3945
11568,3945,3946,4045
11569,4249,4045,4046
11570,4046,4367,4249
11571,4046,4250,4367
11572,4367,4250,4672
11573,4672,4767,4367
11574,4367,4767,4671
11575,4671,4249,4367
11576,4187,4189,3812
11577,3812,3811,4187
11578,4368,4251,4673
11579,4673,4768,4368
11580,3644,3645,3962
11581,3962,3961,3644
11582,3744,3827,3828
11583,3828,3745,3744
11584,3826,3827,3744
11585,3744,3743,3826
11586,4117,3827,3826
11587,3826,4116,4117
11588,3963,4062,4061
11589,4061,3962,3963
11590,4382,4264,4060
11591,4265,4382,4060
11592,4060,4061,4265
11593,4382,4782,4686
11594,4686,4264,4382
11595,4382,4265,4687
11596,4687,4782,4382
11597,3961,3962,4061
11598,4061,4060,3961
11599,4383,4265,4061
11600,4266,4383,4061
11601,4061,4062,4266
11602,4383,4783,4687
11603,4687,4265,4383
11604,3828,3827,4117
11605,4117,4118,3828
11606,4385,4785,4689
11607,4689,4267,4385
11608,4384,4267,4689
11609,4689,4784,4384
11610,3760,3843,3844
11611,3844,3761,3760
11612,3842,3843,3760
11613,3760,3759,3842
11614,4196,3843,3842
11615,3842,4198,4196
11616,4077,3978,3979
11617,3979,4078,4077
11618,4398,4280,4076
11619,4281,4398,4076
11620,4076,4077,4281
11621,4398,4798,4702
11622,4702,4280,4398
11623,4398,4281,4703
11624,4703,4798,4398
11625,3978,4077,4076
11626,4076,3977,3978
11627,4399,4281,4077
11628,4282,4399,4077
11629,4077,4078,4282
11630,4399,4282,4704
11631,4704,4799,4399
11632,4399,4799,4703
11633,4703,4281,4399
11634,4194,3844,3843
11635,3843,4196,4194
11636,4401,4284,4706
11637,4706,4801,4401
11638,4400,4800,4704
11639,4704,4282,4400
11640,3890,3777,3776
11641,3776,3892,3890
11642,3892,3776,3775
11643,3775,3894,3892
11644,4164,3892,3894
11645,3894,4166,4164
11646,4093,3994,3995
11647,3995,4094,4093
11648,4414,4296,4092
11649,4297,4414,4092
11650,4092,4093,4297
11651,3994,4093,4092
11652,4092,3993,3994
11653,4415,4297,4093
11654,4298,4415,4093
11655,4093,4094,4298
11656,4415,4298,4720
11657,4720,4815,4415
11658,4415,4815,4719
11659,4719,4297,4415
11660,3892,4164,4162
11661,4162,3890,3892
11662,3913,3911,3693
11663,3693,3694,3913
11664,3792,3864,3861
11665,3861,3790,3792
11666,3793,3860,3864
11667,3864,3792,3793
11668,4113,3864,3860
11669,3860,4130,4113
11670,3913,4014,4109
11671,4109,3911,3913
11672,4312,4108,4109
11673,4109,4430,4312
11674,4109,4314,4430
11675,4430,4830,4734
11676,4734,4312,4430
11677,3911,4109,4108
11678,4108,3908,3911
11679,4314,4109,4014
11680,4014,4431,4314
11681,4014,4317,4431
11682,4431,4831,4735
11683,4735,4314,4431
11684,4011,3861,3864
11685,3864,4113,4011
11686,932,724,725
11687,725,933,932
11688,725,724,613
11689,613,614,725
11690,725,614,515
11691,515,727,725
11692,933,725,727
11693,727,935,933
11694,212,208,511
11695,511,515,212
11696,206,208,212
11697,212,205,206
11698,206,205,83
11699,83,103,206
11700,3174,3282,3183
11701,3183,3075,3174
11702,3075,2867,2966
11703,2966,3174,3075
11704,2867,3075,3073
11705,3073,2865,2867
11706,2550,2342,2407
11707,2407,2756,2550
11708,2756,2758,2550
11709,3180,3073,3075
11710,3075,3183,3180
11711,3907,3604,3605
11712,3605,3905,3907
11713,3801,3799,3867
11714,3867,3869,3801
11715,3799,3798,3866
11716,3866,3867,3799
11717,3867,3866,4136
11718,4136,4138,3867
11719,4021,3905,3923
11720,3923,4022,4021
11721,4342,4224,4020
11722,4225,4342,4020
11723,4020,4021,4225
11724,3907,3905,4021
11725,4021,4020,3907
11726,4225,4021,4022
11727,4022,4343,4225
11728,4022,4226,4343
11729,4343,4226,4648
11730,4648,4743,4343
11731,4343,4743,4647
11732,4647,4225,4343
11733,3869,3867,4138
11734,4138,4140,3869
11735,4345,4228,4650
11736,4650,4745,4345
11737,3621,3938,3937
11738,3937,3620,3621
11739,3938,3621,3622
11740,3622,3939,3938
11741,3899,3901,3721
11742,3721,3720,3899
11743,3897,3899,3720
11744,3720,3719,3897
11745,3899,3897,4169
11746,4169,4171,3899
11747,3939,4038,4037
11748,4037,3938,3939
11749,4358,4240,4036
11750,4241,4358,4036
11751,4036,4037,4241
11752,4358,4241,4663
11753,4663,4758,4358
11754,3937,3938,4037
11755,4037,4036,3937
11756,4359,4241,4037
11757,4242,4359,4037
11758,4037,4038,4242
11759,4359,4242,4664
11760,4664,4759,4359
11761,4359,4759,4663
11762,4663,4241,4359
11763,4171,4173,3901
11764,3901,3899,4171
11765,4360,4760,4664
11766,4664,4242,4360
11767,4360,4243,4665
11768,4665,4760,4360
11769,3820,3737,3736
11770,3736,3819,3820
11771,3818,3819,3736
11772,3736,3735,3818
11773,4201,4203,3819
11774,3819,3818,4201
11775,3955,4054,4053
11776,4053,3954,3955
11777,4374,4256,4052
11778,4257,4374,4052
11779,4052,4053,4257
11780,4374,4774,4678
11781,4678,4256,4374
11782,4374,4257,4679
11783,4679,4774,4374
11784,3953,3954,4053
11785,4053,4052,3953
11786,4375,4257,4053
11787,4258,4375,4053
11788,4053,4054,4258
11789,4375,4775,4679
11790,4679,4257,4375
11791,4203,4205,3820
11792,3820,3819,4203
11793,4377,4260,4682
11794,4682,4777,4377
11795,4376,4776,4680
11796,4680,4258,4376
11797,4376,4259,4681
11798,4681,4776,4376
11799,3652,3653,3970
11800,3970,3969,3652
11801,3653,3654,3971
11802,3971,3970,3653
11803,3836,3753,3752
11804,3752,3835,3836
11805,3834,3835,3752
11806,3752,3751,3834
11807,3835,3834,4124
11808,4124,4212,3835
11809,3971,4070,4069
11810,4069,3970,3971
11811,4390,4272,4068
11812,4273,4390,4068
11813,4068,4069,4273
11814,4390,4790,4694
11815,4694,4272,4390
11816,4390,4273,4695
11817,4695,4790,4390
11818,3969,3970,4069
11819,4069,4068,3969
11820,4391,4273,4069
11821,4274,4391,4069
11822,4069,4070,4274
11823,4391,4791,4695
11824,4695,4273,4391
11825,4210,3836,3835
11826,3835,4212,4210
11827,4393,4276,4698
11828,4698,4793,4393
11829,4392,4792,4696
11830,4696,4274,4392
11831,3852,3769,3768
11832,3768,3851,3852
11833,3850,3851,3768
11834,3768,3767,3850
11835,4180,3851,3850
11836,3850,4182,4180
11837,3987,4086,4085
11838,4085,3986,3987
11839,4406,4288,4084
11840,4289,4406,4084
11841,4084,4085,4289
11842,3985,3986,4085
11843,4085,4084,3985
11844,4289,4085,4086
11845,4086,4407,4289
11846,4086,4290,4407
11847,4407,4290,4712
11848,4712,4807,4407
11849,4407,4807,4711
11850,4711,4289,4407
11851,4178,3852,3851
11852,3851,4180,4178
11853,3684,3685,4002
11854,4002,4001,3684
11855,3685,3686,4003
11856,4003,4002,3685
11857,3874,3785,3784
11858,3784,3876,3874
11859,3876,3784,3783
11860,3783,3878,3876
11861,4147,3876,3878
11862,3878,4150,4147
11863,4002,4003,4102
11864,4102,4101,4002
11865,4304,4100,4101
11866,4101,4422,4304
11867,4101,4305,4422
11868,4422,4305,4727
11869,4727,4822,4422
11870,4101,4100,4001
11871,4001,4002,4101
11872,4305,4101,4102
11873,4102,4423,4305
11874,4102,4306,4423
11875,4423,4823,4727
11876,4727,4305,4423
11877,3876,4147,4145
11878,4145,3874,3876
11879,4425,4308,4730
11880,4730,4825,4425
11881,4424,4824,4728
11882,4728,4306,4424
11883,4424,4307,4729
11884,4729,4824,4424
11885,1040,1240,1238
11886,1238,941,1040
11887,1357,1044,1238
11888,1238,1462,1357
11889,1462,1464,1357
11890,1464,1462,1575
11891,1575,1482,1464
11892,1686,1482,1575
11893,1575,1783,1686
11894,941,1238,1044
11895,1044,937,941
11896,836,1046,1045
11897,1045,835,836
11898,1045,1046,1258
11899,1258,1257,1045
11900,1255,1144,1045
11901,1045,1257,1255
11902,934,835,1045
11903,1045,1144,934
11904,1677,1487,1485
11905,1485,1883,1677
11906,1239,1362,1363
11907,1363,1243,1239
11908,942,940,1237
11909,1237,1239,942
11910,1356,1463,1461
11911,1356,1461,1237
11912,1237,1043,1356
11913,1463,1481,1574
11914,1574,1461,1463
11915,1887,1675,1780
11916,1887,1780,2109
11917,2109,2113,1887
11918,1685,1782,1574
11919,1574,1481,1685
11920,940,936,1043
11921,1043,1237,940
11922,2404,2656,2657
11923,2657,2408,2404
11924,2317,2315,2404
11925,2404,2408,2317
11926,2315,2234,2406
11927,2406,2404,2315
11928,2656,2404,2406
11929,2406,2755,2656
11930,2329,2113,2125
11931,2125,2337,2329
11932,2125,2339,2337
11933,2113,2109,2125
11934,2000,1998,2232
11935,2232,2234,2000
11936,1998,2000,1782
11937,1782,1685,1998
11938,3611,3612,3929
11939,3929,3928,3611
11940,3873,3875,3708
11941,3708,3707,3873
11942,3875,3877,3709
11943,3709,3708,3875
11944,4146,4149,3877
11945,3877,3875,4146
11946,3927,3928,4027
11947,4027,4026,3927
11948,4231,4027,4028
11949,4028,4349,4231
11950,4028,4232,4349
11951,4349,4232,4654
11952,4654,4749,4349
11953,4349,4749,4653
11954,4653,4231,4349
11955,3929,4028,4027
11956,4027,3928,3929
11957,4348,4230,4026
11958,4231,4348,4026
11959,4026,4027,4231
11960,4348,4231,4653
11961,4653,4748,4348
11962,3875,3873,4144
11963,4144,4146,3875
11964,4346,4746,4650
11965,4650,4228,4346
11966,4347,4230,4652
11967,4652,4747,4347
11968,3806,3807,3724
11969,3724,3723,3806
11970,3724,3807,3808
11971,3808,3725,3724
11972,4179,4181,3808
11973,3808,3807,4179
11974,4043,4042,3943
11975,3943,3944,4043
11976,4247,4043,4044
11977,4044,4365,4247
11978,4044,4248,4365
11979,3944,3945,4044
11980,4044,4043,3944
11981,4246,4042,4043
11982,4043,4364,4246
11983,4043,4247,4364
11984,4364,4764,4668
11985,4668,4246,4364
11986,4364,4247,4669
11987,4669,4764,4364
11988,4177,4179,3807
11989,3807,3806,4177
11990,4362,4762,4666
11991,4666,4244,4362
11992,3643,3644,3961
11993,3961,3960,3643
11994,3642,3643,3960
11995,3960,3959,3642
11996,3822,3823,3740
11997,3740,3739,3822
11998,3740,3823,3824
11999,3824,3741,3740
12000,3823,4211,4114
12001,4114,3824,3823
12002,3959,3960,4059
12003,4059,4058,3959
12004,4381,4263,4059
12005,4264,4381,4059
12006,4059,4060,4264
12007,4381,4781,4685
12008,4685,4263,4381
12009,3961,4060,4059
12010,4059,3960,3961
12011,4380,4262,4058
12012,4263,4380,4058
12013,4058,4059,4263
12014,4380,4780,4684
12015,4684,4262,4380
12016,4380,4263,4685
12017,4685,4780,4380
12018,4209,4211,3823
12019,3823,3822,4209
12020,4379,4262,4684
12021,4684,4779,4379
12022,4379,4779,4683
12023,4683,4261,4379
12024,3659,3660,3977
12025,3977,3976,3659
12026,3658,3659,3976
12027,3976,3975,3658
12028,3838,3839,3756
12029,3756,3755,3838
12030,3756,3839,3840
12031,3840,3757,3756
12032,4202,3840,3839
12033,3839,4204,4202
12034,3975,3976,4075
12035,4075,4074,3975
12036,4397,4279,4075
12037,4280,4397,4075
12038,4075,4076,4280
12039,4397,4280,4702
12040,4702,4797,4397
12041,4397,4797,4701
12042,4701,4279,4397
12043,3977,4076,4075
12044,4075,3976,3977
12045,4396,4278,4074
12046,4279,4396,4074
12047,4074,4075,4279
12048,4396,4279,4701
12049,4701,4796,4396
12050,4204,3839,3838
12051,3838,4206,4204
12052,4394,4794,4698
12053,4698,4276,4394
12054,4394,4277,4699
12055,4699,4794,4394
12056,4395,4278,4700
12057,4700,4795,4395
12058,4395,4795,4699
12059,4699,4277,4395
12060,3900,3772,3771
12061,3771,3902,3900
12062,3898,3773,3772
12063,3772,3900,3898
12064,3900,4172,4170
12065,4170,3898,3900
12066,4091,4090,3991
12067,3991,3992,4091
12068,4295,4091,4092
12069,4092,4413,4295
12070,4092,4296,4413
12071,4413,4296,4718
12072,4718,4813,4413
12073,4413,4813,4717
12074,4717,4295,4413
12075,3992,3993,4092
12076,4092,4091,3992
12077,4294,4090,4091
12078,4091,4412,4294
12079,4091,4295,4412
12080,4412,4295,4717
12081,4717,4812,4412
12082,4172,3900,3902
12083,3902,4174,4172
12084,4410,4810,4714
12085,4714,4292,4410
12086,3908,3906,3691
12087,3691,3692,3908
12088,3802,3870,3868
12089,3868,3800,3802
12090,3800,3868,3865
12091,3865,3797,3800
12092,3868,4139,4137
12093,4137,3865,3868
12094,4107,4106,4007
12095,4007,3906,4107
12096,4429,4311,4107
12097,4312,4429,4107
12098,4107,4108,4312
12099,3908,4108,4107
12100,4107,3906,3908
12101,4428,4310,4106
12102,4311,4428,4106
12103,4106,4107,4311
12104,4428,4828,4732
12105,4732,4310,4428
12106,4428,4311,4733
12107,4733,4828,4428
12108,3870,4141,4139
12109,4139,3868,3870
12110,4426,4309,4731
12111,4731,4826,4426
12112,932,933,1143
12113,1143,1142,932
12114,1354,1142,1143
12115,1143,1355,1354
12116,1256,1355,1143
12117,1143,1145,1256
12118,935,1145,1143
12119,1143,933,935
12120,1678,1884,1486
12121,1486,1488,1678
12122,2405,2409,2753
12123,2753,2754,2405
12124,2318,2409,2405
12125,2405,2316,2318
12126,2316,2405,2407
12127,2407,2235,2316
12128,2754,2756,2407
12129,2407,2405,2754
12130,2126,2110,2114
12131,2114,2332,2126
12132,2338,2340,2126
12133,2126,2332,2338
12134,2001,2235,2233
12135,2233,1999,2001
12136,1999,1686,1783
12137,1783,2001,1999
12138,3920,3918,3696
12139,3696,3697,3920
12140,3697,3597,3922
12141,3922,3920,3697
12142,7088,7021,7020
12143,7020,7087,7088
12144,6685,7087,7086
12145,7086,6684,6685
12146,7026,7025,7092
12147,7092,7093,7026
12148,6691,6692,7094
12149,7094,7093,6691
12150,6896,6894,7100
12151,7100,7101,6896
12152,6699,6700,7102
12153,7102,7101,6699
12154,6886,6884,7095
12155,7095,7096,6886
12156,6693,7095,7094
12157,7094,6692,6693
12158,6935,6932,7119
12159,7119,7120,6935
12160,6717,7119,7118
12161,7118,6716,6717
12162,6945,6943,7124
12163,7124,7125,6945
12164,6723,6724,7126
12165,7126,7125,6723
12166,6961,6959,7132
12167,7132,7133,6961
12168,6731,6732,7134
12169,7134,7133,6731
12170,6951,6949,7127
12171,7127,7128,6951
12172,6725,7127,7126
12173,7126,6724,6725
12174,6999,6997,7151
12175,7151,7152,6999
12176,6749,7151,7150
12177,7150,6748,6749
12178,7009,7007,7156
12179,7156,7157,7009
12180,6755,6756,7158
12181,7158,7157,6755
12182,7031,7030,7164
12183,7164,7165,7031
12184,7165,6763,6764
12185,6764,7166,7165
12186,7015,7013,7159
12187,7159,7160,7015
12188,6757,7159,7158
12189,7158,6756,6757
12190,7184,7050,7049
12191,7049,7183,7184
12192,7182,6780,6781
12193,6781,7183,7182
12194,7055,7054,7188
12195,7188,7189,7055
12196,7189,6787,6788
12197,6788,7190,7189
12198,7197,7063,7062
12199,7062,7196,7197
12200,6795,6796,7198
12201,7198,7197,6795
12202,7192,7058,7057
12203,7057,7191,7192
12204,6789,7191,7190
12205,7190,6788,6789
12206,6994,7215,7216
12207,7216,6992,6994
12208,6813,7215,7214
12209,7214,6812,6813
12210,6984,7220,7221
12211,7221,6982,6984
12212,6819,6820,7222
12213,7222,7221,6819
12214,6968,7228,7229
12215,7229,6966,6968
12216,6827,6828,7230
12217,7230,7229,6827
12218,6978,7223,7224
12219,7224,6976,6978
12220,6821,7223,7222
12221,7222,6820,6821
12222,6929,7247,7248
12223,7248,6927,6929
12224,6845,7247,7246
12225,7246,6844,6845
12226,6919,7252,7253
12227,7253,6917,6919
12228,6851,6852,7254
12229,7254,7253,6851
12230,6903,7260,7261
12231,7261,6901,6903
12232,6859,6860,7262
12233,7262,7261,6859
12234,6913,7255,7256
12235,7256,6911,6913
12236,6853,7255,7254
12237,7254,6852,6853
12238,6928,6926,7116
12239,7116,7117,6928
12240,6715,6716,7118
12241,7118,7117,6715
12242,6918,6916,7111
12243,7111,7112,6918
12244,6709,7111,7110
12245,7110,6708,6709
12246,6902,6900,7103
12247,7103,7104,6902
12248,6701,7103,7102
12249,7102,6700,6701
12250,6912,6910,7108
12251,7108,7109,6912
12252,6707,6708,7110
12253,7110,7109,6707
12254,6993,6991,7148
12255,7148,7149,6993
12256,6747,6748,7150
12257,7150,7149,6747
12258,6983,6981,7143
12259,7143,7144,6983
12260,6741,7143,7142
12261,7142,6740,6741
12262,6967,6965,7135
12263,7135,7136,6967
12264,6733,7135,7134
12265,7134,6732,6733
12266,6977,6975,7140
12267,7140,7141,6977
12268,6739,6740,7142
12269,7142,7141,6739
12270,7047,7046,7180
12271,7180,7181,7047
12272,6780,7182,7181
12273,7181,6779,6780
12274,7176,7042,7041
12275,7041,7175,7176
12276,6773,7175,7174
12277,7174,6772,6773
12278,7167,7168,7034
12279,7034,7033,7167
12280,6765,7167,7166
12281,7166,6764,6765
12282,7039,7038,7172
12283,7172,7173,7039
12284,7173,6771,6772
12285,6772,7174,7173
12286,7000,7212,7213
12287,7213,6998,7000
12288,6811,6812,7214
12289,7214,7213,6811
12290,7010,7207,7208
12291,7208,7008,7010
12292,6805,7207,7206
12293,7206,6804,6805
12294,7200,7066,7065
12295,7065,7199,7200
12296,7199,7198,6796
12297,6796,6797,7199
12298,7016,7204,7205
12299,7205,7014,7016
12300,6803,6804,7206
12301,7206,7205,6803
12302,6936,7244,7245
12303,7245,6933,6936
12304,6843,6844,7246
12305,7246,7245,6843
12306,6946,7239,7240
12307,7240,6944,6946
12308,6837,7239,7238
12309,7238,6836,6837
12310,6962,7231,7232
12311,7232,6960,6962
12312,6829,7231,7230
12313,7230,6828,6829
12314,6952,7236,7237
12315,7237,6950,6952
12316,6835,6836,7238
12317,7238,7237,6835
12318,7076,7075,7276
12319,7276,7277,7076
12320,6875,6876,7278
12321,7278,7277,6875
12322,7071,7070,7271
12323,7271,7272,7071
12324,6869,7271,7270
12325,7270,6868,6869
12326,6897,7263,7264
12327,7264,6895,6897
12328,6861,7263,7262
12329,7262,6860,6861
12330,6887,7268,7269
12331,7269,6885,6887
12332,6867,6868,7270
12333,7270,7269,6867
12334,3805,3703,3705
12335,3705,3855,3805
12336,3699,3803,3922
12337,3597,3595,3699
12338,3699,3922,3597
12339,5446,5242,4333
12340,5243,5446,4333
12341,4333,4334,5243
12342,4009,4012,3805
12343,3805,3855,4009
12344,5448,5243,4334
12345,5241,5448,4334
12346,4334,4331,5241
12347,3703,3805,3914
12348,3914,3701,3703
12349,4213,3914,3805
12350,3805,4012,4213
12351,4125,3922,3803
12352,3803,4214,4125
12353,4315,4331,4125
12354,4125,4214,4315
12355,5443,5241,4837
12356,4837,5239,5443
12357,4837,5241,4331
12358,4434,4837,4331
12359,4331,4432,4434
12360,4331,4315,4432
12361,3804,3853,3704
12362,3704,3702,3804
12363,3921,4008,3698
12364,3598,3921,3698
12365,3698,3596,3598
12366,4337,4220,4642
12367,4642,4737,4337
12368,4126,3853,3804
12369,3804,4215,4126
12370,4336,4219,4641
12371,4641,4736,4336
12372,3702,3700,3909
12373,3909,3804,3702
12374,4128,4215,3804
12375,3804,3909,4128
12376,4008,3921,4112
12377,4112,4134,4008
12378,4216,4134,4112
12379,4112,4313,4216
12380,4335,4316,4216
12381,4216,4313,4335
12382,4335,4313,4640
12383,4640,4639,4335
12384,4316,4435,4218
12385,4218,4216,4316
12386,4435,4316,4335
12387,4435,4335,4639
12388,4639,4833,4435
12389,5238,5037,4541
12390,5038,5238,4541
12391,4541,4538,5038
12392,5238,5853,5851
12393,5851,5037,5238
12394,5238,5038,5852
12395,5852,5853,5238
12396,5034,4631,4541
12397,4541,5037,5034
12398,5235,5039,5034
12399,5034,5037,5235
12400,4631,5034,4836
12401,4836,4536,4631
12402,5039,5245,4836
12403,4836,5034,5039
12404,5235,5037,5851
12405,5851,5656,5235
12406,5440,5438,5587
12407,5587,5589,5440
12408,5669,5668,5054
12409,5054,5055,5669
12410,5871,5870,5669
12411,5669,5670,5871
12412,5869,5668,5669
12413,5669,5870,5869
12414,5670,5669,5055
12415,5055,5056,5670
12416,5438,5436,5585
12417,5585,5587,5438
12418,5668,5667,5053
12419,5053,5054,5668
12420,5867,5666,5667
12421,5667,5868,5867
12422,5667,5666,5052
12423,5052,5053,5667
12424,5869,5868,5667
12425,5667,5668,5869
12426,6665,6663,7020
12427,7020,7021,6665
12428,6685,6684,6278
12429,6278,6279,6685
12430,5863,5864,6279
12431,6279,6278,5863
12432,5865,6280,6279
12433,6279,5864,5865
12434,7022,7021,7088
12435,7088,7089,7022
12436,7090,7089,6687
12437,6687,6688,7090
12438,6667,6665,7021
12439,7021,7022,6667
12440,6281,6282,6688
12441,6688,6687,6281
12442,5431,5429,5577
12443,5577,5578,5431
12444,5863,5662,5663
12445,5663,5864,5863
12446,5663,5662,5048
12447,5048,5049,5663
12448,5865,5864,5663
12449,5663,5664,5865
12450,5432,5431,5578
12451,5578,5579,5432
12452,5867,5866,5665
12453,5665,5666,5867
12454,5865,5664,5665
12455,5665,5866,5865
12456,6675,6673,7025
12457,7025,7026,6675
12458,6692,6691,6285
12459,6285,6286,6692
12460,5871,6286,6285
12461,6285,5870,5871
12462,5869,5870,6285
12463,6285,6284,5869
12464,7092,7025,7024
12465,7024,7091,7092
12466,6689,7091,7090
12467,7090,6688,6689
12468,6673,6671,7024
12469,7024,7025,6673
12470,6282,6283,6689
12471,6689,6688,6282
12472,5592,5594,5249
12473,5249,5248,5592
12474,5871,5670,5671
12475,5671,5872,5871
12476,5873,5872,5671
12477,5671,5672,5873
12478,5594,5596,5250
12479,5250,5249,5594
12480,5673,5672,5058
12481,5058,5059,5673
12482,5875,5874,5673
12483,5673,5674,5875
12484,5873,5672,5673
12485,5673,5874,5873
12486,5674,5673,5059
12487,5059,5060,5674
12488,6894,6892,7099
12489,7099,7100,6894
12490,7098,6696,6697
12491,6697,7099,7098
12492,6894,6896,6486
12493,6486,6485,6894
12494,6293,6294,6700
12495,6700,6699,6293
12496,5879,6294,6293
12497,6293,5878,5879
12498,5877,5878,6293
12499,6293,6292,5877
12500,6892,6894,6485
12501,6485,6484,6892
12502,6290,6291,6697
12503,6697,6696,6290
12504,6884,6886,6481
12505,6481,6480,6884
12506,6287,6693,6692
12507,6692,6286,6287
12508,5871,5872,6287
12509,6287,6286,5871
12510,5873,6288,6287
12511,6287,5872,5873
12512,6888,6886,7096
12513,7096,7097,6888
12514,6695,6696,7098
12515,7098,7097,6695
12516,6886,6888,6482
12517,6482,6481,6886
12518,6289,6290,6696
12519,6696,6695,6289
12520,5602,5604,5254
12521,5254,5253,5602
12522,5879,5878,5677
12523,5677,5678,5879
12524,5877,5676,5677
12525,5677,5878,5877
12526,5600,5602,5253
12527,5253,5252,5600
12528,5875,5674,5675
12529,5675,5876,5875
12530,5675,5674,5060
12531,5060,5061,5675
12532,5676,5877,5876
12533,5876,5675,5676
12534,5277,5652,5654
12535,5654,5278,5277
12536,5086,5087,5701
12537,5701,5700,5086
12538,5903,5902,5701
12539,5701,5702,5903
12540,5901,5700,5701
12541,5701,5902,5901
12542,5702,5701,5087
12543,5087,5088,5702
12544,5650,5652,5277
12545,5277,5276,5650
12546,5700,5699,5085
12547,5085,5086,5700
12548,5899,5698,5699
12549,5699,5900,5899
12550,5699,5698,5084
12551,5084,5085,5699
12552,5901,5900,5699
12553,5699,5700,5901
12554,6932,6935,6505
12555,6505,6504,6932
12556,6717,6716,6310
12557,6310,6311,6717
12558,5895,5896,6311
12559,6311,6310,5895
12560,6312,6311,5896
12561,5896,5897,6312
12562,6937,6935,7120
12563,7120,7121,6937
12564,7122,7121,6719
12565,6719,6720,7122
12566,6935,6937,6506
12567,6506,6505,6935
12568,6313,6314,6720
12569,6720,6719,6313
12570,5642,5644,5273
12571,5273,5272,5642
12572,5895,5694,5695
12573,5695,5896,5895
12574,5897,5896,5695
12575,5695,5696,5897
12576,5695,5694,5080
12577,5080,5081,5695
12578,5644,5646,5274
12579,5274,5273,5644
12580,5899,5898,5697
12581,5697,5698,5899
12582,5897,5696,5697
12583,5697,5898,5897
12584,6943,6945,6510
12585,6510,6509,6943
12586,6724,6723,6317
12587,6317,6318,6724
12588,5903,6318,6317
12589,6317,5902,5903
12590,5901,5902,6317
12591,6317,6316,5901
12592,6943,6941,7123
12593,7123,7124,6943
12594,6721,7123,7122
12595,7122,6720,6721
12596,6941,6943,6509
12597,6509,6508,6941
12598,6314,6315,6721
12599,6721,6720,6314
12600,5461,5281,5280
12601,5280,5460,5461
12602,5903,5702,5703
12603,5703,5904,5903
12604,5905,5904,5703
12605,5703,5704,5905
12606,5461,5462,5282
12607,5282,5281,5461
12608,5705,5704,5090
12609,5090,5091,5705
12610,5907,5906,5705
12611,5705,5706,5907
12612,5905,5704,5705
12613,5705,5906,5905
12614,5706,5705,5091
12615,5091,5092,5706
12616,6959,6957,7131
12617,7131,7132,6959
12618,7130,6728,6729
12619,6729,7131,7130
12620,6959,6961,6518
12621,6518,6517,6959
12622,6325,6326,6732
12623,6732,6731,6325
12624,5911,6326,6325
12625,6325,5910,5911
12626,5909,5910,6325
12627,6325,6324,5909
12628,6957,6959,6517
12629,6517,6516,6957
12630,6322,6323,6729
12631,6729,6728,6322
12632,6949,6951,6513
12633,6513,6512,6949
12634,6319,6725,6724
12635,6724,6318,6319
12636,5903,5904,6319
12637,6319,6318,5903
12638,5905,6320,6319
12639,6319,5904,5905
12640,6953,6951,7128
12641,7128,7129,6953
12642,6727,6728,7130
12643,7130,7129,6727
12644,6951,6953,6514
12645,6514,6513,6951
12646,6321,6322,6728
12647,6728,6727,6321
12648,5285,5465,5466
12649,5466,5286,5285
12650,5911,5910,5709
12651,5709,5710,5911
12652,5909,5708,5709
12653,5709,5910,5909
12654,5465,5285,5284
12655,5284,5464,5465
12656,5907,5706,5707
12657,5707,5908,5907
12658,5707,5706,5092
12659,5092,5093,5707
12660,5708,5909,5908
12661,5908,5707,5708
12662,5490,5310,5309
12663,5309,5489,5490
12664,5118,5119,5733
12665,5733,5732,5118
12666,5935,5934,5733
12667,5733,5734,5935
12668,5933,5732,5733
12669,5733,5934,5933
12670,5734,5733,5119
12671,5119,5120,5734
12672,5489,5309,5308
12673,5308,5488,5489
12674,5732,5731,5117
12675,5117,5118,5732
12676,5931,5730,5731
12677,5731,5932,5931
12678,5731,5730,5116
12679,5116,5117,5731
12680,5933,5932,5731
12681,5731,5732,5933
12682,6997,6999,6537
12683,6537,6536,6997
12684,6749,6748,6342
12685,6342,6343,6749
12686,5927,5928,6343
12687,6343,6342,5927
12688,5929,6344,6343
12689,6343,5928,5929
12690,7001,6999,7152
12691,7152,7153,7001
12692,7154,7153,6751
12693,6751,6752,7154
12694,6537,6999,7001
12695,7001,6538,6537
12696,6345,6346,6752
12697,6752,6751,6345
12698,5485,5305,5304
12699,5304,5484,5485
12700,5927,5726,5727
12701,5727,5928,5927
12702,5929,5928,5727
12703,5727,5728,5929
12704,5727,5726,5112
12705,5112,5113,5727
12706,5306,5305,5485
12707,5485,5486,5306
12708,5931,5930,5729
12709,5729,5730,5931
12710,5929,5728,5729
12711,5729,5930,5929
12712,6541,7007,7009
12713,7009,6542,6541
12714,6755,6349,6350
12715,6350,6756,6755
12716,5935,6350,6349
12717,6349,5934,5935
12718,5933,5934,6349
12719,6349,6348,5933
12720,7007,7005,7155
12721,7155,7156,7007
12722,6753,7155,7154
12723,7154,6752,6753
12724,7005,7007,6541
12725,6541,6540,7005
12726,6346,6347,6753
12727,6753,6752,6346
12728,5493,5313,5312
12729,5312,5492,5493
12730,5735,5936,5935
12731,5935,5734,5735
12732,5936,5735,5736
12733,5736,5937,5936
12734,5494,5314,5313
12735,5313,5493,5494
12736,5123,5737,5736
12737,5736,5122,5123
12738,5939,5938,5737
12739,5737,5738,5939
12740,5937,5736,5737
12741,5737,5938,5937
12742,5737,5123,5124
12743,5124,5738,5737
12744,7164,7030,7029
12745,7029,7163,7164
12746,7163,7162,6760
12747,6760,6761,7163
12748,6549,7030,7031
12749,7031,6550,6549
12750,6357,6358,6764
12751,6764,6763,6357
12752,5943,6358,6357
12753,6357,5942,5943
12754,5941,5942,6357
12755,6357,6356,5941
12756,6548,7029,7030
12757,7030,6549,6548
12758,6355,6761,6760
12759,6760,6354,6355
12760,7013,7015,6545
12761,6545,6544,7013
12762,6351,6757,6756
12763,6756,6350,6351
12764,6351,6350,5935
12765,5935,5936,6351
12766,5936,5937,6352
12767,6352,6351,5936
12768,7027,7015,7160
12769,7160,7161,7027
12770,6759,6760,7162
12771,7162,7161,6759
12772,7015,7027,6546
12773,6546,6545,7015
12774,6353,6354,6760
12775,6760,6759,6353
12776,5318,5317,5497
12777,5497,5498,5318
12778,5943,5942,5741
12779,5741,5742,5943
12780,5941,5740,5741
12781,5741,5942,5941
12782,5316,5496,5497
12783,5497,5317,5316
12784,5939,5738,5739
12785,5739,5940,5939
12786,5125,5739,5738
12787,5738,5124,5125
12788,5941,5940,5739
12789,5739,5740,5941
12790,5522,5342,5341
12791,5341,5521,5522
12792,5765,5764,5150
12793,5150,5151,5765
12794,5967,5966,5765
12795,5765,5766,5967
12796,5965,5764,5765
12797,5765,5966,5965
12798,5766,5765,5151
12799,5151,5152,5766
12800,5521,5341,5340
12801,5340,5520,5521
12802,5149,5150,5764
12803,5764,5763,5149
12804,5963,5762,5763
12805,5763,5964,5963
12806,5763,5762,5148
12807,5148,5149,5763
12808,5965,5964,5763
12809,5763,5764,5965
12810,7049,7050,6569
12811,6569,6568,7049
12812,6374,6375,6781
12813,6781,6780,6374
12814,5959,5960,6375
12815,6375,6374,5959
12816,5961,6376,6375
12817,6375,5960,5961
12818,7051,7050,7184
12819,7184,7185,7051
12820,7186,7185,6783
12821,6783,6784,7186
12822,6569,7050,7051
12823,7051,6570,6569
12824,6377,6378,6784
12825,6784,6783,6377
12826,5517,5337,5336
12827,5336,5516,5517
12828,5959,5758,5759
12829,5759,5960,5959
12830,5961,5960,5759
12831,5759,5760,5961
12832,5144,5145,5759
12833,5759,5758,5144
12834,5338,5337,5517
12835,5517,5518,5338
12836,5761,5762,5963
12837,5963,5962,5761
12838,5962,5961,5760
12839,5760,5761,5962
12840,6573,7054,7055
12841,7055,6574,6573
12842,6788,6787,6381
12843,6381,6382,6788
12844,5967,6382,6381
12845,6381,5966,5967
12846,5965,5966,6381
12847,6381,6380,5965
12848,7187,7188,7054
12849,7054,7053,7187
12850,6785,7187,7186
12851,7186,6784,6785
12852,6573,6572,7053
12853,7053,7054,6573
12854,6378,6379,6785
12855,6785,6784,6378
12856,5524,5525,5345
12857,5345,5344,5524
12858,5967,5766,5767
12859,5767,5968,5967
12860,5969,5968,5767
12861,5767,5768,5969
12862,5525,5526,5346
12863,5346,5345,5525
12864,5769,5768,5154
12865,5154,5155,5769
12866,5769,5770,5971
12867,5971,5970,5769
12868,5970,5969,5768
12869,5768,5769,5970
12870,5770,5769,5155
12871,5155,5156,5770
12872,7196,7062,7061
12873,7061,7195,7196
12874,7195,7194,6792
12875,6792,6793,7195
12876,6582,6581,7062
12877,7062,7063,6582
12878,6389,6390,6796
12879,6796,6795,6389
12880,6389,5974,5975
12881,5975,6390,6389
12882,5974,6389,6388
12883,6388,5973,5974
12884,7061,7062,6581
12885,6581,6580,7061
12886,6387,6793,6792
12887,6792,6386,6387
12888,6576,7057,7058
12889,7058,6577,6576
12890,6383,6789,6788
12891,6788,6382,6383
12892,5967,5968,6383
12893,6383,6382,5967
12894,5969,6384,6383
12895,6383,5968,5969
12896,7059,7058,7192
12897,7192,7193,7059
12898,6791,6792,7194
12899,7194,7193,6791
12900,7059,6578,6577
12901,6577,7058,7059
12902,6791,6385,6386
12903,6386,6792,6791
12904,5350,5349,5529
12905,5529,5530,5350
12906,5975,5974,5773
12907,5773,5774,5975
12908,5973,5772,5773
12909,5773,5974,5973
12910,5528,5529,5349
12911,5349,5348,5528
12912,5971,5770,5771
12913,5771,5972,5971
12914,5771,5770,5156
12915,5156,5157,5771
12916,5973,5972,5771
12917,5771,5772,5973
12918,5553,5554,5374
12919,5374,5373,5553
12920,5796,5182,5183
12921,5183,5797,5796
12922,5999,5998,5797
12923,5797,5798,5999
12924,5796,5797,5998
12925,5998,5997,5796
12926,5798,5797,5183
12927,5183,5184,5798
12928,5373,5372,5552
12929,5552,5553,5373
12930,5182,5796,5795
12931,5795,5181,5182
12932,5995,5794,5795
12933,5795,5996,5995
12934,5795,5794,5180
12935,5180,5181,5795
12936,5997,5996,5795
12937,5795,5796,5997
12938,6992,6601,6600
12939,6600,6994,6992
12940,6813,6812,6406
12941,6406,6407,6813
12942,5991,5992,6407
12943,6407,6406,5991
12944,5993,6408,6407
12945,6407,5992,5993
12946,6992,7216,7217
12947,7217,6990,6992
12948,7218,7217,6815
12949,6815,6816,7218
12950,6990,6602,6601
12951,6601,6992,6990
12952,6409,6410,6816
12953,6816,6815,6409
12954,5549,5369,5368
12955,5368,5548,5549
12956,5991,5790,5791
12957,5791,5992,5991
12958,5993,5992,5791
12959,5791,5792,5993
12960,5791,5790,5176
12961,5176,5177,5791
12962,5370,5369,5549
12963,5549,5550,5370
12964,5995,5994,5793
12965,5793,5794,5995
12966,5993,5792,5793
12967,5793,5994,5993
12968,6982,6606,6605
12969,6605,6984,6982
12970,6820,6819,6413
12971,6413,6414,6820
12972,5999,6414,6413
12973,6413,5998,5999
12974,6412,5997,5998
12975,5998,6413,6412
12976,6986,7219,7220
12977,7220,6984,6986
12978,6817,7219,7218
12979,7218,6816,6817
12980,6984,6605,6604
12981,6604,6986,6984
12982,6410,6411,6817
12983,6817,6816,6410
12984,5557,5377,5376
12985,5376,5556,5557
12986,5999,5798,5799
12987,5799,6000,5999
12988,6001,6000,5799
12989,5799,5800,6001
12990,5557,5558,5378
12991,5378,5377,5557
12992,5801,5800,5186
12993,5186,5187,5801
12994,6003,6002,5801
12995,5801,5802,6003
12996,6001,5800,5801
12997,5801,6002,6001
12998,5802,5801,5187
12999,5187,5188,5802
13000,6970,7227,7228
13001,7228,6968,6970
13002,7226,6824,6825
13003,6825,7227,7226
13004,6966,6614,6613
13005,6613,6968,6966
13006,6421,6422,6828
13007,6828,6827,6421
13008,6007,6422,6421
13009,6421,6006,6007
13010,6420,6005,6006
13011,6006,6421,6420
13012,6968,6613,6612
13013,6612,6970,6968
13014,6418,6419,6825
13015,6825,6824,6418
13016,6976,6609,6608
13017,6608,6978,6976
13018,6415,6821,6820
13019,6820,6414,6415
13020,5999,6000,6415
13021,6415,6414,5999
13022,6001,6416,6415
13023,6415,6000,6001
13024,6976,7224,7225
13025,7225,6974,6976
13026,6823,6824,7226
13027,7226,7225,6823
13028,6974,6610,6609
13029,6609,6976,6974
13030,6417,6418,6824
13031,6824,6823,6417
13032,5561,5562,5382
13033,5382,5381,5561
13034,6007,6006,5805
13035,5805,5806,6007
13036,5804,5805,6006
13037,6006,6005,5804
13038,5381,5380,5560
13039,5560,5561,5381
13040,6003,5802,5803
13041,5803,6004,6003
13042,5803,5802,5188
13043,5188,5189,5803
13044,6005,6004,5803
13045,5803,5804,6005
13046,5625,5406,5405
13047,5405,5627,5625
13048,5828,5214,5215
13049,5215,5829,5828
13050,6031,6030,5829
13051,5829,5830,6031
13052,5828,5829,6030
13053,6030,6029,5828
13054,5830,5829,5215
13055,5215,5216,5830
13056,5627,5405,5404
13057,5404,5629,5627
13058,5214,5828,5827
13059,5827,5213,5214
13060,6027,5826,5827
13061,5827,6028,6027
13062,5827,5826,5212
13063,5212,5213,5827
13064,6029,6028,5827
13065,5827,5828,6029
13066,6927,6633,6632
13067,6632,6929,6927
13068,6845,6844,6438
13069,6438,6439,6845
13070,6023,6024,6439
13071,6439,6438,6023
13072,6440,6439,6024
13073,6024,6025,6440
13074,6927,7248,7249
13075,7249,6925,6927
13076,7250,7249,6847
13077,6847,6848,7250
13078,6925,6634,6633
13079,6633,6927,6925
13080,6441,6442,6848
13081,6848,6847,6441
13082,5636,5401,5400
13083,5400,5638,5636
13084,6023,5822,5823
13085,5823,6024,6023
13086,6025,6024,5823
13087,5823,5824,6025
13088,5823,5822,5208
13089,5208,5209,5823
13090,5634,5402,5401
13091,5401,5636,5634
13092,6027,6026,5825
13093,5825,5826,6027
13094,6025,5824,5825
13095,5825,6026,6025
13096,6917,6638,6637
13097,6637,6919,6917
13098,6852,6851,6445
13099,6445,6446,6852
13100,6031,6446,6445
13101,6445,6030,6031
13102,6029,6030,6445
13103,6445,6444,6029
13104,6921,7251,7252
13105,7252,6919,6921
13106,6849,7251,7250
13107,7250,6848,6849
13108,6919,6637,6636
13109,6636,6921,6919
13110,6442,6443,6849
13111,6849,6848,6442
13112,5619,5409,5408
13113,5408,5621,5619
13114,6031,5830,5831
13115,5831,6032,6031
13116,6033,6032,5831
13117,5831,5832,6033
13118,5617,5410,5409
13119,5409,5619,5617
13120,5833,5832,5218
13121,5218,5219,5833
13122,6035,6034,5833
13123,5833,5834,6035
13124,6033,5832,5833
13125,5833,6034,6033
13126,5834,5833,5219
13127,5219,5220,5834
13128,6905,7259,7260
13129,7260,6903,6905
13130,7258,6856,6857
13131,6857,7259,7258
13132,6901,6646,6645
13133,6645,6903,6901
13134,6453,6454,6860
13135,6860,6859,6453
13136,6039,6454,6453
13137,6453,6038,6039
13138,6037,6038,6453
13139,6453,6452,6037
13140,6903,6645,6644
13141,6644,6905,6903
13142,6450,6451,6857
13143,6857,6856,6450
13144,6911,6641,6640
13145,6640,6913,6911
13146,6447,6853,6852
13147,6852,6446,6447
13148,6031,6032,6447
13149,6447,6446,6031
13150,6033,6448,6447
13151,6447,6032,6033
13152,6911,7256,7257
13153,7257,6909,6911
13154,6855,6856,7258
13155,7258,7257,6855
13156,6909,6642,6641
13157,6641,6911,6909
13158,6449,6450,6856
13159,6856,6855,6449
13160,5609,5414,5413
13161,5413,5611,5609
13162,6039,6038,5837
13163,5837,5838,6039
13164,5836,5837,6038
13165,6038,6037,5836
13166,5611,5413,5412
13167,5412,5613,5611
13168,6035,5834,5835
13169,5835,6036,6035
13170,5835,5834,5220
13171,5220,5221,5835
13172,6037,6036,5835
13173,5835,5836,6037
13174,5624,5626,5265
13175,5265,5264,5624
13176,5074,5688,5687
13177,5687,5073,5074
13178,5887,5686,5687
13179,5687,5888,5887
13180,5889,5888,5687
13181,5687,5688,5889
13182,5687,5686,5072
13183,5072,5073,5687
13184,5626,5628,5266
13185,5266,5265,5626
13186,5688,5074,5075
13187,5075,5689,5688
13188,5891,5890,5689
13189,5689,5690,5891
13190,5690,5689,5075
13191,5075,5076,5690
13192,5688,5689,5890
13193,5890,5889,5688
13194,6926,6928,6502
13195,6502,6501,6926
13196,6715,6309,6310
13197,6310,6716,6715
13198,5895,6310,6309
13199,6309,5894,5895
13200,5893,5894,6309
13201,6309,6308,5893
13202,6926,6924,7115
13203,7115,7116,6926
13204,7114,6712,6713
13205,6713,7115,7114
13206,6924,6926,6501
13207,6501,6500,6924
13208,6306,6307,6713
13209,6713,6712,6306
13210,5635,5637,5270
13211,5270,5269,5635
13212,5895,5894,5693
13213,5693,5694,5895
13214,5694,5693,5079
13215,5079,5080,5694
13216,5893,5692,5693
13217,5693,5894,5893
13218,5633,5635,5269
13219,5269,5268,5633
13220,5891,5690,5691
13221,5691,5892,5891
13222,5692,5893,5892
13223,5892,5691,5692
13224,6916,6918,6497
13225,6497,6496,6916
13226,6709,6708,6302
13227,6302,6303,6709
13228,5887,5888,6303
13229,6303,6302,5887
13230,5889,6304,6303
13231,6303,5888,5889
13232,6920,6918,7112
13233,7112,7113,6920
13234,6711,6712,7114
13235,7114,7113,6711
13236,6918,6920,6498
13237,6498,6497,6918
13238,6305,6306,6712
13239,6712,6711,6305
13240,5618,5620,5262
13241,5262,5261,5618
13242,5887,5886,5685
13243,5685,5686,5887
13244,5885,5684,5685
13245,5685,5886,5885
13246,5616,5618,5261
13247,5261,5260,5616
13248,5684,5683,5069
13249,5069,5070,5684
13250,5883,5682,5683
13251,5683,5884,5883
13252,5683,5682,5068
13253,5068,5069,5683
13254,5684,5885,5884
13255,5884,5683,5684
13256,6900,6902,6489
13257,6489,6488,6900
13258,6701,6700,6294
13259,6294,6295,6701
13260,5879,5880,6295
13261,6295,6294,5879
13262,5881,6296,6295
13263,6295,5880,5881
13264,6904,6902,7104
13265,7104,7105,6904
13266,7106,7105,6703
13267,6703,6704,7106
13268,6902,6904,6490
13269,6490,6489,6902
13270,6297,6298,6704
13271,6704,6703,6297
13272,5608,5610,5257
13273,5257,5256,5608
13274,5879,5678,5679
13275,5679,5880,5879
13276,5679,5678,5064
13277,5064,5065,5679
13278,5881,5880,5679
13279,5679,5680,5881
13280,5610,5612,5258
13281,5258,5257,5610
13282,5681,5680,5066
13283,5066,5067,5681
13284,5883,5882,5681
13285,5681,5682,5883
13286,5881,5680,5681
13287,5681,5882,5881
13288,6910,6912,6494
13289,6494,6493,6910
13290,6707,6301,6302
13291,6302,6708,6707
13292,5887,6302,6301
13293,6301,5886,5887
13294,5885,5886,6301
13295,6301,6300,5885
13296,6910,6908,7107
13297,7107,7108,6910
13298,6705,7107,7106
13299,7106,6704,6705
13300,6908,6910,6493
13301,6493,6492,6908
13302,6298,6299,6705
13303,6705,6704,6298
13304,5477,5297,5296
13305,5296,5476,5477
13306,5720,5719,5105
13307,5105,5106,5720
13308,5919,5718,5719
13309,5719,5920,5919
13310,5720,5921,5920
13311,5920,5719,5720
13312,5719,5718,5104
13313,5104,5105,5719
13314,5298,5297,5477
13315,5477,5478,5298
13316,5106,5107,5721
13317,5721,5720,5106
13318,5923,5922,5721
13319,5721,5722,5923
13320,5722,5721,5107
13321,5107,5108,5722
13322,5921,5720,5721
13323,5721,5922,5921
13324,6991,6993,6534
13325,6534,6533,6991
13326,6747,6341,6342
13327,6342,6748,6747
13328,5927,6342,6341
13329,6341,5926,5927
13330,5925,5926,6341
13331,6341,6340,5925
13332,6991,6989,7147
13333,7147,7148,6991
13334,7146,6744,6745
13335,6745,7147,7146
13336,6989,6991,6533
13337,6533,6532,6989
13338,6338,6339,6745
13339,6745,6744,6338
13340,5301,5481,5482
13341,5482,5302,5301
13342,5927,5926,5725
13343,5725,5726,5927
13344,5726,5725,5111
13345,5111,5112,5726
13346,5925,5724,5725
13347,5725,5926,5925
13348,5481,5301,5300
13349,5300,5480,5481
13350,5923,5722,5723
13351,5723,5924,5923
13352,5724,5925,5924
13353,5924,5723,5724
13354,6981,6983,6529
13355,6529,6528,6981
13356,6741,6740,6334
13357,6334,6335,6741
13358,5919,5920,6335
13359,6335,6334,5919
13360,6336,6335,5920
13361,5920,5921,6336
13362,6985,6983,7144
13363,7144,7145,6985
13364,6743,6744,7146
13365,7146,7145,6743
13366,6983,6985,6530
13367,6530,6529,6983
13368,6337,6338,6744
13369,6744,6743,6337
13370,5293,5473,5474
13371,5474,5294,5293
13372,5919,5918,5717
13373,5717,5718,5919
13374,5716,5717,5918
13375,5918,5917,5716
13376,5473,5293,5292
13377,5292,5472,5473
13378,5716,5715,5101
13379,5101,5102,5716
13380,5915,5714,5715
13381,5715,5916,5915
13382,5715,5714,5100
13383,5100,5101,5715
13384,5917,5916,5715
13385,5715,5716,5917
13386,6965,6967,6521
13387,6521,6520,6965
13388,6733,6732,6326
13389,6326,6327,6733
13390,5911,5912,6327
13391,6327,6326,5911
13392,5913,6328,6327
13393,6327,5912,5913
13394,6969,6967,7136
13395,7136,7137,6969
13396,7138,7137,6735
13397,6735,6736,7138
13398,6967,6969,6522
13399,6522,6521,6967
13400,6329,6330,6736
13401,6736,6735,6329
13402,5469,5289,5288
13403,5288,5468,5469
13404,5911,5710,5711
13405,5711,5912,5911
13406,5711,5710,5096
13407,5096,5097,5711
13408,5913,5912,5711
13409,5711,5712,5913
13410,5289,5469,5470
13411,5470,5290,5289
13412,5713,5712,5098
13413,5098,5099,5713
13414,5915,5914,5713
13415,5713,5714,5915
13416,5913,5712,5713
13417,5713,5914,5913
13418,6975,6977,6526
13419,6526,6525,6975
13420,6739,6333,6334
13421,6334,6740,6739
13422,5919,6334,6333
13423,6333,5918,5919
13424,6332,5917,5918
13425,5918,6333,6332
13426,6975,6973,7139
13427,7139,7140,6975
13428,6737,7139,7138
13429,7138,6736,6737
13430,6973,6975,6525
13431,6525,6524,6973
13432,6330,6331,6737
13433,6737,6736,6330
13434,5509,5329,5328
13435,5328,5508,5509
13436,5137,5138,5752
13437,5752,5751,5137
13438,5751,5952,5951
13439,5951,5750,5751
13440,5952,5751,5752
13441,5752,5953,5952
13442,5751,5750,5136
13443,5136,5137,5751
13444,5510,5330,5329
13445,5329,5509,5510
13446,5753,5752,5138
13447,5138,5139,5753
13448,5955,5954,5753
13449,5753,5754,5955
13450,5754,5753,5139
13451,5139,5140,5754
13452,5953,5752,5753
13453,5753,5954,5953
13454,6565,7046,7047
13455,7047,6566,6565
13456,6780,6779,6373
13457,6373,6374,6780
13458,6374,6373,5958
13459,5958,5959,6374
13460,5957,5958,6373
13461,6373,6372,5957
13462,7045,7179,7180
13463,7180,7046,7045
13464,7179,7178,6776
13465,6776,6777,7179
13466,7045,7046,6565
13467,6565,6564,7045
13468,6370,6371,6777
13469,6777,6776,6370
13470,5334,5333,5513
13471,5513,5514,5334
13472,5758,5959,5958
13473,5958,5757,5758
13474,5758,5757,5143
13475,5143,5144,5758
13476,5957,5756,5757
13477,5757,5958,5957
13478,5332,5512,5513
13479,5513,5333,5332
13480,5955,5754,5755
13481,5755,5956,5955
13482,5957,5956,5755
13483,5755,5756,5957
13484,7041,7042,6561
13485,6561,6560,7041
13486,6367,6773,6772
13487,6772,6366,6367
13488,6367,6366,5951
13489,5951,5952,6367
13490,5952,5953,6368
13491,6368,6367,5952
13492,7043,7042,7176
13493,7176,7177,7043
13494,6775,6776,7178
13495,7178,7177,6775
13496,7043,6562,6561
13497,6561,7042,7043
13498,6369,6370,6776
13499,6776,6775,6369
13500,5326,5325,5505
13501,5505,5506,5326
13502,5749,5750,5951
13503,5951,5950,5749
13504,5950,5949,5748
13505,5748,5749,5950
13506,5324,5504,5505
13507,5505,5325,5324
13508,5133,5134,5748
13509,5748,5747,5133
13510,5747,5948,5947
13511,5947,5746,5747
13512,5747,5746,5132
13513,5132,5133,5747
13514,5948,5747,5748
13515,5748,5949,5948
13516,6552,7033,7034
13517,7034,6553,6552
13518,6359,6765,6764
13519,6764,6358,6359
13520,6359,6358,5943
13521,5943,5944,6359
13522,5944,5945,6360
13523,6360,6359,5944
13524,7035,7034,7168
13525,7168,7169,7035
13526,6767,6768,7170
13527,7170,7169,6767
13528,7035,6554,6553
13529,6553,7034,7035
13530,6767,6361,6362
13531,6362,6768,6767
13532,5320,5500,5501
13533,5501,5321,5320
13534,5943,5742,5743
13535,5743,5944,5943
13536,5743,5742,5128
13537,5128,5129,5743
13538,5945,5944,5743
13539,5743,5744,5945
13540,5502,5322,5321
13541,5321,5501,5502
13542,5745,5744,5130
13543,5130,5131,5745
13544,5947,5946,5745
13545,5745,5746,5947
13546,5945,5744,5745
13547,5745,5946,5945
13548,7039,6558,6557
13549,6557,7038,7039
13550,6771,6365,6366
13551,6366,6772,6771
13552,5951,6366,6365
13553,6365,5950,5951
13554,5949,5950,6365
13555,6365,6364,5949
13556,7172,7038,7037
13557,7037,7171,7172
13558,6769,7171,7170
13559,7170,6768,6769
13560,6557,6556,7037
13561,7037,7038,6557
13562,6362,6363,6769
13563,6769,6768,6362
13564,5361,5360,5540
13565,5540,5541,5361
13566,5783,5169,5170
13567,5170,5784,5783
13568,5983,5782,5783
13569,5783,5984,5983
13570,5985,5984,5783
13571,5783,5784,5985
13572,5169,5783,5782
13573,5782,5168,5169
13574,5541,5542,5362
13575,5362,5361,5541
13576,5785,5784,5170
13577,5170,5171,5785
13578,5987,5986,5785
13579,5785,5786,5987
13580,5786,5785,5171
13581,5171,5172,5786
13582,5784,5785,5986
13583,5986,5985,5784
13584,6998,6598,6597
13585,6597,7000,6998
13586,6811,6405,6406
13587,6406,6812,6811
13588,5991,6406,6405
13589,6405,5990,5991
13590,6404,5989,5990
13591,5990,6405,6404
13592,7002,7211,7212
13593,7212,7000,7002
13594,7210,6808,6809
13595,6809,7211,7210
13596,7000,6597,6596
13597,6596,7002,7000
13598,6402,6403,6809
13599,6809,6808,6402
13600,5366,5365,5545
13601,5545,5546,5366
13602,5991,5990,5789
13603,5789,5790,5991
13604,5790,5789,5175
13605,5175,5176,5790
13606,5989,5788,5789
13607,5789,5990,5989
13608,5364,5544,5545
13609,5545,5365,5364
13610,5987,5786,5787
13611,5787,5988,5987
13612,5989,5988,5787
13613,5787,5788,5989
13614,6593,6592,7010
13615,7010,7008,6593
13616,6805,6804,6398
13617,6398,6399,6805
13618,6399,6398,5983
13619,5983,5984,6399
13620,5985,6400,6399
13621,6399,5984,5985
13622,7008,7208,7209
13623,7209,7006,7008
13624,6807,6808,7210
13625,7210,7209,6807
13626,7006,6594,6593
13627,6593,7008,7006
13628,6401,6402,6808
13629,6808,6807,6401
13630,5358,5357,5537
13631,5537,5538,5358
13632,5781,5782,5983
13633,5983,5982,5781
13634,5982,5981,5780
13635,5780,5781,5982
13636,5356,5536,5537
13637,5537,5357,5356
13638,5779,5165,5166
13639,5166,5780,5779
13640,5980,5979,5778
13641,5778,5779,5980
13642,5165,5779,5778
13643,5778,5164,5165
13644,5779,5780,5981
13645,5981,5980,5779
13646,7065,7066,6585
13647,6585,6584,7065
13648,6391,6797,6796
13649,6796,6390,6391
13650,5975,5976,6391
13651,6391,6390,5975
13652,5977,6392,6391
13653,6391,5976,5977
13654,7067,7066,7200
13655,7200,7201,7067
13656,7202,7201,6799
13657,6799,6800,7202
13658,7067,6586,6585
13659,6585,7066,7067
13660,6393,6394,6800
13661,6800,6799,6393
13662,5532,5533,5353
13663,5353,5352,5532
13664,5975,5774,5775
13665,5775,5976,5975
13666,5775,5774,5160
13667,5160,5161,5775
13668,5977,5976,5775
13669,5775,5776,5977
13670,5354,5353,5533
13671,5533,5534,5354
13672,5163,5777,5776
13673,5776,5162,5163
13674,5777,5778,5979
13675,5979,5978,5777
13676,5978,5977,5776
13677,5776,5777,5978
13678,7014,6590,6589
13679,6589,7016,7014
13680,6803,6397,6398
13681,6398,6804,6803
13682,5983,6398,6397
13683,6397,5982,5983
13684,5981,5982,6397
13685,6397,6396,5981
13686,7069,7203,7204
13687,7204,7016,7069
13688,6801,7203,7202
13689,7202,6800,6801
13690,7016,6589,6588
13691,6588,7069,7016
13692,6394,6395,6801
13693,6801,6800,6394
13694,5393,5392,5655
13695,5655,5653,5393
13696,5202,5816,5815
13697,5815,5201,5202
13698,6015,5814,5815
13699,5815,6016,6015
13700,6017,6016,5815
13701,5815,5816,6017
13702,5815,5814,5200
13703,5200,5201,5815
13704,5651,5394,5393
13705,5393,5653,5651
13706,5816,5202,5203
13707,5203,5817,5816
13708,6019,6018,5817
13709,5817,5818,6019
13710,5818,5817,5203
13711,5203,5204,5818
13712,6017,5816,5817
13713,5817,6018,6017
13714,6933,6630,6629
13715,6629,6936,6933
13716,6843,6437,6438
13717,6438,6844,6843
13718,6023,6438,6437
13719,6437,6022,6023
13720,6021,6022,6437
13721,6437,6436,6021
13722,6938,7243,7244
13723,7244,6936,6938
13724,7242,6840,6841
13725,6841,7243,7242
13726,6936,6629,6628
13727,6628,6938,6936
13728,6434,6435,6841
13729,6841,6840,6434
13730,5643,5398,5397
13731,5397,5645,5643
13732,6023,6022,5821
13733,5821,5822,6023
13734,5822,5821,5207
13735,5207,5208,5822
13736,5820,5821,6022
13737,6022,6021,5820
13738,5645,5397,5396
13739,5396,5647,5645
13740,6019,5818,5819
13741,5819,6020,6019
13742,6021,6020,5819
13743,5819,5820,6021
13744,6944,6625,6624
13745,6624,6946,6944
13746,6837,6836,6430
13747,6430,6431,6837
13748,6015,6016,6431
13749,6431,6430,6015
13750,6432,6431,6016
13751,6016,6017,6432
13752,6944,7240,7241
13753,7241,6942,6944
13754,6839,6840,7242
13755,7242,7241,6839
13756,6942,6626,6625
13757,6625,6944,6942
13758,6433,6434,6840
13759,6840,6839,6433
13760,5389,5569,5570
13761,5570,5390,5389
13762,6015,6014,5813
13763,5813,5814,6015
13764,5812,5813,6014
13765,6014,6013,5812
13766,5569,5389,5388
13767,5388,5568,5569
13768,5812,5811,5197
13769,5197,5198,5812
13770,6011,5810,5811
13771,5811,6012,6011
13772,5811,5810,5196
13773,5196,5197,5811
13774,6013,6012,5811
13775,5811,5812,6013
13776,6960,6617,6616
13777,6616,6962,6960
13778,6829,6828,6422
13779,6422,6423,6829
13780,6007,6008,6423
13781,6423,6422,6007
13782,6009,6424,6423
13783,6423,6008,6009
13784,6960,7232,7233
13785,7233,6958,6960
13786,7234,7233,6831
13787,6831,6832,7234
13788,6958,6618,6617
13789,6617,6960,6958
13790,6425,6426,6832
13791,6832,6831,6425
13792,5385,5384,5564
13793,5564,5565,5385
13794,6007,5806,5807
13795,5807,6008,6007
13796,5807,5806,5192
13797,5192,5193,5807
13798,6009,6008,5807
13799,5807,5808,6009
13800,5565,5566,5386
13801,5386,5385,5565
13802,5809,5808,5194
13803,5194,5195,5809
13804,6011,6010,5809
13805,5809,5810,6011
13806,5808,5809,6010
13807,6010,6009,5808
13808,6950,6622,6621
13809,6621,6952,6950
13810,6835,6429,6430
13811,6430,6836,6835
13812,6015,6430,6429
13813,6429,6014,6015
13814,6013,6014,6429
13815,6429,6428,6013
13816,6954,7235,7236
13817,7236,6952,6954
13818,6833,7235,7234
13819,7234,6832,6833
13820,6952,6621,6620
13821,6620,6954,6952
13822,6426,6427,6833
13823,6833,6832,6426
13824,5441,5588,5586
13825,5586,5439,5441
13826,5848,5847,5233
13827,5233,5234,5848
13828,6047,5846,5847
13829,5847,6048,6047
13830,5848,6049,6048
13831,6048,5847,5848
13832,5847,5846,5232
13833,5232,5233,5847
13834,5439,5586,5584
13835,5584,5435,5439
13836,5234,5042,5639
13837,5639,5848,5234
13838,5639,5457,6051
13839,6051,6050,5639
13840,5240,5457,5639
13841,5639,5042,5240
13842,5042,5035,5240
13843,5848,5639,6050
13844,6050,6049,5848
13845,6666,7075,7076
13846,7076,6664,6666
13847,6875,6469,6470
13848,6470,6876,6875
13849,6055,6470,6469
13850,6469,6054,6055
13851,6053,6054,6469
13852,6469,6468,6053
13853,7276,7075,7074
13854,7074,7275,7276
13855,7274,6872,6873
13856,6873,7275,7274
13857,6668,7074,7075
13858,7075,6666,6668
13859,6466,6467,6873
13860,6873,6872,6466
13861,6676,7070,7071
13862,7071,6674,6676
13863,6462,6463,6869
13864,6869,6868,6462
13865,6047,6048,6463
13866,6463,6462,6047
13867,6049,6464,6463
13868,6463,6048,6049
13869,7272,7273,7072
13870,7072,7071,7272
13871,6871,6872,7274
13872,7274,7273,6871
13873,6674,7071,7072
13874,7072,6672,6674
13875,6465,6466,6872
13876,6872,6871,6465
13877,5593,5422,5421
13878,5421,5595,5593
13879,5845,5844,5230
13880,5230,5231,5845
13881,6047,6046,5845
13882,5845,5846,6047
13883,5846,5845,5231
13884,5231,5232,5846
13885,6045,5844,5845
13886,5845,6046,6045
13887,5595,5421,5420
13888,5420,5597,5595
13889,6043,5842,5843
13890,5843,6044,6043
13891,5843,5842,5228
13892,5228,5229,5843
13893,6045,6044,5843
13894,5843,5844,6045
13895,6895,6649,6648
13896,6648,6897,6895
13897,6861,6860,6454
13898,6454,6455,6861
13899,6039,6040,6455
13900,6455,6454,6039
13901,6041,6456,6455
13902,6455,6040,6041
13903,6895,7264,7265
13904,7265,6893,6895
13905,7266,7265,6863
13906,6863,6864,7266
13907,6893,6650,6649
13908,6649,6895,6893
13909,6457,6458,6864
13910,6864,6863,6457
13911,5603,5417,5416
13912,5416,5605,5603
13913,6039,5838,5839
13914,5839,6040,6039
13915,6041,6040,5839
13916,5839,5840,6041
13917,5601,5418,5417
13918,5417,5603,5601
13919,5840,5226,5227
13920,5227,5841,5840
13921,6043,6042,5841
13922,5841,5842,6043
13923,5842,5841,5227
13924,5227,5228,5842
13925,6041,5840,5841
13926,5841,6042,6041
13927,6885,6654,6653
13928,6653,6887,6885
13929,6461,6462,6868
13930,6868,6867,6461
13931,6047,6462,6461
13932,6461,6046,6047
13933,6045,6046,6461
13934,6461,6460,6045
13935,6889,7267,7268
13936,7268,6887,6889
13937,6865,7267,7266
13938,7266,6864,6865
13939,6887,6653,6652
13940,6652,6889,6887
13941,6458,6459,6865
13942,6865,6864,6458
13943,7278,6876,6877
13944,6877,7279,7278
13945,7082,7279,7280
13946,7280,6881,7082
13947,6683,6684,7086
13948,7086,7085,6683
13949,7017,7084,7085
13950,7085,7018,7017
13951,6877,6876,6470
13952,6470,6471,6877
13953,6055,6056,6471
13954,6471,6470,6055
13955,6881,6658,6660
13956,6660,7082,6881
13957,6057,6472,6471
13958,6471,6056,6057
13959,6881,7280,7281
13960,7281,6880,6881
13961,7281,6879,6679
13962,6679,7283,7281
13963,6658,6881,6880
13964,6880,6656,6658
13965,6679,6879,6473
13966,6473,6274,6679
13967,7081,7284,7283
13968,7283,6679,7081
13969,6477,7081,6679
13970,6679,6274,6477
13971,6274,6271,6477
13972,6684,6683,6277
13973,6277,6278,6684
13974,5863,6278,6277
13975,6277,5862,5863
13976,6659,6657,7017
13977,7017,7018,6659
13978,5861,5862,6277
13979,6277,6276,5861
13980,7084,7017,7078
13981,7078,7083,7084
13982,7083,7282,6680
13983,6680,6681,7083
13984,6657,6655,7078
13985,7078,7017,6657
13986,6680,6275,6474
13987,6474,6681,6680
13988,5863,5862,5661
13989,5661,5662,5863
13990,5427,5426,5574
13991,5574,5575,5427
13992,5861,5660,5661
13993,5661,5862,5861
13994,5573,5574,5426
13995,5426,5425,5573
13996,5046,5660,5659
13997,5659,5045,5046
13998,5859,6059,5658
13999,5658,5659,5859
14000,5859,5659,5660
14001,5660,5861,5859
14002,5659,5658,5044
14003,5044,5045,5659
14004,5657,5458,5246
14005,5246,5442,5657
14006,6059,6061,5849
14007,5849,5658,6059
14008,5044,5658,5849
14009,5849,5043,5044
14010,6061,6063,5858
14011,5858,5849,6061
14012,7080,6680,7282
14013,7282,7285,7080
14014,6476,6272,6275
14015,6476,6275,6680
14016,6680,7080,6476
14017,5438,5440,4940
14018,4940,4843,5438
14019,4937,5429,5431
14020,5431,4841,4937
14021,4941,5248,5249
14022,5249,4845,4941
14023,4944,4847,5253
14024,5253,5254,4944
14025,4956,4859,5277
14026,5277,5278,4956
14027,4953,5272,5273
14028,5273,4857,4953
14029,4957,5280,5281
14030,5281,4861,4957
14031,4960,4863,5285
14032,5285,5286,4960
14033,4972,4875,5309
14034,5309,5310,4972
14035,4969,5304,5305
14036,5305,4873,4969
14037,4973,5312,5313
14038,5313,4877,4973
14039,4976,4879,5317
14040,5317,5318,4976
14041,4988,4891,5341
14042,5341,5342,4988
14043,4985,5336,5337
14044,5337,4889,4985
14045,4989,5344,5345
14046,5345,4893,4989
14047,4992,4895,5349
14048,5349,5350,4992
14049,5004,4907,5373
14050,5373,5374,5004
14051,5001,5368,5369
14052,5369,4905,5001
14053,5005,5376,5377
14054,5377,4909,5005
14055,5008,4911,5381
14056,5381,5382,5008
14057,5020,4923,5405
14058,5405,5406,5020
14059,5017,5400,5401
14060,5401,4921,5017
14061,5021,5408,5409
14062,5409,4925,5021
14063,5024,4927,5413
14064,5413,5414,5024
14065,4949,5264,5265
14066,5265,4853,4949
14067,4952,4855,5269
14068,5269,5270,4952
14069,4948,4851,5261
14070,5261,5262,4948
14071,4945,5256,5257
14072,5257,4849,4945
14073,4965,5296,5297
14074,5297,4869,4965
14075,4968,4871,5301
14076,5301,5302,4968
14077,4964,4867,5293
14078,5293,5294,4964
14079,4961,5288,5289
14080,5289,4865,4961
14081,4981,5328,5329
14082,5329,4885,4981
14083,4984,4887,5333
14084,5333,5334,4984
14085,4980,4883,5325
14086,5325,5326,4980
14087,4977,5320,5321
14088,5321,4881,4977
14089,4997,5360,5361
14090,5361,4901,4997
14091,5000,4903,5365
14092,5365,5366,5000
14093,4996,4899,5357
14094,5357,5358,4996
14095,4993,5352,5353
14096,5353,4897,4993
14097,5013,5392,5393
14098,5393,4917,5013
14099,5016,4919,5397
14100,5397,5398,5016
14101,5012,4915,5389
14102,5389,5390,5012
14103,5009,5384,5385
14104,5385,4913,5009
14105,5439,4933,5029
14106,5029,5441,5439
14107,5028,4931,5421
14108,5421,5422,5028
14109,5025,5416,5417
14110,5417,4929,5025
14111,4936,4839,5426
14112,5426,5427,4936
14113,5436,5438,4843
14114,4843,4939,5436
14115,5431,5432,4938
14116,4938,4841,5431
14117,4942,4845,5249
14118,5249,5250,4942
14119,4943,5252,5253
14120,5253,4847,4943
14121,4955,5276,5277
14122,5277,4859,4955
14123,4954,4857,5273
14124,5273,5274,4954
14125,4958,4861,5281
14126,5281,5282,4958
14127,4959,5284,5285
14128,5285,4863,4959
14129,4971,5308,5309
14130,5309,4875,4971
14131,4970,4873,5305
14132,5305,5306,4970
14133,4974,4877,5313
14134,5313,5314,4974
14135,4975,5316,5317
14136,5317,4879,4975
14137,4987,5340,5341
14138,5341,4891,4987
14139,4986,4889,5337
14140,5337,5338,4986
14141,4990,4893,5345
14142,5345,5346,4990
14143,4991,5348,5349
14144,5349,4895,4991
14145,5003,5372,5373
14146,5373,4907,5003
14147,5002,4905,5369
14148,5369,5370,5002
14149,5006,4909,5377
14150,5377,5378,5006
14151,5007,5380,5381
14152,5381,4911,5007
14153,5019,5404,5405
14154,5405,4923,5019
14155,5018,4921,5401
14156,5401,5402,5018
14157,5022,4925,5409
14158,5409,5410,5022
14159,5023,5412,5413
14160,5413,4927,5023
14161,4950,4853,5265
14162,5265,5266,4950
14163,4951,5268,5269
14164,5269,4855,4951
14165,4947,5260,5261
14166,5261,4851,4947
14167,4946,4849,5257
14168,5257,5258,4946
14169,4966,4869,5297
14170,5297,5298,4966
14171,4967,5300,5301
14172,5301,4871,4967
14173,4963,5292,5293
14174,5293,4867,4963
14175,4962,4865,5289
14176,5289,5290,4962
14177,4982,4885,5329
14178,5329,5330,4982
14179,4983,5332,5333
14180,5333,4887,4983
14181,4979,5324,5325
14182,5325,4883,4979
14183,4978,4881,5321
14184,5321,5322,4978
14185,4998,4901,5361
14186,5361,5362,4998
14187,4999,5364,5365
14188,5365,4903,4999
14189,4995,5356,5357
14190,5357,4899,4995
14191,4994,4897,5353
14192,5353,5354,4994
14193,5014,4917,5393
14194,5393,5394,5014
14195,5015,5396,5397
14196,5397,4919,5015
14197,5011,5388,5389
14198,5389,4915,5011
14199,5010,4913,5385
14200,5385,5386,5010
14201,5435,5030,4933
14202,4933,5439,5435
14203,5444,5453,5450
14204,5450,5244,5444
14205,5453,5451,6055
14206,6055,6054,5453
14207,5444,5242,5451
14208,5451,5453,5444
14209,5453,6054,6053
14210,6053,5450,5453
14211,5583,5632,5437
14212,5437,5430,5583
14213,5027,5420,5421
14214,5421,4931,5027
14215,5026,4929,5417
14216,5417,5418,5026
14217,5454,6056,6055
14218,6055,5451,5454
14219,5446,5454,5451
14220,5451,5242,5446
14221,5237,5855,5852
14222,5852,5038,5237
14223,5446,5243,5452
14224,5452,5454,5446
14225,5454,5452,6057
14226,6057,6056,5454
14227,5245,5039,5235
14228,5245,5235,5656
14229,5656,5856,5245
14230,4935,5425,5426
14231,5426,4839,4935
14232,5032,4835,5442
14233,5442,5246,5032
14234,4741,5055,5054
14235,5054,4645,4741
14236,4740,4645,5054
14237,5054,5053,4740
14238,4738,4643,5050
14239,5050,5049,4738
14240,4739,5051,5050
14241,5050,4643,4739
14242,4742,4647,5058
14243,5058,5057,4742
14244,4743,5059,5058
14245,5058,4647,4743
14246,4745,5063,5062
14247,5062,4649,4745
14248,4744,4649,5062
14249,5062,5061,4744
14250,4757,5087,5086
14251,5086,4661,4757
14252,4756,4661,5086
14253,5086,5085,4756
14254,4754,4659,5082
14255,5082,5081,4754
14256,4755,5083,5082
14257,5082,4659,4755
14258,4758,4663,5090
14259,5090,5089,4758
14260,4759,5091,5090
14261,5090,4663,4759
14262,4761,5095,5094
14263,5094,4665,4761
14264,4760,4665,5094
14265,5094,5093,4760
14266,4773,5119,5118
14267,5118,4677,4773
14268,4772,4677,5118
14269,5118,5117,4772
14270,4770,4675,5114
14271,5114,5113,4770
14272,4771,5115,5114
14273,5114,4675,4771
14274,4774,4679,5122
14275,5122,5121,4774
14276,4775,5123,5122
14277,5122,4679,4775
14278,4777,5127,5126
14279,5126,4681,4777
14280,4776,4681,5126
14281,5126,5125,4776
14282,4789,5151,5150
14283,5150,4693,4789
14284,4788,4693,5150
14285,5150,5149,4788
14286,4786,4691,5146
14287,5146,5145,4786
14288,4787,5147,5146
14289,5146,4691,4787
14290,4790,4695,5154
14291,5154,5153,4790
14292,4791,5155,5154
14293,5154,4695,4791
14294,4793,5159,5158
14295,5158,4697,4793
14296,4792,4697,5158
14297,5158,5157,4792
14298,4805,5183,5182
14299,5182,4709,4805
14300,4804,4709,5182
14301,5182,5181,4804
14302,4802,4707,5178
14303,5178,5177,4802
14304,4803,5179,5178
14305,5178,4707,4803
14306,4806,4711,5186
14307,5186,5185,4806
14308,4807,5187,5186
14309,5186,4711,4807
14310,4809,5191,5190
14311,5190,4713,4809
14312,4808,4713,5190
14313,5190,5189,4808
14314,4821,5215,5214
14315,5214,4725,4821
14316,4820,4725,5214
14317,5214,5213,4820
14318,4818,4723,5210
14319,5210,5209,4818
14320,4819,5211,5210
14321,5210,4723,4819
14322,4822,4727,5218
14323,5218,5217,4822
14324,4823,5219,5218
14325,5218,4727,4823
14326,4825,5223,5222
14327,5222,4729,4825
14328,4824,4729,5222
14329,5222,5221,4824
14330,4750,4655,5074
14331,5074,5073,4750
14332,4751,5075,5074
14333,5074,4655,4751
14334,4753,5079,5078
14335,5078,4657,4753
14336,4752,4657,5078
14337,5078,5077,4752
14338,4749,5071,5070
14339,5070,4653,4749
14340,4748,4653,5070
14341,5070,5069,4748
14342,4746,4651,5066
14343,5066,5065,4746
14344,4747,5067,5066
14345,5066,4651,4747
14346,4766,4671,5106
14347,5106,5105,4766
14348,4767,5107,5106
14349,5106,4671,4767
14350,4769,5111,5110
14351,5110,4673,4769
14352,4768,4673,5110
14353,5110,5109,4768
14354,4765,5103,5102
14355,5102,4669,4765
14356,4764,4669,5102
14357,5102,5101,4764
14358,4762,4667,5098
14359,5098,5097,4762
14360,4763,5099,5098
14361,5098,4667,4763
14362,4782,4687,5138
14363,5138,5137,4782
14364,4783,5139,5138
14365,5138,4687,4783
14366,4785,5143,5142
14367,5142,4689,4785
14368,4784,4689,5142
14369,5142,5141,4784
14370,4781,5135,5134
14371,5134,4685,4781
14372,4780,4685,5134
14373,5134,5133,4780
14374,4778,4683,5130
14375,5130,5129,4778
14376,4779,5131,5130
14377,5130,4683,4779
14378,4798,4703,5170
14379,5170,5169,4798
14380,4799,5171,5170
14381,5170,4703,4799
14382,4801,5175,5174
14383,5174,4705,4801
14384,4800,4705,5174
14385,5174,5173,4800
14386,4797,5167,5166
14387,5166,4701,4797
14388,4796,4701,5166
14389,5166,5165,4796
14390,4794,4699,5162
14391,5162,5161,4794
14392,4795,5163,5162
14393,5162,4699,4795
14394,4814,4719,5202
14395,5202,5201,4814
14396,4815,5203,5202
14397,5202,4719,4815
14398,4817,5207,5206
14399,5206,4721,4817
14400,4816,4721,5206
14401,5206,5205,4816
14402,4813,5199,5198
14403,5198,4717,4813
14404,4812,4717,5198
14405,5198,5197,4812
14406,4810,4715,5194
14407,5194,5193,4810
14408,4811,5195,5194
14409,5194,4715,4811
14410,4830,4735,5234
14411,5234,5233,4830
14412,5042,5234,4735
14413,4735,4831,5042
14414,4829,5231,5230
14415,5230,4733,4829
14416,4828,4733,5230
14417,5230,5229,4828
14418,4826,4731,5226
14419,5226,5225,4826
14420,4827,5227,5226
14421,5226,4731,4827
14422,4737,5047,5046
14423,5046,4641,4737
14424,4736,4641,5046
14425,5046,5045,4736
14426,5041,4833,4639
14427,4639,5043,5041
14428,1893,1889,1885
14429,1885,1891,1893
14430,1894,1892,1886
14431,1886,1890,1894
14432,1885,1780,1883
14433,1883,1891,1885
14434,1886,1892,1884
14435,1884,1781,1886
14436,209,207,510
14437,510,504,209
14438,504,510,728
14439,728,625,504
14440,3175,3072,2864
14441,2864,2967,3175
14442,3385,3181,3175
14443,3175,3177,3385
14444,3181,3179,3072
14445,3072,3175,3181
14446,2967,2858,3177
14447,3177,3175,2967
14448,210,505,511
14449,511,208,210
14450,505,626,729
14451,729,511,505
14452,3176,2968,2865
14453,2865,3073,3176
14454,3386,3178,3176
14455,3176,3283,3386
14456,3283,3176,3073
14457,3073,3180,3283
14458,2968,3176,3178
14459,3178,2861,2968
14460,1675,1677,1883
14461,1883,1780,1675
14462,1253,1360,1251
14463,1251,1241,1253
14464,1998,2113,2329
14465,2329,2232,1998
14466,2232,2329,2444
14467,2444,2341,2232
14468,1676,1781,1884
14469,1884,1678,1676
14470,1254,1242,1252
14471,1252,1361,1254
14472,1999,2233,2332
14473,2332,2114,1999
14474,2233,2342,2445
14475,2445,2332,2233
14476,3803,3699,3701
14477,3701,3914,3803
14478,3914,4213,4214
14479,4214,3803,3914
14480,3909,3700,3698
14481,3698,4008,3909
14482,4128,3909,4134
14483,4134,4148,4128
14484,3909,4008,4134
14485,4148,4218,4217
14486,4217,4128,4148
14487,4216,4218,4148
14488,4148,4134,4216
14489,4435,4433,4217
14490,4217,4218,4435
14491,5239,4837,4836
14492,4836,5245,5239
14493,4536,4836,4837
14494,4837,4434,4536
14495,6269,6062,6066
14496,6066,6273,6269
14497,5858,5657,5442
14498,5442,5445,5858
14499,6063,6064,5657
14500,5657,5858,6063
14501,6270,6475,6064
14502,6064,6063,6270
14503,5856,5857,5239
14504,5239,5245,5856
14505,6062,5857,5856
14506,5856,6066,6062
14507,5442,4835,4832
14508,4832,5445,5442
14509,4534,4433,4832
14510,4832,4835,4534
14511,1464,1482,1466
14512,1466,1357,1464
14513,1463,1356,1465
14514,1465,1481,1463
14515,2115,2117,2127
14516,2127,2123,2115
14517,2115,2123,1895
14518,1895,2111,2115
14519,2116,2118,2107
14520,2107,2112,2116
14521,2116,2124,2128
14522,2128,2118,2116
14523,4587,4478,4324
14524,4587,4324,4326
14525,4326,4477,4587
14526,4578,4469,4325
14527,4578,4325,4323
14528,4323,4468,4578
14529,1891,1883,1996
14530,1996,2101,1891
14531,2119,2121,2105
14532,2105,2103,2119
14533,2121,2125,2109
14534,2109,2105,2121
14535,1892,2102,1997
14536,1997,1884,1892
14537,2225,2128,2120
14538,2120,2122,2225
14539,2122,2108,2110
14540,2110,2126,2122
14541,4585,4476,4328
14542,4585,4328,4330
14543,4330,4475,4585
14544,4327,4329,4117
14545,4117,4116,4327
14546,4588,4479,4322
14547,4588,4322,4324
14548,4324,4478,4588
14549,4577,4468,4323
14550,4577,4323,4321
14551,4321,4467,4577
14552,1893,1891,2101
14553,2101,2106,1893
14554,1894,2107,2102
14555,2102,1892,1894
14556,4586,4477,4326
14557,4586,4326,4328
14558,4328,4476,4586
14559,4583,4474,4320
14560,4583,4320,4319
14561,4319,4473,4583
14562,4579,4470,4327
14563,4579,4327,4325
14564,4325,4469,4579
14565,4119,4118,4318
14566,4318,4319,4119
*MATERIAL, NAME=CFRP
*ELASTIC
7e+10,0.3
*DENSITY
1600
*SHELL SECTION, ELSET=ALL_SHELL, MATERIAL=CFRP
0.0025
*NSET, NSET=ALLNODES, GENERATE
1,7285,1
*NSET, NSET=MOUNT
1,2,3,4,5,6,7,8,9,10,11,12,13,14,15,16
17,18,19,20,21,22,23,24,25,26,27,28,29,30,31,32
33,34,35,36,37,38,39,40,41,42,43,44,45,46,47,48
49,50,51,52,53,54,55,56,57,58,59,60,61,62,63,64
65,66,67,68,69,70,71,72,73,74,75,76,77,78,79,80
81,82,83,84,85,86,87,88,89,90,91,92,93,94,95,96
97,98,99,100,101,102,103
*STEP
*STATIC
*NODE PRINT, NSET=ALLNODES
U
*EL PRINT, ELSET=ALL_SHELL
S
*NODE FILE, NSET=ALLNODES
U
*EL FILE, ELSET=ALL_SHELL
S
*DLOAD
1,P,695.663757
2,P,695.663757
3,P,695.663757
4,P,531.482178
5,P,531.482178
6,P,507.865265
7,P,507.865265
8,P,507.865265
9,P,991.952576
10,P,991.952576
11,P,992.772522
12,P,992.772522
13,P,850.854797
14,P,850.854797
15,P,995.057495
16,P,995.057495
17,P,852.06665
18,P,852.06665
19,P,994.927002
20,P,994.927002
21,P,1108.86938
22,P,1108.86938
23,P,1028.8009
24,P,1028.8009
25,P,1107.00061
26,P,1107.00061
27,P,582.237793
28,P,582.237793
29,P,1030.03296
30,P,1030.03296
31,P,582.045532
32,P,582.045532
33,P,1017.46997
34,P,1017.46997
35,P,740.737366
36,P,740.737366
37,P,698.15741
38,P,698.15741
39,P,1016.9566
40,P,1016.9566
41,P,465.505127
42,P,465.505127
43,P,738.626099
44,P,738.626099
45,P,694.772156
46,P,694.772156
47,P,465.046173
48,P,465.046173
49,P,584.776062
50,P,584.776062
51,P,537.260254
52,P,537.260254
53,P,538.46405
54,P,538.46405
55,P,341.56955
56,P,341.56955
57,P,948.970703
58,P,948.970703
59,P,808.792664
60,P,808.792664
61,P,1097.72046
62,P,1097.72046
63,P,723.027771
64,P,723.027771
65,P,644.779297
66,P,644.779297
67,P,701.333435
68,P,701.333435
69,P,612.093811
70,P,612.093811
71,P,600.073669
72,P,600.073669
73,P,340.433685
74,P,340.433685
75,P,950.751831
76,P,950.751831
77,P,807.265686
78,P,807.265686
79,P,1100.04077
80,P,1100.04077
81,P,726.153015
82,P,726.153015
83,P,651.52478
84,P,651.52478
85,P,719.918274
86,P,719.918274
87,P,611.78125
88,P,611.78125
89,P,603.064392
90,P,603.064392
91,P,963.876587
92,P,963.876587
93,P,683.971191
94,P,683.971191
95,P,546.90564
96,P,546.90564
97,P,841.459961
98,P,841.459961
99,P,964.903198
100,P,964.903198
101,P,747.909607
102,P,747.909607
103,P,547.786926
104,P,547.786926
105,P,177.480698
106,P,177.480698
107,P,681.949097
108,P,681.949097
109,P,546.441162
110,P,546.441162
111,P,838.147278
112,P,838.147278
113,P,746.665649
114,P,746.665649
115,P,548.966492
116,P,548.966492
117,P,179.290085
118,P,179.290085
119,P,718.32782
120,P,718.32782
121,P,750.329224
122,P,750.329224
123,P,551.936707
124,P,551.936707
125,P,551.936707
126,P,703.342651
127,P,703.342651
128,P,707.47052
129,P,707.47052
130,P,812.174377
131,P,812.174377
132,P,742.993469
133,P,742.993469
134,P,530.250549
135,P,530.250549
136,P,380.616821
137,P,380.616821
138,P,412.347656
139,P,412.347656
140,P,419.794861
141,P,419.794861
142,P,410.538269
143,P,410.538269
144,P,377.377625
145,P,377.377625
146,P,560.743958
147,P,560.743958
148,P,-1980.46716
149,P,-1980.46716
150,P,-2169.48975
151,P,-2169.48975
152,P,594.997314
153,P,594.997314
154,P,462.968994
155,P,462.968994
156,P,-2169.95996
157,P,-2169.95996
158,P,-2191.05981
159,P,-2191.05981
160,P,465.600159
161,P,465.600159
162,P,504.38028
163,P,504.38028
164,P,-2193.31519
165,P,-2193.31519
166,P,-2197.72876
167,P,-2197.72876
168,P,506.213562
169,P,506.213562
170,P,516.711243
171,P,516.711243
172,P,-2197.72461
173,P,-2197.72461
174,P,-2193.27319
175,P,-2193.27319
176,P,516.702576
177,P,516.702576
178,P,505.869507
179,P,505.869507
180,P,-2191.01074
181,P,-2191.01074
182,P,-2169.91504
183,P,-2169.91504
184,P,504.005249
185,P,504.005249
186,P,464.473785
187,P,464.473785
188,P,-2169.43994
189,P,-2169.43994
190,P,-1980.36365
191,P,-1980.36365
192,P,461.734833
193,P,461.734833
194,P,587.695923
195,P,587.695923
196,P,-1917.69873
197,P,-1917.69873
198,P,652.238953
199,P,652.238953
200,P,378.61557
201,P,378.61557
202,P,410.914886
203,P,410.914886
204,P,419.802246
205,P,419.802246
206,P,412.004547
207,P,412.004547
208,P,379.49054
209,P,379.49054
210,P,519.334656
211,P,519.334656
212,P,-1917.53235
213,P,-1917.53235
214,P,644.544434
215,P,644.544434
216,P,-2129.08301
217,P,-2129.08301
218,P,-2133.79663
219,P,-2133.79663
220,P,460.904358
221,P,460.904358
222,P,458.618317
223,P,458.618317
224,P,-2181.99487
225,P,-2181.99487
226,P,-2182.64185
227,P,-2182.64185
228,P,486.085754
229,P,486.085754
230,P,489.052155
231,P,489.052155
232,P,-2196.83862
233,P,-2196.83862
234,P,-2197.60913
235,P,-2197.60913
236,P,514.091675
237,P,514.091675
238,P,514.780823
239,P,514.780823
240,P,-2197.58423
241,P,-2197.58423
242,P,-2196.80859
243,P,-2196.80859
244,P,514.640381
245,P,514.640381
246,P,513.92865
247,P,513.92865
248,P,-2182.60938
249,P,-2182.60938
250,P,-2181.95776
251,P,-2181.95776
252,P,488.406036
253,P,488.406036
254,P,485.394409
255,P,485.394409
256,P,-2133.74194
257,P,-2133.74194
258,P,-2129.02368
259,P,-2129.02368
260,P,693.770386
261,P,693.770386
262,P,693.770386
263,P,455.961426
264,P,455.961426
265,P,457.910248
266,P,457.910248
267,P,573.031494
268,P,573.031494
269,P,386.41568
270,P,386.41568
271,P,396.353241
272,P,396.353241
273,P,418.289703
274,P,418.289703
275,P,418.598419
276,P,418.598419
277,P,397.981689
278,P,397.981689
279,P,379.192047
280,P,379.192047
281,P,-2072.01489
282,P,-2072.01489
283,P,693.701172
284,P,693.701172
285,P,633.293945
286,P,633.293945
287,P,-2159.98779
288,P,-2159.98779
289,P,716.204834
290,P,716.204834
291,P,678.43042
292,P,678.43042
293,P,289.481415
294,P,289.481415
295,P,177.520767
296,P,177.520767
297,P,496.538727
298,P,496.538727
299,P,235.457016
300,P,235.457016
301,P,182.095245
302,P,182.095245
303,P,303.945557
304,P,303.945557
305,P,458.600769
306,P,458.600769
307,P,127.960945
308,P,127.960945
309,P,144.098709
310,P,144.098709
311,P,301.148224
312,P,301.148224
313,P,-2176.57495
314,P,-2176.57495
315,P,725.977234
316,P,725.977234
317,P,748.865112
318,P,748.865112
319,P,-2186.97021
320,P,-2186.97021
321,P,805.384521
322,P,805.384521
323,P,795.62915
324,P,795.62915
325,P,39.1821022
326,P,39.1821022
327,P,119.957825
328,P,119.957825
329,P,474.049194
330,P,474.049194
331,P,81.4889603
332,P,81.4889603
333,P,259.981934
334,P,259.981934
335,P,-8.05516434
336,P,-8.05516434
337,P,498.764191
338,P,498.764191
339,P,-12.9458723
340,P,-12.9458723
341,P,-4.25556135
342,P,-4.25556135
343,P,-15.3643417
344,P,-15.3643417
345,P,-2192.30835
346,P,-2192.30835
347,P,808.455017
348,P,808.455017
349,P,815.510254
350,P,815.510254
351,P,-2198.4856
352,P,-2198.4856
353,P,827.866394
354,P,827.866394
355,P,827.018738
356,P,827.018738
357,P,-21.7956085
358,P,-21.7956085
359,P,-14.7275534
360,P,-14.7275534
361,P,510.286285
362,P,510.286285
363,P,-17.5491142
364,P,-17.5491142
365,P,-17.3463573
366,P,-17.3463573
367,P,-28.0332489
368,P,-28.0332489
369,P,516.352539
370,P,516.352539
371,P,-26.4915867
372,P,-26.4915867
373,P,-24.5381069
374,P,-24.5381069
375,P,-28.6123104
376,P,-28.6123104
377,P,-2198.47192
378,P,-2198.47192
379,P,827.858887
380,P,827.858887
381,P,826.963623
382,P,826.963623
383,P,-2192.26685
384,P,-2192.26685
385,P,808.139282
386,P,808.139282
387,P,815.26062
388,P,815.26062
389,P,-28.0107975
390,P,-28.0107975
391,P,-26.4874954
392,P,-26.4874954
393,P,516.293396
394,P,516.293396
395,P,-24.511528
396,P,-24.511528
397,P,-28.6087227
398,P,-28.6087227
399,P,-21.7374287
400,P,-21.7374287
401,P,510.024933
402,P,510.024933
403,P,-14.6732454
404,P,-14.6732454
405,P,-17.4889355
406,P,-17.4889355
407,P,-17.2876873
408,P,-17.2876873
409,P,-2186.93823
410,P,-2186.93823
411,P,805.042969
412,P,805.042969
413,P,795.203613
414,P,795.203613
415,P,-2176.53784
416,P,-2176.53784
417,P,725.01709
418,P,725.01709
419,P,748.08197
420,P,748.08197
421,P,-8.0126009
422,P,-8.0126009
423,P,-12.8940582
424,P,-12.8940582
425,P,498.279114
426,P,498.279114
427,P,-4.21788168
428,P,-4.21788168
429,P,-15.3078175
430,P,-15.3078175
431,P,39.1524696
432,P,39.1524696
433,P,473.155396
434,P,473.155396
435,P,119.844299
436,P,119.844299
437,P,81.4521103
438,P,81.4521103
439,P,259.869293
440,P,259.869293
441,P,-2159.94165
442,P,-2159.94165
443,P,715.174927
444,P,715.174927
445,P,677.149841
446,P,677.149841
447,P,-2071.94604
448,P,-2071.94604
449,P,690.991211
450,P,690.991211
451,P,630.995544
452,P,630.995544
453,P,303.70639
454,P,303.70639
455,P,127.814659
456,P,127.814659
457,P,456.913269
458,P,456.913269
459,P,143.803711
460,P,143.803711
461,P,301.010071
462,P,301.010071
463,P,289.076172
464,P,289.076172
465,P,491.49649
466,P,491.49649
467,P,176.566101
468,P,176.566101
469,P,183.143158
470,P,183.143158
471,P,234.910904
472,P,234.910904
473,P,847.524353
474,P,847.524353
475,P,382.067169
476,P,382.067169
477,P,398.63147
478,P,398.63147
479,P,418.733215
480,P,418.733215
481,P,418.132599
482,P,418.132599
483,P,395.659332
484,P,395.659332
485,P,383.105286
486,P,383.105286
487,P,847.581909
488,P,847.581909
489,P,-2091.60596
490,P,-2091.60596
491,P,392.856445
492,P,392.856445
493,P,168.157379
494,P,168.157379
495,P,677.916748
496,P,677.916748
497,P,633.189514
498,P,633.189514
499,P,21.8037891
500,P,21.8037891
501,P,122.145683
502,P,122.145683
503,P,-2155.18774
504,P,-2155.18774
505,P,703.653931
506,P,703.653931
507,P,666.531494
508,P,666.531494
509,P,812.432312
510,P,812.432312
511,P,753.868652
512,P,753.868652
513,P,69.5575485
514,P,69.5575485
515,P,709.678345
516,P,709.678345
517,P,308.580658
518,P,308.580658
519,P,482.55011
520,P,482.55011
521,P,183.393829
522,P,183.393829
523,P,186.880051
524,P,186.880051
525,P,330.843018
526,P,330.843018
527,P,301.046326
528,P,301.046326
529,P,457.619751
530,P,457.619751
531,P,168.627197
532,P,168.627197
533,P,148.288116
534,P,148.288116
535,P,318.830933
536,P,318.830933
537,P,-2178.52222
538,P,-2178.52222
539,P,824.379333
540,P,824.379333
541,P,851.113953
542,P,851.113953
543,P,773.08374
544,P,773.08374
545,P,755.83783
546,P,755.83783
547,P,878.763672
548,P,878.763672
549,P,859.194519
550,P,859.194519
551,P,-2185.90259
552,P,-2185.90259
553,P,778.436035
554,P,778.436035
555,P,791.518555
556,P,791.518555
557,P,914.986206
558,P,914.986206
559,P,904.172607
560,P,904.172607
561,P,884.885559
562,P,884.885559
563,P,899.529541
564,P,899.529541
565,P,25.4775181
566,P,25.4775181
567,P,477.335876
568,P,477.335876
569,P,47.4134979
570,P,47.4134979
571,P,72.9745941
572,P,72.9745941
573,P,10.0779457
574,P,10.0779457
575,P,-4.9676857
576,P,-4.9676857
577,P,496.355896
578,P,496.355896
579,P,34.4926567
580,P,34.4926567
581,P,1.16803718
582,P,1.16803718
583,P,6.06975794
584,P,6.06975794
585,P,-2195.59326
586,P,-2195.59326
587,P,918.462708
588,P,918.462708
589,P,926.482605
590,P,926.482605
591,P,822.430176
592,P,822.430176
593,P,817.633667
594,P,817.633667
595,P,934.287903
596,P,934.287903
597,P,928.931519
598,P,928.931519
599,P,-2198.48608
600,P,-2198.48608
601,P,823.715149
602,P,823.715149
603,P,826.38678
604,P,826.38678
605,P,940.554077
606,P,940.554077
607,P,939.557983
608,P,939.557983
609,P,935.772461
610,P,935.772461
611,P,938.82074
612,P,938.82074
613,P,-22.9770794
614,P,-22.9770794
615,P,511.536591
616,P,511.536591
617,P,-17.6877728
618,P,-17.6877728
619,P,-17.9762211
620,P,-17.9762211
621,P,-25.1954098
622,P,-25.1954098
623,P,-27.5827408
624,P,-27.5827408
625,P,516.048889
626,P,516.048889
627,P,-17.9250832
628,P,-17.9250832
629,P,-22.6551933
630,P,-22.6551933
631,P,-25.9542522
632,P,-25.9542522
633,P,-2198.46753
634,P,-2198.46753
635,P,940.545593
636,P,940.545593
637,P,939.499634
638,P,939.499634
639,P,823.578979
640,P,823.578979
641,P,826.311768
642,P,826.311768
643,P,935.63562
644,P,935.63562
645,P,938.743286
646,P,938.743286
647,P,-2195.55737
648,P,-2195.55737
649,P,822.270203
650,P,822.270203
651,P,817.407166
652,P,817.407166
653,P,918.147583
654,P,918.147583
655,P,926.236572
656,P,926.236572
657,P,934.127869
658,P,934.127869
659,P,928.707642
660,P,928.707642
661,P,-27.5548611
662,P,-27.5548611
663,P,515.969299
664,P,515.969299
665,P,-17.874012
666,P,-17.874012
667,P,-22.6206799
668,P,-22.6206799
669,P,-25.9146767
670,P,-25.9146767
671,P,-22.921669
672,P,-22.921669
673,P,511.303406
674,P,511.303406
675,P,-17.6331615
676,P,-17.6331615
677,P,-17.9166985
678,P,-17.9166985
679,P,-25.1515675
680,P,-25.1515675
681,P,-2185.86987
682,P,-2185.86987
683,P,914.647461
684,P,914.647461
685,P,903.752869
686,P,903.752869
687,P,777.870667
688,P,777.870667
689,P,791.057007
690,P,791.057007
691,P,884.33374
692,P,884.33374
693,P,899.07489
694,P,899.07489
695,P,-2178.48608
696,P,-2178.48608
697,P,772.478577
698,P,772.478577
699,P,755.100708
700,P,755.100708
701,P,823.479065
702,P,823.479065
703,P,850.363586
704,P,850.363586
705,P,878.175171
706,P,878.175171
707,P,858.486145
708,P,858.486145
709,P,-4.93141031
710,P,-4.93141031
711,P,495.831543
712,P,495.831543
713,P,34.5074463
714,P,34.5074463
715,P,1.20061827
716,P,1.20061827
717,P,6.08748531
718,P,6.08748531
719,P,25.4608707
720,P,25.4608707
721,P,476.49939
722,P,476.49939
723,P,47.4210739
724,P,47.4210739
725,P,72.952713
726,P,72.952713
727,P,10.0898867
728,P,10.0898867
729,P,-2155.14111
730,P,-2155.14111
731,P,811.472656
732,P,811.472656
733,P,752.712585
734,P,752.712585
735,P,701.92511
736,P,701.92511
737,P,665.158752
738,P,665.158752
739,P,68.5208282
740,P,68.5208282
741,P,708.464905
742,P,708.464905
743,P,-2091.5459
744,P,-2091.5459
745,P,676.07605
746,P,676.07605
747,P,631.011047
748,P,631.011047
749,P,391.006683
750,P,391.006683
751,P,166.846298
752,P,166.846298
753,P,20.7485542
754,P,20.7485542
755,P,120.917801
756,P,120.917801
757,P,300.766754
758,P,300.766754
759,P,455.729401
760,P,455.729401
761,P,168.085358
762,P,168.085358
763,P,147.919525
764,P,147.919525
765,P,318.481201
766,P,318.481201
767,P,308.192261
768,P,308.192261
769,P,478.158478
770,P,478.158478
771,P,182.873489
772,P,182.873489
773,P,187.306213
774,P,187.306213
775,P,330.467377
776,P,330.467377
777,P,-635.974731
778,P,-635.974731
779,P,-693.617493
780,P,-693.617493
781,P,219.007416
782,P,219.007416
783,P,439.685242
784,P,439.685242
785,P,254.430573
786,P,254.430573
787,P,-47.5673256
788,P,-47.5673256
789,P,-47.5673256
790,P,-42.9366264
791,P,-42.9366264
792,P,-42.9366264
793,P,-964.317871
794,P,-964.317871
795,P,-976.042969
796,P,-976.042969
797,P,116.474022
798,P,116.474022
799,P,387.069946
800,P,387.069946
801,P,99.9426117
802,P,99.9426117
803,P,-747.157043
804,P,-747.157043
805,P,-747.157043
806,P,-602.67572
807,P,-602.67572
808,P,-602.67572
809,P,-1070.67297
810,P,-1070.67297
811,P,-1074.77234
812,P,-1074.77234
813,P,-14.7570162
814,P,-14.7570162
815,P,415.481171
816,P,415.481171
817,P,-16.4587765
818,P,-16.4587765
819,P,-1053.12122
820,P,-1053.12122
821,P,-1053.12122
822,P,-1019.81555
823,P,-1019.81555
824,P,-1019.81555
825,P,-1087.27734
826,P,-1087.27734
827,P,-1087.81262
828,P,-1087.81262
829,P,-34.1450768
830,P,-34.1450768
831,P,419.594299
832,P,419.594299
833,P,-30.8245831
834,P,-30.8245831
835,P,-178.36348
836,P,-178.36348
837,P,-77.3742218
838,P,-77.3742218
839,P,-1068.26123
840,P,-1068.26123
841,P,-1065.35645
842,P,-1065.35645
843,P,-13.3297186
844,P,-13.3297186
845,P,405.869232
846,P,405.869232
847,P,-5.85250092
848,P,-5.85250092
849,P,-969.683899
850,P,-969.683899
851,P,-969.683899
852,P,-1007.17395
853,P,-1007.17395
854,P,-1007.17395
855,P,-952.9729
856,P,-952.9729
857,P,-941.344421
858,P,-941.344421
859,P,120.005356
860,P,120.005356
861,P,373.237976
862,P,373.237976
863,P,129.672256
864,P,129.672256
865,P,-410.33728
866,P,-410.33728
867,P,-410.33728
868,P,-549.314941
869,P,-549.314941
870,P,-549.314941
871,P,-2029.93103
872,P,-2029.93103
873,P,-2167.78931
874,P,-2167.78931
875,P,681.226074
876,P,681.226074
877,P,547.677124
878,P,547.677124
879,P,461.099487
880,P,461.099487
881,P,579.284302
882,P,579.284302
883,P,-2172.60132
884,P,-2172.60132
885,P,-2189.49609
886,P,-2189.49609
887,P,582.217896
888,P,582.217896
889,P,468.048065
890,P,468.048065
891,P,502.787933
892,P,502.787933
893,P,624.843079
894,P,624.843079
895,P,-2197.98145
896,P,-2197.98145
897,P,-2198.06177
898,P,-2198.06177
899,P,627.41687
900,P,627.41687
901,P,507.513855
902,P,507.513855
903,P,516.664612
904,P,516.664612
905,P,639.660278
906,P,639.660278
907,P,-2198.052
908,P,-2198.052
909,P,-2197.94409
910,P,-2197.94409
911,P,639.653015
912,P,639.653015
913,P,516.641235
914,P,516.641235
915,P,507.197571
916,P,507.197571
917,P,627.084778
918,P,627.084778
919,P,-2189.44507
920,P,-2189.44507
921,P,-2172.55933
922,P,-2172.55933
923,P,624.481384
924,P,624.481384
925,P,502.377563
926,P,502.377563
927,P,467.010956
928,P,467.010956
929,P,581.145691
930,P,581.145691
931,P,-2167.73975
932,P,-2167.73975
933,P,-2029.8501
934,P,-2029.8501
935,P,578.116455
936,P,578.116455
937,P,459.735107
938,P,459.735107
939,P,541.073608
940,P,541.073608
941,P,676.381592
942,P,676.381592
943,P,759.954956
944,P,759.954956
945,P,183.372299
946,P,183.372299
947,P,215.809052
948,P,215.809052
949,P,-671.203125
950,P,-671.203125
951,P,-661.028564
952,P,-661.028564
953,P,374.966156
954,P,374.966156
955,P,120.147873
956,P,120.147873
957,P,129.988953
958,P,129.988953
959,P,-410.222992
960,P,-410.222992
961,P,-410.222992
962,P,-549.317566
963,P,-549.317566
964,P,-549.317566
965,P,-1025.75378
966,P,-1025.75378
967,P,-1019.53705
968,P,-1019.53705
969,P,406.355103
970,P,406.355103
971,P,-13.3726263
972,P,-13.3726263
973,P,-5.88329601
974,P,-5.88329601
975,P,-969.768433
976,P,-969.768433
977,P,-969.768433
978,P,-1007.26044
979,P,-1007.26044
980,P,-1007.26044
981,P,-1079.65137
982,P,-1079.65137
983,P,-1078.60266
984,P,-1078.60266
985,P,419.653046
986,P,419.653046
987,P,-34.1487045
988,P,-34.1487045
989,P,-30.849781
990,P,-30.849781
991,P,-178.404831
992,P,-178.404831
993,P,-77.3799896
994,P,-77.3799896
995,P,-77.3799896
996,P,-1081.474
997,P,-1081.474
998,P,-1083.59326
999,P,-1083.59326
1000,P,415.22818
1001,P,415.22818
1002,P,-14.708416
1003,P,-14.708416
1004,P,-16.4003029
1005,P,-16.4003029
1006,P,-1053.02893
1007,P,-1053.02893
1008,P,-1053.02893
1009,P,-1019.72357
1010,P,-1019.72357
1011,P,-1019.72357
1012,P,-1032.81201
1013,P,-1032.81201
1014,P,-1040.00647
1015,P,-1040.00647
1016,P,386.179962
1017,P,386.179962
1018,P,116.372452
1019,P,116.372452
1020,P,99.9096985
1021,P,99.9096985
1022,P,-747.135681
1023,P,-747.135681
1024,P,-747.135681
1025,P,-602.65741
1026,P,-602.65741
1027,P,-602.65741
1028,P,-683.247864
1029,P,-683.247864
1030,P,-700.185608
1031,P,-700.185608
1032,P,433.284332
1033,P,433.284332
1034,P,219.394852
1035,P,219.394852
1036,P,259.46936
1037,P,259.46936
1038,P,-197.079239
1039,P,-197.079239
1040,P,-197.079239
1041,P,-819.81665
1042,P,-819.81665
1043,P,-819.81665
1044,P,756.874268
1045,P,756.874268
1046,P,180.921478
1047,P,180.921478
1048,P,215.216888
1049,P,215.216888
1050,P,1560.81958
1051,P,1560.81958
1052,P,1497.39648
1053,P,1497.39648
1054,P,-2121.10352
1055,P,-2121.10352
1056,P,1530.79199
1057,P,1530.79199
1058,P,926.053955
1059,P,926.053955
1060,P,538.507812
1061,P,538.507812
1062,P,985.361694
1063,P,985.361694
1064,P,-2141.55591
1065,P,-2141.55591
1066,P,1738.22937
1067,P,1738.22937
1068,P,1622.40442
1069,P,1622.40442
1070,P,1045.42896
1071,P,1045.42896
1072,P,980.774048
1073,P,980.774048
1074,P,517.23584
1075,P,517.23584
1076,P,517.23584
1077,P,465.487244
1078,P,465.487244
1079,P,579.411804
1080,P,579.411804
1081,P,583.374146
1082,P,583.374146
1083,P,458.071838
1084,P,458.071838
1085,P,575.564392
1086,P,575.564392
1087,P,580.52179
1088,P,580.52179
1089,P,1787.0791
1090,P,1787.0791
1091,P,-2181.39282
1092,P,-2181.39282
1093,P,1850.74463
1094,P,1850.74463
1095,P,1083.98621
1096,P,1083.98621
1097,P,1134.44495
1098,P,1134.44495
1099,P,-2184.01953
1100,P,-2184.01953
1101,P,1913.86023
1102,P,1913.86023
1103,P,1878.45312
1104,P,1878.45312
1105,P,1184.71753
1106,P,1184.71753
1107,P,1156.19946
1108,P,1156.19946
1109,P,483.386932
1110,P,483.386932
1111,P,604.318787
1112,P,604.318787
1113,P,491.457214
1114,P,491.457214
1115,P,608.377686
1116,P,608.377686
1117,P,610.979431
1118,P,610.979431
1119,P,1929.15002
1120,P,1929.15002
1121,P,-2196.6062
1122,P,-2196.6062
1123,P,1948.42383
1124,P,1948.42383
1125,P,1950.39539
1126,P,1950.39539
1127,P,1196.40271
1128,P,1196.40271
1129,P,1210.97949
1130,P,1210.97949
1131,P,-2198.10645
1132,P,-2198.10645
1133,P,1960.8728
1134,P,1960.8728
1135,P,1960.97156
1136,P,1960.97156
1137,P,1955.34045
1138,P,1955.34045
1139,P,1220.6554
1140,P,1220.6554
1141,P,1216.27454
1142,P,1216.27454
1143,P,513.409058
1144,P,513.409058
1145,P,636.375427
1146,P,636.375427
1147,P,635.723877
1148,P,635.723877
1149,P,515.249756
1150,P,515.249756
1151,P,637.497681
1152,P,637.497681
1153,P,638.016907
1154,P,638.016907
1155,P,1960.84729
1156,P,1960.84729
1157,P,-2198.08398
1158,P,-2198.08398
1159,P,1955.21765
1160,P,1955.21765
1161,P,1220.63062
1162,P,1220.63062
1163,P,1216.15918
1164,P,1216.15918
1165,P,-2196.57373
1166,P,-2196.57373
1167,P,1928.87036
1168,P,1928.87036
1169,P,1948.24927
1170,P,1948.24927
1171,P,1196.11694
1172,P,1196.11694
1173,P,1210.80481
1174,P,1210.80481
1175,P,515.129822
1176,P,515.129822
1177,P,637.361145
1178,P,637.361145
1179,P,513.223999
1180,P,513.223999
1181,P,636.213928
1182,P,636.213928
1183,P,635.541504
1184,P,635.541504
1185,P,1913.54285
1186,P,1913.54285
1187,P,-2183.98779
1188,P,-2183.98779
1189,P,1877.97937
1190,P,1877.97937
1191,P,1870.99194
1192,P,1870.99194
1193,P,1184.37036
1194,P,1184.37036
1195,P,1155.7085
1196,P,1155.7085
1197,P,-2181.35547
1198,P,-2181.35547
1199,P,1786.43225
1200,P,1786.43225
1201,P,1773.78577
1202,P,1773.78577
1203,P,1850.21082
1204,P,1850.21082
1205,P,1083.2478
1206,P,1083.2478
1207,P,1133.86572
1208,P,1133.86572
1209,P,490.850128
1210,P,490.850128
1211,P,607.761169
1212,P,607.761169
1213,P,610.398315
1214,P,610.398315
1215,P,482.651703
1216,P,482.651703
1217,P,603.656006
1218,P,603.656006
1219,P,600.916931
1220,P,600.916931
1221,P,1737.49622
1222,P,1737.49622
1223,P,-2141.50342
1224,P,-2141.50342
1225,P,1621.66113
1226,P,1621.66113
1227,P,1044.58447
1228,P,1044.58447
1229,P,979.750305
1230,P,979.750305
1231,P,-2121.04688
1232,P,-2121.04688
1233,P,1560.26978
1234,P,1560.26978
1235,P,1530.08655
1236,P,1530.08655
1237,P,925.117371
1238,P,925.117371
1239,P,984.266113
1240,P,984.266113
1241,P,455.69696
1242,P,455.69696
1243,P,573.227295
1244,P,573.227295
1245,P,462.098785
1246,P,462.098785
1247,P,576.828735
1248,P,576.828735
1249,P,-692.652344
1250,P,-692.652344
1251,P,-729.236328
1252,P,-729.236328
1253,P,-690.174561
1254,P,-690.174561
1255,P,-604.25946
1256,P,-604.25946
1257,P,421.497162
1258,P,421.497162
1259,P,247.782715
1260,P,247.782715
1261,P,269.209534
1262,P,269.209534
1263,P,-72.8133163
1264,P,-72.8133163
1265,P,-72.8133163
1266,P,-228.111649
1267,P,-228.111649
1268,P,-228.111649
1269,P,-140.146957
1270,P,-140.146957
1271,P,-17.1606312
1272,P,-17.1606312
1273,P,-164.653458
1274,P,-164.653458
1275,P,-107.246353
1276,P,-107.246353
1277,P,-994.224915
1278,P,-994.224915
1279,P,-986.052979
1280,P,-986.052979
1281,P,389.539154
1282,P,389.539154
1283,P,78.4463501
1284,P,78.4463501
1285,P,96.1510925
1286,P,96.1510925
1287,P,-773.26239
1288,P,-773.26239
1289,P,-773.26239
1290,P,-849.568298
1291,P,-849.568298
1292,P,-849.568298
1293,P,291.746918
1294,P,291.746918
1295,P,237.737305
1296,P,237.737305
1297,P,288.899261
1298,P,288.899261
1299,P,250.556931
1300,P,250.556931
1301,P,-729.489929
1302,P,-729.489929
1303,P,-1072.49622
1304,P,-1072.49622
1305,P,-1074.11182
1306,P,-1074.11182
1307,P,-729.45752
1308,P,-729.45752
1309,P,-729.989075
1310,P,-729.989075
1311,P,416.405304
1312,P,416.405304
1313,P,-13.6839561
1314,P,-13.6839561
1315,P,-16.3620052
1316,P,-16.3620052
1317,P,-1061.6853
1318,P,-1061.6853
1319,P,-1061.6853
1320,P,-1066.88367
1321,P,-1066.88367
1322,P,-1066.88367
1323,P,159.246811
1324,P,159.246811
1325,P,146.108627
1326,P,146.108627
1327,P,160.593597
1328,P,160.593597
1329,P,186.734497
1330,P,186.734497
1331,P,-744.37854
1332,P,-744.37854
1333,P,-1086.59106
1334,P,-1086.59106
1335,P,-1087.61108
1336,P,-1087.61108
1337,P,419.414185
1338,P,419.414185
1339,P,-13.1917381
1340,P,-13.1917381
1341,P,-26.2654057
1342,P,-26.2654057
1343,P,-311.81012
1344,P,-311.81012
1345,P,-1049.55371
1346,P,-1049.55371
1347,P,-1049.55371
1348,P,-72.2964401
1349,P,-72.2964401
1350,P,-64.192009
1351,P,-64.192009
1352,P,-35.3758202
1353,P,-35.3758202
1354,P,190.603699
1355,P,190.603699
1356,P,-723.423584
1357,P,-723.423584
1358,P,-720.081482
1359,P,-720.081482
1360,P,-1056.35107
1361,P,-1056.35107
1362,P,-1061.45325
1363,P,-1061.45325
1364,P,403.924164
1365,P,403.924164
1366,P,58.9380188
1367,P,58.9380188
1368,P,-0.0239581373
1369,P,-0.0239581373
1370,P,-960.47406
1371,P,-960.47406
1372,P,-960.47406
1373,P,-900.289856
1374,P,-900.289856
1375,P,-900.289856
1376,P,125.033791
1377,P,125.033791
1378,P,143.990692
1379,P,143.990692
1380,P,123.626289
1381,P,123.626289
1382,P,222.811279
1383,P,222.811279
1384,P,-597.370361
1385,P,-597.370361
1386,P,-905.103149
1387,P,-905.103149
1388,P,-926.634216
1389,P,-926.634216
1390,P,372.884705
1391,P,372.884705
1392,P,164.380249
1393,P,164.380249
1394,P,132.540909
1395,P,132.540909
1396,P,-384.896515
1397,P,-384.896515
1398,P,-384.896515
1399,P,-287.110229
1400,P,-287.110229
1401,P,-287.110229
1402,P,-119.550301
1403,P,-119.550301
1404,P,223.452255
1405,P,223.452255
1406,P,-143.370224
1407,P,-143.370224
1408,P,-83.9860153
1409,P,-83.9860153
1410,P,1799.02539
1411,P,1799.02539
1412,P,1647.73206
1413,P,1647.73206
1414,P,1582.74377
1415,P,1582.74377
1416,P,1875.39197
1417,P,1875.39197
1418,P,-2057.65869
1419,P,-2057.65869
1420,P,730.669495
1421,P,730.669495
1422,P,662.6604
1423,P,662.6604
1424,P,719.422119
1425,P,719.422119
1426,P,641.174866
1427,P,641.174866
1428,P,718.934509
1429,P,718.934509
1430,P,713.749146
1431,P,713.749146
1432,P,2328.68701
1433,P,2328.68701
1434,P,2013.11328
1435,P,2013.11328
1436,P,2300.82251
1437,P,2300.82251
1438,P,2036.87585
1439,P,2036.87585
1440,P,-2164.64429
1441,P,-2164.64429
1442,P,635.220886
1443,P,635.220886
1444,P,705.766846
1445,P,705.766846
1446,P,629.938904
1447,P,629.938904
1448,P,625.825684
1449,P,625.825684
1450,P,692.93335
1451,P,692.93335
1452,P,625.898193
1453,P,625.898193
1454,P,271.887482
1455,P,271.887482
1456,P,275.371429
1457,P,275.371429
1458,P,191.934082
1459,P,191.934082
1460,P,175.547485
1461,P,175.547485
1462,P,516.064697
1463,P,516.064697
1464,P,592.279053
1465,P,592.279053
1466,P,600.040039
1467,P,600.040039
1468,P,251.074677
1469,P,251.074677
1470,P,227.725342
1471,P,227.725342
1472,P,209.434326
1473,P,209.434326
1474,P,178.732529
1475,P,178.732529
1476,P,325.834442
1477,P,325.834442
1478,P,306.226105
1479,P,306.226105
1480,P,459.296539
1481,P,459.296539
1482,P,584.612427
1483,P,584.612427
1484,P,580.594543
1485,P,580.594543
1486,P,133.641464
1487,P,133.641464
1488,P,183.703156
1489,P,183.703156
1490,P,206.793152
1491,P,206.793152
1492,P,139.631699
1493,P,139.631699
1494,P,306.243347
1495,P,306.243347
1496,P,305.16098
1497,P,305.16098
1498,P,2452.6814
1499,P,2452.6814
1500,P,2158.61255
1501,P,2158.61255
1502,P,2142.93604
1503,P,2142.93604
1504,P,2471.22388
1505,P,2471.22388
1506,P,-2175.09546
1507,P,-2175.09546
1508,P,641.621033
1509,P,641.621033
1510,P,733.90332
1511,P,733.90332
1512,P,647.276611
1513,P,647.276611
1514,P,741.971313
1515,P,741.971313
1516,P,658.947876
1517,P,658.947876
1518,P,653.471252
1519,P,653.471252
1520,P,2614.33813
1521,P,2614.33813
1522,P,2271.13623
1523,P,2271.13623
1524,P,2604.90161
1525,P,2604.90161
1526,P,2278.82666
1527,P,2278.82666
1528,P,-2188.20361
1529,P,-2188.20361
1530,P,706.94342
1531,P,706.94342
1532,P,802.57135
1533,P,802.57135
1534,P,704.50885
1535,P,704.50885
1536,P,698.519226
1537,P,698.519226
1538,P,798.96051
1539,P,798.96051
1540,P,701.392029
1541,P,701.392029
1542,P,81.5866852
1543,P,81.5866852
1544,P,86.0782547
1545,P,86.0782547
1546,P,107.003448
1547,P,107.003448
1548,P,166.466812
1549,P,166.466812
1550,P,471.17627
1551,P,471.17627
1552,P,590.807251
1553,P,590.807251
1554,P,587.953125
1555,P,587.953125
1556,P,80.8348618
1557,P,80.8348618
1558,P,91.1066437
1559,P,91.1066437
1560,P,176.216309
1561,P,176.216309
1562,P,269.694061
1563,P,269.694061
1564,P,-1.07355618
1565,P,-1.07355618
1566,P,-10.8904457
1567,P,-10.8904457
1568,P,500.660706
1569,P,500.660706
1570,P,619.196289
1571,P,619.196289
1572,P,621.131165
1573,P,621.131165
1574,P,-10.8688164
1575,P,-10.8688164
1576,P,-9.83111954
1577,P,-9.83111954
1578,P,-1.38998199
1579,P,-1.38998199
1580,P,-8.03351688
1581,P,-8.03351688
1582,P,-13.3076448
1583,P,-13.3076448
1584,P,-8.85573578
1585,P,-8.85573578
1586,P,2652.88477
1587,P,2652.88477
1588,P,2317.36011
1589,P,2317.36011
1590,P,2312.64307
1591,P,2312.64307
1592,P,2657.302
1593,P,2657.302
1594,P,-2194.9668
1595,P,-2194.9668
1596,P,709.650757
1597,P,709.650757
1598,P,810.738037
1599,P,810.738037
1600,P,711.640747
1601,P,711.640747
1602,P,813.399902
1603,P,813.399902
1604,P,715.720581
1605,P,715.720581
1606,P,713.923035
1607,P,713.923035
1608,P,2690.24609
1609,P,2690.24609
1610,P,2344.81421
1611,P,2344.81421
1612,P,2689.03125
1613,P,2689.03125
1614,P,2345.81787
1615,P,2345.81787
1616,P,-2198.44116
1617,P,-2198.44116
1618,P,726.174805
1619,P,726.174805
1620,P,827.732727
1621,P,827.732727
1622,P,726.07489
1623,P,726.07489
1624,P,725.505127
1625,P,725.505127
1626,P,827.418701
1627,P,827.418701
1628,P,725.822815
1629,P,725.822815
1630,P,-15.1606665
1631,P,-15.1606665
1632,P,-20.673048
1633,P,-20.673048
1634,P,-15.9456425
1635,P,-15.9456425
1636,P,-11.8092146
1637,P,-11.8092146
1638,P,509.100311
1639,P,509.100311
1640,P,632.047668
1641,P,632.047668
1642,P,630.702393
1643,P,630.702393
1644,P,-15.4736319
1645,P,-15.4736319
1646,P,-16.9992981
1647,P,-16.9992981
1648,P,-19.1126766
1649,P,-19.1126766
1650,P,-10.8965292
1651,P,-10.8965292
1652,P,-20.8504105
1653,P,-20.8504105
1654,P,-28.4054623
1655,P,-28.4054623
1656,P,516.516541
1657,P,516.516541
1658,P,639.335327
1659,P,639.335327
1660,P,639.505676
1661,P,639.505676
1662,P,-26.2883301
1663,P,-26.2883301
1664,P,-22.2084103
1665,P,-22.2084103
1666,P,-21.0800724
1667,P,-21.0800724
1668,P,-25.686409
1669,P,-25.686409
1670,P,-28.6112862
1671,P,-28.6112862
1672,P,-21.5618954
1673,P,-21.5618954
1674,P,2690.20142
1675,P,2690.20142
1676,P,2344.75293
1677,P,2344.75293
1678,P,2345.77222
1679,P,2345.77222
1680,P,2688.97046
1681,P,2688.97046
1682,P,-2198.42871
1683,P,-2198.42871
1684,P,726.168274
1685,P,726.168274
1686,P,827.711182
1687,P,827.711182
1688,P,726.055664
1689,P,726.055664
1690,P,827.38031
1691,P,827.38031
1692,P,725.452209
1693,P,725.452209
1694,P,725.786865
1695,P,725.786865
1696,P,2652.62817
1697,P,2652.62817
1698,P,2317.13892
1699,P,2317.13892
1700,P,2657.08325
1701,P,2657.08325
1702,P,2312.41431
1703,P,2312.41431
1704,P,-2194.9314
1705,P,-2194.9314
1706,P,709.329529
1707,P,709.329529
1708,P,810.442383
1709,P,810.442383
1710,P,711.340332
1711,P,711.340332
1712,P,715.466309
1713,P,715.466309
1714,P,813.126221
1715,P,813.126221
1716,P,713.6474
1717,P,713.6474
1718,P,-20.8242607
1719,P,-20.8242607
1720,P,-28.3882484
1721,P,-28.3882484
1722,P,-26.2764606
1723,P,-26.2764606
1724,P,-22.2036114
1725,P,-22.2036114
1726,P,516.474731
1727,P,516.474731
1728,P,639.282288
1729,P,639.282288
1730,P,639.468994
1731,P,639.468994
1732,P,-21.0528431
1733,P,-21.0528431
1734,P,-25.6664677
1735,P,-25.6664677
1736,P,-28.6009884
1737,P,-28.6009884
1738,P,-21.5571537
1739,P,-21.5571537
1740,P,-15.1009712
1741,P,-15.1009712
1742,P,-20.6145229
1743,P,-20.6145229
1744,P,508.813507
1745,P,508.813507
1746,P,631.787292
1747,P,631.787292
1748,P,630.423035
1749,P,630.423035
1750,P,-15.8897057
1751,P,-15.8897057
1752,P,-11.7509708
1753,P,-11.7509708
1754,P,-15.4131975
1755,P,-15.4131975
1756,P,-16.941082
1757,P,-16.941082
1758,P,-19.0532227
1759,P,-19.0532227
1760,P,-10.8367262
1761,P,-10.8367262
1762,P,2613.98755
1763,P,2613.98755
1764,P,2270.80542
1765,P,2270.80542
1766,P,2278.4917
1767,P,2278.4917
1768,P,2604.56055
1769,P,2604.56055
1770,P,-2188.16724
1771,P,-2188.16724
1772,P,706.597229
1773,P,706.597229
1774,P,802.203674
1775,P,802.203674
1776,P,704.134766
1777,P,704.134766
1778,P,798.562195
1779,P,798.562195
1780,P,698.08252
1781,P,698.08252
1782,P,700.987366
1783,P,700.987366
1784,P,2452.15503
1785,P,2452.15503
1786,P,2158.14014
1787,P,2158.14014
1788,P,2470.76489
1789,P,2470.76489
1790,P,2142.42969
1791,P,2142.42969
1792,P,-2175.05713
1793,P,-2175.05713
1794,P,640.598938
1795,P,640.598938
1796,P,733.004517
1797,P,733.004517
1798,P,646.32666
1799,P,646.32666
1800,P,658.126282
1801,P,658.126282
1802,P,741.130554
1803,P,741.130554
1804,P,652.591431
1805,P,652.591431
1806,P,-1.02780819
1807,P,-1.02780819
1808,P,-10.8420668
1809,P,-10.8420668
1810,P,-10.8224554
1811,P,-10.8224554
1812,P,-9.77576256
1813,P,-9.77576256
1814,P,500.216125
1815,P,500.216125
1816,P,618.735596
1817,P,618.735596
1818,P,620.705688
1819,P,620.705688
1820,P,-1.3464458
1821,P,-1.3464458
1822,P,-7.99116564
1823,P,-7.99116564
1824,P,-13.2550421
1825,P,-13.2550421
1826,P,-8.79859829
1827,P,-8.79859829
1828,P,81.5512619
1829,P,81.5512619
1830,P,86.03479
1831,P,86.03479
1832,P,470.217834
1833,P,470.217834
1834,P,589.946716
1835,P,589.946716
1836,P,587.037415
1837,P,587.037415
1838,P,106.921791
1839,P,106.921791
1840,P,166.359634
1841,P,166.359634
1842,P,80.7983246
1843,P,80.7983246
1844,P,91.0497665
1845,P,91.0497665
1846,P,176.157852
1847,P,176.157852
1848,P,269.576721
1849,P,269.576721
1850,P,2328.13306
1851,P,2328.13306
1852,P,2012.60706
1853,P,2012.60706
1854,P,2036.32605
1855,P,2036.32605
1856,P,2300.31348
1857,P,2300.31348
1858,P,-2164.59937
1859,P,-2164.59937
1860,P,634.115051
1861,P,634.115051
1862,P,704.658691
1863,P,704.658691
1864,P,628.741394
1865,P,628.741394
1866,P,691.740906
1867,P,691.740906
1868,P,624.396851
1869,P,624.396851
1870,P,624.59259
1871,P,624.59259
1872,P,1798.64368
1873,P,1798.64368
1874,P,1647.31812
1875,P,1647.31812
1876,P,1874.97803
1877,P,1874.97803
1878,P,1582.37329
1879,P,1582.37329
1880,P,-2057.58496
1881,P,-2057.58496
1882,P,727.337463
1883,P,727.337463
1884,P,660.107056
1885,P,660.107056
1886,P,716.14978
1887,P,716.14978
1888,P,715.955811
1889,P,715.955811
1890,P,638.755371
1891,P,638.755371
1892,P,710.609253
1893,P,710.609253
1894,P,325.57843
1895,P,325.57843
1896,P,306.022888
1897,P,306.022888
1898,P,133.453491
1899,P,133.453491
1900,P,183.565018
1901,P,183.565018
1902,P,457.781494
1903,P,457.781494
1904,P,583.048523
1905,P,583.048523
1906,P,579.182373
1907,P,579.182373
1908,P,206.527374
1909,P,206.527374
1910,P,139.390076
1911,P,139.390076
1912,P,306.068817
1913,P,306.068817
1914,P,305.021271
1915,P,305.021271
1916,P,275.005951
1917,P,275.005951
1918,P,271.44635
1919,P,271.44635
1920,P,510.271667
1921,P,510.271667
1922,P,588.475586
1923,P,588.475586
1924,P,595.860718
1925,P,595.860718
1926,P,176.33606
1927,P,176.33606
1928,P,191.116714
1929,P,191.116714
1930,P,209.394882
1931,P,209.394882
1932,P,180.158447
1933,P,180.158447
1934,P,250.587204
1935,P,250.587204
1936,P,227.032974
1937,P,227.032974
1938,P,587.876404
1939,P,587.876404
1940,P,-651.842712
1941,P,-651.842712
1942,P,-655.314331
1943,P,-655.314331
1944,P,-763.745605
1945,P,-763.745605
1946,P,374.839203
1947,P,374.839203
1948,P,165.098114
1949,P,165.098114
1950,P,132.961411
1951,P,132.961411
1952,P,-384.66748
1953,P,-384.66748
1954,P,-384.66748
1955,P,-284.864532
1956,P,-284.864532
1957,P,-284.864532
1958,P,-119.781265
1959,P,-119.781265
1960,P,223.362015
1961,P,223.362015
1962,P,-143.691528
1963,P,-143.691528
1964,P,-84.1880798
1965,P,-84.1880798
1966,P,-1003.34998
1967,P,-1003.34998
1968,P,-1012.02466
1969,P,-1012.02466
1970,P,-660.621094
1971,P,-660.621094
1972,P,-79.0115662
1973,P,-79.0115662
1974,P,-73.3917542
1975,P,-73.3917542
1976,P,404.450897
1977,P,404.450897
1978,P,58.9288368
1979,P,58.9288368
1980,P,-0.0497938953
1981,P,-0.0497938953
1982,P,-960.554749
1983,P,-960.554749
1984,P,-960.554749
1985,P,-900.354919
1986,P,-900.354919
1987,P,-900.354919
1988,P,124.945847
1989,P,124.945847
1990,P,143.905121
1991,P,143.905121
1992,P,123.539246
1993,P,123.539246
1994,P,222.750504
1995,P,222.750504
1996,P,-1075.22949
1997,P,-1075.22949
1998,P,-1076.70154
1999,P,-1076.70154
2000,P,419.491974
2001,P,419.491974
2002,P,-13.2447996
2003,P,-13.2447996
2004,P,-26.2994843
2005,P,-26.2994843
2006,P,-311.861511
2007,P,-311.861511
2008,P,-1049.6228
2009,P,-1049.6228
2010,P,-1049.6228
2011,P,-72.3489532
2012,P,-72.3489532
2013,P,-64.1981049
2014,P,-64.1981049
2015,P,-35.4336586
2016,P,-35.4336586
2017,P,190.553223
2018,P,190.553223
2019,P,-1085.74048
2020,P,-1085.74048
2021,P,-1085.12268
2022,P,-1085.12268
2023,P,-739.951721
2024,P,-739.951721
2025,P,-742.42688
2026,P,-742.42688
2027,P,-741.654968
2028,P,-741.654968
2029,P,-134.591537
2030,P,-134.591537
2031,P,416.17981
2032,P,416.17981
2033,P,-13.6278915
2034,P,-13.6278915
2035,P,-16.3029537
2036,P,-16.3029537
2037,P,-1061.59009
2038,P,-1061.59009
2039,P,-1061.59009
2040,P,-1066.80151
2041,P,-1066.80151
2042,P,-1066.80151
2043,P,159.290115
2044,P,159.290115
2045,P,146.187378
2046,P,146.187378
2047,P,160.632721
2048,P,160.632721
2049,P,186.778381
2050,P,186.778381
2051,P,-110.997513
2052,P,-110.997513
2053,P,-1050.96716
2054,P,-1050.96716
2055,P,-1046.16638
2056,P,-1046.16638
2057,P,-92.8499069
2058,P,-92.8499069
2059,P,-97.3414154
2060,P,-97.3414154
2061,P,388.70813
2062,P,388.70813
2063,P,78.449913
2064,P,78.449913
2065,P,96.1364136
2066,P,96.1364136
2067,P,-773.241028
2068,P,-773.241028
2069,P,-773.241028
2070,P,-849.516174
2071,P,-849.516174
2072,P,-849.516174
2073,P,291.774445
2074,P,291.774445
2075,P,237.811646
2076,P,237.811646
2077,P,288.926666
2078,P,288.926666
2079,P,250.608917
2080,P,250.608917
2081,P,-871.884399
2082,P,-871.884399
2083,P,-763.555176
2084,P,-763.555176
2085,P,124.536072
2086,P,124.536072
2087,P,416.154327
2088,P,416.154327
2089,P,247.084885
2090,P,247.084885
2091,P,271.486359
2092,P,271.486359
2093,P,-136.64238
2094,P,-136.64238
2095,P,-136.64238
2096,P,-233.045212
2097,P,-233.045212
2098,P,-233.045212
2099,P,-91.7217255
2100,P,-91.7217255
2101,P,-141.919708
2102,P,-141.919708
2103,P,-106.688362
2104,P,-106.688362
2105,P,585.270264
2106,P,585.270264
2107,P,1204.48474
2108,P,1204.48474
2109,P,1418.81873
2110,P,1418.81873
2111,P,1361.83789
2112,P,1361.83789
2113,P,1255.11023
2114,P,1255.11023
2115,P,1633.59424
2116,P,1633.59424
2117,P,1696.41626
2118,P,1696.41626
2119,P,2005.34595
2120,P,2005.34595
2121,P,1710.62842
2122,P,1710.62842
2123,P,1948.25012
2124,P,1948.25012
2125,P,1758.95532
2126,P,1758.95532
2127,P,-2110.65552
2128,P,-2110.65552
2129,P,1334.72949
2130,P,1334.72949
2131,P,1474.5802
2132,P,1474.5802
2133,P,1303.9198
2134,P,1303.9198
2135,P,1515.62683
2136,P,1515.62683
2137,P,1631.88831
2138,P,1631.88831
2139,P,1040.0509
2140,P,1040.0509
2141,P,292.302368
2142,P,292.302368
2143,P,1022.66882
2144,P,1022.66882
2145,P,968.748535
2146,P,968.748535
2147,P,221.431992
2148,P,221.431992
2149,P,1033.71106
2150,P,1033.71106
2151,P,1020.80353
2152,P,1020.80353
2153,P,766.485535
2154,P,766.485535
2155,P,655.662354
2156,P,655.662354
2157,P,757.712341
2158,P,757.712341
2159,P,729.044861
2160,P,729.044861
2161,P,640.282715
2162,P,640.282715
2163,P,742.972168
2164,P,742.972168
2165,P,1015.3808
2166,P,1015.3808
2167,P,40.8603134
2168,P,40.8603134
2169,P,78.4953156
2170,P,78.4953156
2171,P,2233.48486
2172,P,2233.48486
2173,P,1983.03259
2174,P,1983.03259
2175,P,2266.03101
2176,P,2266.03101
2177,P,1955.16687
2178,P,1955.16687
2179,P,-2148.78003
2180,P,-2148.78003
2181,P,1559.6543
2182,P,1559.6543
2183,P,1744.23059
2184,P,1744.23059
2185,P,1765.8772
2186,P,1765.8772
2187,P,1539.50537
2188,P,1539.50537
2189,P,1716.99463
2190,P,1716.99463
2191,P,1699.75793
2192,P,1699.75793
2193,P,1489.53442
2194,P,1489.53442
2195,P,1716.41589
2196,P,1716.41589
2197,P,1691.00464
2198,P,1691.00464
2199,P,1513.32886
2200,P,1513.32886
2201,P,1652.1554
2202,P,1652.1554
2203,P,761.227966
2204,P,761.227966
2205,P,707.769897
2206,P,707.769897
2207,P,722.540222
2208,P,722.540222
2209,P,632.371887
2210,P,632.371887
2211,P,681.179871
2212,P,681.179871
2213,P,664.031738
2214,P,664.031738
2215,P,799.007568
2216,P,799.007568
2217,P,1029.67236
2218,P,1029.67236
2219,P,780.38446
2220,P,780.38446
2221,P,1171.04553
2222,P,1171.04553
2223,P,279.940613
2224,P,279.940613
2225,P,987.843079
2226,P,987.843079
2227,P,605.391907
2228,P,605.391907
2229,P,898.235535
2230,P,898.235535
2231,P,886.711487
2232,P,886.711487
2233,P,-168.213043
2234,P,-168.213043
2235,P,-217.540604
2236,P,-217.540604
2237,P,292.820038
2238,P,292.820038
2239,P,321.849365
2240,P,321.849365
2241,P,472.405151
2242,P,472.405151
2243,P,587.452576
2244,P,587.452576
2245,P,190.741714
2246,P,190.741714
2247,P,225.159958
2248,P,225.159958
2249,P,217.540421
2250,P,217.540421
2251,P,189.559952
2252,P,189.559952
2253,P,332.257019
2254,P,332.257019
2255,P,323.40802
2256,P,323.40802
2257,P,-293.971619
2258,P,-293.971619
2259,P,-476.469666
2260,P,-476.469666
2261,P,-260.004364
2262,P,-260.004364
2263,P,124.622643
2264,P,124.622643
2265,P,76.2954788
2266,P,76.2954788
2267,P,324.643372
2268,P,324.643372
2269,P,301.20813
2270,P,301.20813
2271,P,457.352142
2272,P,457.352142
2273,P,586.492615
2274,P,586.492615
2275,P,159.314133
2276,P,159.314133
2277,P,220.288605
2278,P,220.288605
2279,P,209.960495
2280,P,209.960495
2281,P,153.035004
2282,P,153.035004
2283,P,306.6026
2284,P,306.6026
2285,P,323.852478
2286,P,323.852478
2287,P,389.450409
2288,P,389.450409
2289,P,-971.476257
2290,P,-971.476257
2291,P,376.938599
2292,P,376.938599
2293,P,316.097168
2294,P,316.097168
2295,P,356.542358
2296,P,356.542358
2297,P,1650.56702
2298,P,1650.56702
2299,P,1877.29614
2300,P,1877.29614
2301,P,1863.1366
2302,P,1863.1366
2303,P,1663.62439
2304,P,1663.62439
2305,P,1803.08533
2306,P,1803.08533
2307,P,1813.59888
2308,P,1813.59888
2309,P,2507.8772
2310,P,2507.8772
2311,P,2175.98511
2312,P,2175.98511
2313,P,2491.646
2314,P,2491.646
2315,P,2189.67725
2316,P,2189.67725
2317,P,-2180.22925
2318,P,-2180.22925
2319,P,1689.69751
2320,P,1689.69751
2321,P,1893.12964
2322,P,1893.12964
2323,P,1678.38489
2324,P,1678.38489
2325,P,1905.45166
2326,P,1905.45166
2327,P,1838.69202
2328,P,1838.69202
2329,P,968.536499
2330,P,968.536499
2331,P,833.737549
2332,P,833.737549
2333,P,977.786255
2334,P,977.786255
2335,P,1096.17029
2336,P,1096.17029
2337,P,843.165894
2338,P,843.165894
2339,P,987.750549
2340,P,987.750549
2341,P,679.109741
2342,P,679.109741
2343,P,767.892761
2344,P,767.892761
2345,P,674.713501
2346,P,674.713501
2347,P,664.675049
2348,P,664.675049
2349,P,761.740417
2350,P,761.740417
2351,P,669.568848
2352,P,669.568848
2353,P,1125.21313
2354,P,1125.21313
2355,P,872.920471
2356,P,872.920471
2357,P,1005.07202
2358,P,1005.07202
2359,P,865.910583
2360,P,865.910583
2361,P,2581.75537
2362,P,2581.75537
2363,P,2261.04517
2364,P,2261.04517
2365,P,2592.80811
2366,P,2592.80811
2367,P,2251.9519
2368,P,2251.9519
2369,P,-2185.24658
2370,P,-2185.24658
2371,P,1764.10791
2372,P,1764.10791
2373,P,1979.15906
2374,P,1979.15906
2375,P,1986.03247
2376,P,1986.03247
2377,P,1757.85193
2378,P,1757.85193
2379,P,1907.15137
2380,P,1907.15137
2381,P,1902.33936
2382,P,1902.33936
2383,P,1741.92432
2384,P,1741.92432
2385,P,1970.00146
2386,P,1970.00146
2387,P,1961.87659
2388,P,1961.87659
2389,P,1749.34509
2390,P,1749.34509
2391,P,1887.61194
2392,P,1887.61194
2393,P,683.724609
2394,P,683.724609
2395,P,782.839172
2396,P,782.839172
2397,P,687.503357
2398,P,687.503357
2399,P,694.946899
2400,P,694.946899
2401,P,787.577148
2402,P,787.577148
2403,P,691.563477
2404,P,691.563477
2405,P,1063.7002
2406,P,1063.7002
2407,P,911.888489
2408,P,911.888489
2409,P,1179.43164
2410,P,1179.43164
2411,P,907.861267
2412,P,907.861267
2413,P,889.810303
2414,P,889.810303
2415,P,1037.61047
2416,P,1037.61047
2417,P,1163.198
2418,P,1163.198
2419,P,895.14447
2420,P,895.14447
2421,P,108.583488
2422,P,108.583488
2423,P,-100.595413
2424,P,-100.595413
2425,P,61.6297913
2426,P,61.6297913
2427,P,57.5828552
2428,P,57.5828552
2429,P,18.4524269
2430,P,18.4524269
2431,P,480.196777
2432,P,480.196777
2433,P,595.070801
2434,P,595.070801
2435,P,56.7879524
2436,P,56.7879524
2437,P,32.9565392
2438,P,32.9565392
2439,P,65.0310822
2440,P,65.0310822
2441,P,64.6381073
2442,P,64.6381073
2443,P,13.9340296
2444,P,13.9340296
2445,P,24.1383667
2446,P,24.1383667
2447,P,38.0039864
2448,P,38.0039864
2449,P,44.4031448
2450,P,44.4031448
2451,P,64.0693588
2452,P,64.0693588
2453,P,-111.024658
2454,P,-111.024658
2455,P,-92.8496017
2456,P,-92.8496017
2457,P,2.65292954
2458,P,2.65292954
2459,P,-1.64011133
2460,P,-1.64011133
2461,P,494.154694
2462,P,494.154694
2463,P,616.095154
2464,P,616.095154
2465,P,613.930298
2466,P,613.930298
2467,P,19.6741581
2468,P,19.6741581
2469,P,24.1431904
2470,P,24.1431904
2471,P,3.13062668
2472,P,3.13062668
2473,P,8.79365635
2474,P,8.79365635
2475,P,2.08720088
2476,P,2.08720088
2477,P,17.6204739
2478,P,17.6204739
2479,P,14.4197063
2480,P,14.4197063
2481,P,50.9852638
2482,P,50.9852638
2483,P,48.7422676
2484,P,48.7422676
2485,P,16.6578026
2486,P,16.6578026
2487,P,22.0448074
2488,P,22.0448074
2489,P,56.5926552
2490,P,56.5926552
2491,P,19.5921993
2492,P,19.5921993
2493,P,1792.58313
2494,P,1792.58313
2495,P,2021.13367
2496,P,2021.13367
2497,P,2016.8761
2498,P,2016.8761
2499,P,1796.41125
2500,P,1796.41125
2501,P,1934.63098
2502,P,1934.63098
2503,P,1937.63611
2504,P,1937.63611
2505,P,2667.14429
2506,P,2667.14429
2507,P,2322.25928
2508,P,2322.25928
2509,P,2662.49243
2510,P,2662.49243
2511,P,2326.35645
2512,P,2326.35645
2513,P,-2196.23022
2514,P,-2196.23022
2515,P,1803.97253
2516,P,1803.97253
2517,P,2025.6123
2518,P,2025.6123
2519,P,1800.56885
2520,P,1800.56885
2521,P,2029.33691
2522,P,2029.33691
2523,P,1945.35083
2524,P,1945.35083
2525,P,1068.32422
2526,P,1068.32422
2527,P,920.985168
2528,P,920.985168
2529,P,1070.87207
2530,P,1070.87207
2531,P,1200.23193
2532,P,1200.23193
2533,P,924.04718
2534,P,924.04718
2535,P,1076.75781
2536,P,1076.75781
2537,P,1074.36377
2538,P,1074.36377
2539,P,721.645996
2540,P,721.645996
2541,P,821.063171
2542,P,821.063171
2543,P,720.482849
2544,P,720.482849
2545,P,717.561157
2546,P,717.561157
2547,P,819.358215
2548,P,819.358215
2549,P,719.036255
2550,P,719.036255
2551,P,1208.53992
2552,P,1208.53992
2553,P,932.760498
2554,P,932.760498
2555,P,930.849915
2556,P,930.849915
2557,P,2685.01343
2558,P,2685.01343
2559,P,2343.19067
2560,P,2343.19067
2561,P,2687.09985
2562,P,2687.09985
2563,P,2341.45386
2564,P,2341.45386
2565,P,-2198.61499
2566,P,-2198.61499
2567,P,1820.14404
2568,P,1820.14404
2569,P,2046.05798
2570,P,2046.05798
2571,P,2046.94727
2572,P,2046.94727
2573,P,1819.33179
2574,P,1819.33179
2575,P,1960.36584
2576,P,1960.36584
2577,P,1959.71399
2578,P,1959.71399
2579,P,1816.63147
2580,P,1816.63147
2581,P,2044.60278
2582,P,2044.60278
2583,P,2043.07751
2584,P,2043.07751
2585,P,1817.99451
2586,P,1817.99451
2587,P,1957.33362
2588,P,1957.33362
2589,P,722.75116
2590,P,722.75116
2591,P,824.706665
2592,P,824.706665
2593,P,723.588196
2594,P,723.588196
2595,P,724.980896
2596,P,724.980896
2597,P,825.68042
2598,P,825.68042
2599,P,724.399292
2600,P,724.399292
2601,P,940.391663
2602,P,940.391663
2603,P,1220.21069
2604,P,1220.21069
2605,P,940.025208
2606,P,940.025208
2607,P,1087.15002
2608,P,1087.15002
2609,P,936.892761
2610,P,936.892761
2611,P,1217.71753
2612,P,1217.71753
2613,P,938.012634
2614,P,938.012634
2615,P,1090.19019
2616,P,1090.19019
2617,P,1089.46777
2618,P,1089.46777
2619,P,3.92202806
2620,P,3.92202806
2621,P,2.53088427
2622,P,2.53088427
2623,P,-16.219553
2624,P,-16.219553
2625,P,-23.8326683
2626,P,-23.8326683
2627,P,512.461853
2628,P,512.461853
2629,P,633.863525
2630,P,633.863525
2631,P,-17.9224014
2632,P,-17.9224014
2633,P,-17.2612839
2634,P,-17.2612839
2635,P,-16.281353
2636,P,-16.281353
2637,P,-17.9649773
2638,P,-17.9649773
2639,P,-24.695879
2640,P,-24.695879
2641,P,-17.9093285
2642,P,-17.9093285
2643,P,-0.0923623443
2644,P,-0.0923623443
2645,P,35.5721664
2646,P,35.5721664
2647,P,0.908410847
2648,P,0.908410847
2649,P,-134.612152
2650,P,-134.612152
2651,P,-135.711746
2652,P,-135.711746
2653,P,-20.2812366
2654,P,-20.2812366
2655,P,-27.1869812
2656,P,-27.1869812
2657,P,515.741882
2658,P,515.741882
2659,P,638.890076
2660,P,638.890076
2661,P,-18.5687447
2662,P,-18.5687447
2663,P,-17.7710152
2664,P,-17.7710152
2665,P,-20.1611633
2666,P,-20.1611633
2667,P,-20.2931881
2668,P,-20.2931881
2669,P,-26.5644245
2670,P,-26.5644245
2671,P,-18.5766029
2672,P,-18.5766029
2673,P,-5.60714769
2674,P,-5.60714769
2675,P,29.616724
2676,P,29.616724
2677,P,-5.36013174
2678,P,-5.36013174
2679,P,-4.46329165
2680,P,-4.46329165
2681,P,-4.86719561
2682,P,-4.86719561
2683,P,1820.09985
2684,P,1820.09985
2685,P,2045.9978
2686,P,2045.9978
2687,P,2046.90283
2688,P,2046.90283
2689,P,1819.27173
2690,P,1819.27173
2691,P,1960.3175
2692,P,1960.3175
2693,P,1959.64929
2694,P,1959.64929
2695,P,2684.9187
2696,P,2684.9187
2697,P,2343.11133
2698,P,2343.11133
2699,P,2687.02026
2700,P,2687.02026
2701,P,2341.35986
2702,P,2341.35986
2703,P,-2198.59375
2704,P,-2198.59375
2705,P,1816.53796
2706,P,1816.53796
2707,P,2044.52441
2708,P,2044.52441
2709,P,1817.91614
2710,P,1817.91614
2711,P,2042.9845
2712,P,2042.9845
2713,P,1957.23181
2714,P,1957.23181
2715,P,1092.00977
2716,P,1092.00977
2717,P,940.367493
2718,P,940.367493
2719,P,1091.8761
2720,P,1091.8761
2721,P,1220.16699
2722,P,1220.16699
2723,P,939.983337
2724,P,939.983337
2725,P,1091.50806
2726,P,1091.50806
2727,P,722.614807
2728,P,722.614807
2729,P,824.59137
2730,P,824.59137
2731,P,723.473145
2732,P,723.473145
2733,P,724.907471
2734,P,724.907471
2735,P,825.586487
2736,P,825.586487
2737,P,724.306335
2738,P,724.306335
2739,P,1217.62207
2740,P,1217.62207
2741,P,936.776367
2742,P,936.776367
2743,P,1090.11169
2744,P,1090.11169
2745,P,937.917053
2746,P,937.917053
2747,P,2666.95898
2748,P,2666.95898
2749,P,2322.06274
2750,P,2322.06274
2751,P,2662.29419
2752,P,2662.29419
2753,P,2326.17505
2754,P,2326.17505
2755,P,-2196.19775
2756,P,-2196.19775
2757,P,1792.34583
2758,P,1792.34583
2759,P,2020.91846
2760,P,2020.91846
2761,P,2016.64294
2762,P,2016.64294
2763,P,1796.19873
2764,P,1796.19873
2765,P,1934.39417
2766,P,1934.39417
2767,P,1937.38208
2768,P,1937.38208
2769,P,1803.79126
2770,P,1803.79126
2771,P,2025.41821
2772,P,2025.41821
2773,P,2029.1571
2774,P,2029.1571
2775,P,1800.37354
2776,P,1800.37354
2777,P,1945.15466
2778,P,1945.15466
2779,P,721.485962
2780,P,721.485962
2781,P,820.881165
2782,P,820.881165
2783,P,720.30072
2784,P,720.30072
2785,P,717.332275
2786,P,717.332275
2787,P,819.15271
2788,P,819.15271
2789,P,718.829651
2790,P,718.829651
2791,P,1068.01624
2792,P,1068.01624
2793,P,920.695557
2794,P,920.695557
2795,P,1199.97913
2796,P,1199.97913
2797,P,923.77655
2798,P,923.77655
2799,P,932.578918
2800,P,932.578918
2801,P,1083.50354
2802,P,1083.50354
2803,P,1208.34314
2804,P,1208.34314
2805,P,930.645325
2806,P,930.645325
2807,P,-5.59449339
2808,P,-5.59449339
2809,P,29.632452
2810,P,29.632452
2811,P,-5.34283304
2812,P,-5.34283304
2813,P,-20.2489567
2814,P,-20.2489567
2815,P,-27.1549282
2816,P,-27.1549282
2817,P,515.643494
2818,P,515.643494
2819,P,638.813782
2820,P,638.813782
2821,P,-18.5218105
2822,P,-18.5218105
2823,P,-17.723278
2824,P,-17.723278
2825,P,-20.1268806
2826,P,-20.1268806
2827,P,-20.2521019
2828,P,-20.2521019
2829,P,-26.5284958
2830,P,-26.5284958
2831,P,-18.532732
2832,P,-18.532732
2833,P,-4.43642712
2834,P,-4.43642712
2835,P,-4.84378672
2836,P,-4.84378672
2837,P,30.747736
2838,P,30.747736
2839,P,-119.370415
2840,P,-119.370415
2841,P,-131.17923
2842,P,-131.17923
2843,P,-16.1623573
2844,P,-16.1623573
2845,P,-23.780653
2846,P,-23.780653
2847,P,512.251892
2848,P,512.251892
2849,P,633.632874
2850,P,633.632874
2851,P,634.56366
2852,P,634.56366
2853,P,-17.8663521
2854,P,-17.8663521
2855,P,-17.2106018
2856,P,-17.2106018
2857,P,-16.2226753
2858,P,-16.2226753
2859,P,-17.9068375
2860,P,-17.9068375
2861,P,-24.6479588
2862,P,-24.6479588
2863,P,-17.8625011
2864,P,-17.8625011
2865,P,3.97279811
2866,P,3.97279811
2867,P,37.1237755
2868,P,37.1237755
2869,P,38.4577332
2870,P,38.4577332
2871,P,2.57812834
2872,P,2.57812834
2873,P,-0.0504921675
2874,P,-0.0504921675
2875,P,34.6697617
2876,P,34.6697617
2877,P,0.953939199
2878,P,0.953939199
2879,P,1763.76086
2880,P,1763.76086
2881,P,1978.81775
2882,P,1978.81775
2883,P,1985.6991
2884,P,1985.6991
2885,P,1757.49219
2886,P,1757.49219
2887,P,1906.78271
2888,P,1906.78271
2889,P,1901.94153
2890,P,1901.94153
2891,P,2581.39648
2892,P,2581.39648
2893,P,2260.68872
2894,P,2260.68872
2895,P,2592.4231
2896,P,2592.4231
2897,P,2251.56641
2898,P,2251.56641
2899,P,-2185.21362
2900,P,-2185.21362
2901,P,1741.521
2902,P,1741.521
2903,P,1969.63831
2904,P,1969.63831
2905,P,1748.96106
2906,P,1748.96106
2907,P,1961.4812
2908,P,1961.4812
2909,P,1887.19165
2910,P,1887.19165
2911,P,1063.36365
2912,P,1063.36365
2913,P,911.523865
2914,P,911.523865
2915,P,1060.46704
2916,P,1060.46704
2917,P,1179.0509
2918,P,1179.0509
2919,P,907.467041
2920,P,907.467041
2921,P,1052.69702
2922,P,1052.69702
2923,P,1056.27197
2924,P,1056.27197
2925,P,683.140564
2926,P,683.140564
2927,P,782.307373
2928,P,782.307373
2929,P,686.955261
2930,P,686.955261
2931,P,694.474243
2932,P,694.474243
2933,P,787.082764
2934,P,787.082764
2935,P,691.053955
2936,P,691.053955
2937,P,1162.74072
2938,P,1162.74072
2939,P,889.292542
2940,P,889.292542
2941,P,894.662598
2942,P,894.662598
2943,P,2507.42017
2944,P,2507.42017
2945,P,2175.53638
2946,P,2175.53638
2947,P,2491.18066
2948,P,2491.18066
2949,P,2189.19507
2950,P,2189.19507
2951,P,-2180.19409
2952,P,-2180.19409
2953,P,1650.03186
2954,P,1650.03186
2955,P,1876.7843
2956,P,1876.7843
2957,P,1862.63074
2958,P,1862.63074
2959,P,1663.07373
2960,P,1663.07373
2961,P,1802.45056
2962,P,1802.45056
2963,P,1813.00232
2964,P,1813.00232
2965,P,1689.19861
2966,P,1689.19861
2967,P,1892.65161
2968,P,1892.65161
2969,P,1904.95789
2970,P,1904.95789
2971,P,1677.86316
2972,P,1677.86316
2973,P,1838.14038
2974,P,1838.14038
2975,P,678.482483
2976,P,678.482483
2977,P,767.247131
2978,P,767.247131
2979,P,674.045105
2980,P,674.045105
2981,P,663.910339
2982,P,663.910339
2983,P,761.05249
2984,P,761.05249
2985,P,668.850769
2986,P,668.850769
2987,P,832.888123
2988,P,832.888123
2989,P,1095.46521
2990,P,1095.46521
2991,P,842.36676
2992,P,842.36676
2993,P,1024.24402
2994,P,1024.24402
2995,P,872.294312
2996,P,872.294312
2997,P,1124.60181
2998,P,1124.60181
2999,P,865.245178
3000,P,865.245178
3001,P,1004.40393
3002,P,1004.40393
3003,P,1011.12311
3004,P,1011.12311
3005,P,14.4535933
3006,P,14.4535933
3007,P,16.6873055
3008,P,16.6873055
3009,P,2.69289589
3010,P,2.69289589
3011,P,-1.6090821
3012,P,-1.6090821
3013,P,493.590515
3014,P,493.590515
3015,P,615.593201
3016,P,615.593201
3017,P,19.6958904
3018,P,19.6958904
3019,P,24.1617184
3020,P,24.1617184
3021,P,3.16905308
3022,P,3.16905308
3023,P,8.82125282
3024,P,8.82125282
3025,P,2.11157227
3026,P,2.11157227
3027,P,17.6394367
3028,P,17.6394367
3029,P,22.0604572
3030,P,22.0604572
3031,P,54.1662102
3032,P,54.1662102
3033,P,19.6177921
3034,P,19.6177921
3035,P,-79.0153961
3036,P,-79.0153961
3037,P,-73.4053345
3038,P,-73.4053345
3039,P,57.5636368
3040,P,57.5636368
3041,P,18.447279
3042,P,18.447279
3043,P,479.414215
3044,P,479.414215
3045,P,594.269592
3046,P,594.269592
3047,P,56.7858086
3048,P,56.7858086
3049,P,32.9664192
3050,P,32.9664192
3051,P,65.0095978
3052,P,65.0095978
3053,P,64.6258163
3054,P,64.6258163
3055,P,13.9373617
3056,P,13.9373617
3057,P,24.1497364
3058,P,24.1497364
3059,P,108.522591
3060,P,108.522591
3061,P,-100.623291
3062,P,-100.623291
3063,P,61.588768
3064,P,61.588768
3065,P,37.9836617
3066,P,37.9836617
3067,P,44.3755646
3068,P,44.3755646
3069,P,1559.03564
3070,P,1559.03564
3071,P,1743.66553
3072,P,1743.66553
3073,P,1765.3075
3074,P,1765.3075
3075,P,1538.87488
3076,P,1538.87488
3077,P,1716.26282
3078,P,1716.26282
3079,P,1699.03748
3080,P,1699.03748
3081,P,2232.98315
3082,P,2232.98315
3083,P,1982.49524
3084,P,1982.49524
3085,P,2265.47412
3086,P,2265.47412
3087,P,1954.62585
3088,P,1954.62585
3089,P,-2148.72949
3090,P,-2148.72949
3091,P,1488.92139
3092,P,1488.92139
3093,P,1715.84912
3094,P,1715.84912
3095,P,1512.69189
3096,P,1512.69189
3097,P,1690.42725
3098,P,1690.42725
3099,P,1651.4386
3100,P,1651.4386
3101,P,954.233215
3102,P,954.233215
3103,P,797.983276
3104,P,797.983276
3105,P,942.983521
3106,P,942.983521
3107,P,1028.78931
3108,P,1028.78931
3109,P,779.292847
3110,P,779.292847
3111,P,928.679138
3112,P,928.679138
3113,P,759.113892
3114,P,759.113892
3115,P,706.160828
3116,P,706.160828
3117,P,720.615601
3118,P,720.615601
3119,P,630.807312
3120,P,630.807312
3121,P,679.701294
3122,P,679.701294
3123,P,662.307678
3124,P,662.307678
3125,P,986.855591
3126,P,986.855591
3127,P,278.82959
3128,P,278.82959
3129,P,897.136719
3130,P,897.136719
3131,P,604.16156
3132,P,604.16156
3133,P,2004.86438
3134,P,2004.86438
3135,P,1710.19592
3136,P,1710.19592
3137,P,1947.82886
3138,P,1947.82886
3139,P,1758.48804
3140,P,1758.48804
3141,P,-2110.60352
3142,P,-2110.60352
3143,P,1204.04968
3144,P,1204.04968
3145,P,1418.37354
3146,P,1418.37354
3147,P,1361.45203
3148,P,1361.45203
3149,P,1254.63
3150,P,1254.63
3151,P,1632.95813
3152,P,1632.95813
3153,P,1695.75879
3154,P,1695.75879
3155,P,1334.17883
3156,P,1334.17883
3157,P,1474.10413
3158,P,1474.10413
3159,P,1515.13538
3160,P,1515.13538
3161,P,1303.40161
3162,P,1303.40161
3163,P,1631.18738
3164,P,1631.18738
3165,P,764.194824
3166,P,764.194824
3167,P,653.714661
3168,P,653.714661
3169,P,755.246887
3170,P,755.246887
3171,P,726.242065
3172,P,726.242065
3173,P,638.219055
3174,P,638.219055
3175,P,740.335938
3176,P,740.335938
3177,P,1038.5293
3178,P,1038.5293
3179,P,290.736481
3180,P,290.736481
3181,P,967.742554
3182,P,967.742554
3183,P,220.019608
3184,P,220.019608
3185,P,39.777977
3186,P,39.777977
3187,P,1130.2522
3188,P,1130.2522
3189,P,1014.26715
3190,P,1014.26715
3191,P,77.3554535
3192,P,77.3554535
3193,P,389.272369
3194,P,389.272369
3195,P,-971.521729
3196,P,-971.521729
3197,P,376.775055
3198,P,376.775055
3199,P,324.336731
3200,P,324.336731
3201,P,300.914612
3202,P,300.914612
3203,P,455.233978
3204,P,455.233978
3205,P,584.750549
3206,P,584.750549
3207,P,158.81073
3208,P,158.81073
3209,P,219.835831
3210,P,219.835831
3211,P,209.637589
3212,P,209.637589
3213,P,152.598328
3214,P,152.598328
3215,P,306.262299
3216,P,306.262299
3217,P,323.446381
3218,P,323.446381
3219,P,315.885803
3220,P,315.885803
3221,P,356.346893
3222,P,356.346893
3223,P,-876.380432
3224,P,-876.380432
3225,P,-165.869675
3226,P,-165.869675
3227,P,168.82077
3228,P,168.82077
3229,P,292.445526
3230,P,292.445526
3231,P,321.449982
3232,P,321.449982
3233,P,468.554321
3234,P,468.554321
3235,P,584.001282
3236,P,584.001282
3237,P,581.785034
3238,P,581.785034
3239,P,190.351944
3240,P,190.351944
3241,P,224.702454
3242,P,224.702454
3243,P,217.365936
3244,P,217.365936
3245,P,189.468658
3246,P,189.468658
3247,P,331.870056
3248,P,331.870056
3249,P,322.981567
3250,P,322.981567
3251,P,-168.412643
3252,P,-168.412643
3253,P,-404.223572
3254,P,-404.223572
3255,P,-320.188385
3256,P,-320.188385
3257,P,-217.73259
3258,P,-217.73259
3259,P,-294.157501
3260,P,-294.157501
3261,P,-542.265442
3262,P,-542.265442
3263,P,-260.191711
3264,P,-260.191711
3265,P,491.154877
3266,P,491.154877
3267,P,510.552399
3268,P,510.552399
3269,P,382.496002
3270,P,382.496002
3271,P,326.841095
3272,P,326.841095
3273,P,413.373322
3274,P,413.373322
3275,P,419.76709
3276,P,419.76709
3277,P,409.206879
3278,P,409.206879
3279,P,339.74646
3280,P,339.74646
3281,P,375.682587
3282,P,375.682587
3283,P,324.879822
3284,P,324.879822
3285,P,324.559875
3286,P,324.559875
3287,P,-580.973999
3288,P,-580.973999
3289,P,-508.644196
3290,P,-508.644196
3291,P,206.585495
3292,P,206.585495
3293,P,-612.89563
3294,P,-612.89563
3295,P,-1767.11951
3296,P,-1767.11951
3297,P,816.180725
3298,P,816.180725
3299,P,732.770447
3300,P,732.770447
3301,P,377.055328
3302,P,377.055328
3303,P,326.134583
3304,P,326.134583
3305,P,409.616211
3306,P,409.616211
3307,P,339.574066
3308,P,339.574066
3309,P,419.790588
3310,P,419.790588
3311,P,413.061737
3312,P,413.061737
3313,P,340.904236
3314,P,340.904236
3315,P,381.464294
3316,P,381.464294
3317,P,481.849091
3318,P,481.849091
3319,P,530.228088
3320,P,530.228088
3321,P,-1766.77795
3322,P,-1766.77795
3323,P,811.194946
3324,P,811.194946
3325,P,724.917725
3326,P,724.917725
3327,P,212.599182
3328,P,212.599182
3329,P,-140.394913
3330,P,-140.394913
3331,P,-140.394913
3332,P,393.522644
3333,P,393.522644
3334,P,335.906982
3335,P,335.906982
3336,P,394.223694
3337,P,394.223694
3338,P,331.605713
3339,P,331.605713
3340,P,417.802155
3341,P,417.802155
3342,P,418.904114
3343,P,418.904114
3344,P,399.920685
3345,P,399.920685
3346,P,333.36911
3347,P,333.36911
3348,P,376.35495
3349,P,376.35495
3350,P,324.238068
3351,P,324.238068
3352,P,324.793762
3353,P,324.793762
3354,P,1423.21436
3355,P,1423.21436
3356,P,1376.77148
3357,P,1376.77148
3358,P,616.540466
3359,P,616.540466
3360,P,616.540466
3361,P,682.869873
3362,P,682.869873
3363,P,378.875702
3364,P,378.875702
3365,P,327.586975
3366,P,327.586975
3367,P,400.529938
3368,P,400.529938
3369,P,334.93692
3370,P,334.93692
3371,P,333.989746
3372,P,333.989746
3373,P,419.019958
3374,P,419.019958
3375,P,344.210327
3376,P,344.210327
3377,P,417.624237
3378,P,417.624237
3379,P,343.888733
3380,P,343.888733
3381,P,393.486847
3382,P,393.486847
3383,P,389.677307
3384,P,389.677307
3385,P,1422.87158
3386,P,1422.87158
3387,P,1376.61267
3388,P,1376.61267
3389,P,610.215759
3390,P,610.215759
3391,P,610.215759
3392,P,682.216675
3393,P,682.216675
3394,P,575.68573
3395,P,575.68573
3396,P,910.156189
3397,P,910.156189
3398,P,227.581146
3399,P,227.581146
3400,P,25.3428688
3401,P,25.3428688
3402,P,461.505188
3403,P,461.505188
3404,P,240.697586
3405,P,240.697586
3406,P,-79.3384018
3407,P,-79.3384018
3408,P,-102.397354
3409,P,-102.397354
3410,P,-29.3773975
3411,P,-29.3773975
3412,P,-29.3773975
3413,P,202.088745
3414,P,202.088745
3415,P,386.394501
3416,P,386.394501
3417,P,386.394501
3418,P,303.074402
3419,P,303.074402
3420,P,324.80307
3421,P,324.80307
3422,P,324.80307
3423,P,15.7718306
3424,P,15.7718306
3425,P,-24.012289
3426,P,-24.012289
3427,P,-24.012289
3428,P,111.011032
3429,P,111.011032
3430,P,288.952393
3431,P,288.952393
3432,P,384.865631
3433,P,384.865631
3434,P,103.574104
3435,P,103.574104
3436,P,332.276611
3437,P,332.276611
3438,P,-553.506104
3439,P,-553.506104
3440,P,-713.805176
3441,P,-713.805176
3442,P,-713.805176
3443,P,221.244583
3444,P,221.244583
3445,P,134.995956
3446,P,134.995956
3447,P,134.995956
3448,P,221.178116
3449,P,221.178116
3450,P,134.367264
3451,P,134.367264
3452,P,134.367264
3453,P,-443.182983
3454,P,-443.182983
3455,P,-663.205322
3456,P,-663.205322
3457,P,-663.205322
3458,P,-15.6212435
3459,P,-15.6212435
3460,P,-13.2683983
3461,P,-13.2683983
3462,P,414.596039
3463,P,414.596039
3464,P,342.978027
3465,P,342.978027
3466,P,-16.3131847
3467,P,-16.3131847
3468,P,-13.4984894
3469,P,-13.4984894
3470,P,211.662292
3471,P,211.662292
3472,P,-1043.27466
3473,P,-1043.27466
3474,P,-1043.27466
3475,P,231.120575
3476,P,231.120575
3477,P,135.89418
3478,P,135.89418
3479,P,135.89418
3480,P,230.762283
3481,P,230.762283
3482,P,136.008759
3483,P,136.008759
3484,P,136.008759
3485,P,204.657074
3486,P,204.657074
3487,P,-1032.06042
3488,P,-1032.06042
3489,P,-1032.06042
3490,P,-33.9276276
3491,P,-33.9276276
3492,P,-45.4835167
3493,P,-45.4835167
3494,P,419.673584
3495,P,419.673584
3496,P,343.728424
3497,P,343.728424
3498,P,-33.0668526
3499,P,-33.0668526
3500,P,-42.0865784
3501,P,-42.0865784
3502,P,-59.2802238
3503,P,-59.2802238
3504,P,-120.079659
3505,P,-120.079659
3506,P,230.514008
3507,P,230.514008
3508,P,131.208328
3509,P,131.208328
3510,P,131.208328
3511,P,230.437836
3512,P,230.437836
3513,P,131.389221
3514,P,131.389221
3515,P,131.389221
3516,P,-59.6667023
3517,P,-59.6667023
3518,P,-90.1124649
3519,P,-90.1124649
3520,P,-90.1124649
3521,P,-90.1124649
3522,P,-90.1124649
3523,P,-11.7013779
3524,P,-11.7013779
3525,P,-12.4977007
3526,P,-12.4977007
3527,P,407.435791
3528,P,407.435791
3529,P,338.332977
3530,P,338.332977
3531,P,337.548309
3532,P,337.548309
3533,P,-9.33223343
3534,P,-9.33223343
3535,P,-9.40420437
3536,P,-9.40420437
3537,P,181.916275
3538,P,181.916275
3539,P,-981.58905
3540,P,-981.58905
3541,P,-981.58905
3542,P,229.232849
3543,P,229.232849
3544,P,135.31221
3545,P,135.31221
3546,P,135.31221
3547,P,229.807098
3548,P,229.807098
3549,P,135.051743
3550,P,135.051743
3551,P,135.051743
3552,P,202.134018
3553,P,202.134018
3554,P,-994.377563
3555,P,-994.377563
3556,P,-994.377563
3557,P,123.025192
3558,P,123.025192
3559,P,271.997986
3560,P,271.997986
3561,P,374.001617
3562,P,374.001617
3563,P,325.606445
3564,P,325.606445
3565,P,326.68576
3566,P,326.68576
3567,P,126.782593
3568,P,126.782593
3569,P,254.654999
3570,P,254.654999
3571,P,-324.911163
3572,P,-324.911163
3573,P,-444.805878
3574,P,-444.805878
3575,P,-444.805878
3576,P,220.284409
3577,P,220.284409
3578,P,134.854568
3579,P,134.854568
3580,P,134.854568
3581,P,220.126022
3582,P,220.126022
3583,P,135.801834
3584,P,135.801834
3585,P,135.801834
3586,P,-402.751465
3587,P,-402.751465
3588,P,-505.099609
3589,P,-505.099609
3590,P,-505.099609
3591,P,-280.800903
3592,P,-280.800903
3593,P,-393.998657
3594,P,-393.998657
3595,P,1003.33386
3596,P,1003.33386
3597,P,970.448853
3598,P,970.448853
3599,P,-1107.22974
3600,P,-1107.22974
3601,P,-1107.22974
3602,P,751.672852
3603,P,751.672852
3604,P,927.509094
3605,P,927.509094
3606,P,818.808044
3607,P,818.808044
3608,P,1056.37732
3609,P,1056.37732
3610,P,873.850708
3611,P,873.850708
3612,P,190.05542
3613,P,190.05542
3614,P,206.289246
3615,P,206.289246
3616,P,214.031296
3617,P,214.031296
3618,P,213.35643
3619,P,213.35643
3620,P,218.375778
3621,P,218.375778
3622,P,879.96582
3623,P,879.96582
3624,P,222.107407
3625,P,222.107407
3626,P,375.538849
3627,P,375.538849
3628,P,123.207291
3629,P,123.207291
3630,P,272.155121
3631,P,272.155121
3632,P,127.029961
3633,P,127.029961
3634,P,255.029419
3635,P,255.029419
3636,P,-324.699097
3637,P,-324.699097
3638,P,-444.734436
3639,P,-444.734436
3640,P,-444.734436
3641,P,221.512177
3642,P,221.512177
3643,P,135.829178
3644,P,135.829178
3645,P,135.829178
3646,P,221.211227
3647,P,221.211227
3648,P,136.894165
3649,P,136.894165
3650,P,136.894165
3651,P,-402.708801
3652,P,-402.708801
3653,P,-505.085938
3654,P,-505.085938
3655,P,-505.085938
3656,P,407.885132
3657,P,407.885132
3658,P,338.016113
3659,P,338.016113
3660,P,-11.741312
3661,P,-11.741312
3662,P,-12.5424366
3663,P,-12.5424366
3664,P,-9.3676281
3665,P,-9.3676281
3666,P,-9.43972969
3667,P,-9.43972969
3668,P,181.871414
3669,P,181.871414
3670,P,-981.669983
3671,P,-981.669983
3672,P,-981.669983
3673,P,229.610657
3674,P,229.610657
3675,P,135.615372
3676,P,135.615372
3677,P,135.615372
3678,P,230.142609
3679,P,230.142609
3680,P,135.387497
3681,P,135.387497
3682,P,135.387497
3683,P,202.082764
3684,P,202.082764
3685,P,-994.452087
3686,P,-994.452087
3687,P,-994.452087
3688,P,419.715485
3689,P,419.715485
3690,P,343.766693
3691,P,343.766693
3692,P,-33.9384499
3693,P,-33.9384499
3694,P,-45.4872665
3695,P,-45.4872665
3696,P,-33.0853195
3697,P,-33.0853195
3698,P,-42.1122932
3699,P,-42.1122932
3700,P,-59.3108101
3701,P,-59.3108101
3702,P,-120.110016
3703,P,-120.110016
3704,P,-120.110016
3705,P,230.53215
3706,P,230.53215
3707,P,131.21196
3708,P,131.21196
3709,P,131.21196
3710,P,230.442902
3711,P,230.442902
3712,P,131.401001
3713,P,131.401001
3714,P,131.401001
3715,P,-59.6709061
3716,P,-59.6709061
3717,P,-90.1301193
3718,P,-90.1301193
3719,P,-90.1301193
3720,P,-90.1301193
3721,P,-90.1301193
3722,P,414.315582
3723,P,414.315582
3724,P,342.243011
3725,P,342.243011
3726,P,342.744598
3727,P,342.744598
3728,P,-15.5696821
3729,P,-15.5696821
3730,P,-13.2189808
3731,P,-13.2189808
3732,P,-16.258009
3733,P,-16.258009
3734,P,-13.4389868
3735,P,-13.4389868
3736,P,211.711304
3737,P,211.711304
3738,P,-1043.17285
3739,P,-1043.17285
3740,P,-1043.17285
3741,P,230.837601
3742,P,230.837601
3743,P,135.617004
3744,P,135.617004
3745,P,135.617004
3746,P,230.454727
3747,P,230.454727
3748,P,135.75354
3749,P,135.75354
3750,P,135.75354
3751,P,204.70575
3752,P,204.70575
3753,P,-1031.96521
3754,P,-1031.96521
3755,P,-1031.96521
3756,P,383.913788
3757,P,383.913788
3758,P,326.693176
3759,P,326.693176
3760,P,327.439331
3761,P,327.439331
3762,P,110.937271
3763,P,110.937271
3764,P,288.844299
3765,P,288.844299
3766,P,103.527817
3767,P,103.527817
3768,P,332.226196
3769,P,332.226196
3770,P,-553.490051
3771,P,-553.490051
3772,P,-713.791382
3773,P,-713.791382
3774,P,-713.791382
3775,P,220.329575
3776,P,220.329575
3777,P,134.107895
3778,P,134.107895
3779,P,134.107895
3780,P,220.19191
3781,P,220.19191
3782,P,133.547531
3783,P,133.547531
3784,P,133.547531
3785,P,-443.196594
3786,P,-443.196594
3787,P,-663.183228
3788,P,-663.183228
3789,P,-663.183228
3790,P,453.77951
3791,P,453.77951
3792,P,478.321259
3793,P,478.321259
3794,P,234.321381
3795,P,234.321381
3796,P,32.6788025
3797,P,32.6788025
3798,P,248.529877
3799,P,248.529877
3800,P,-63.8061867
3801,P,-63.8061867
3802,P,-86.7531815
3803,P,-86.7531815
3804,P,-341.4198
3805,P,-341.4198
3806,P,-341.4198
3807,P,181.364914
3808,P,181.364914
3809,P,362.034576
3810,P,362.034576
3811,P,266.40564
3812,P,266.40564
3813,P,311.622375
3814,P,311.622375
3815,P,-90.7243958
3816,P,-90.7243958
3817,P,-508.018127
3818,P,-508.018127
3819,P,-508.018127
3820,P,1003.17859
3821,P,1003.17859
3822,P,970.419434
3823,P,970.419434
3824,P,-1105.84375
3825,P,-1105.84375
3826,P,-1105.84375
3827,P,748.286194
3828,P,748.286194
3829,P,923.786499
3830,P,923.786499
3831,P,815.257385
3832,P,815.257385
3833,P,1052.63818
3834,P,1052.63818
3835,P,870.578064
3836,P,870.578064
3837,P,188.857971
3838,P,188.857971
3839,P,203.953903
3840,P,203.953903
3841,P,213.23381
3842,P,213.23381
3843,P,212.730789
3844,P,212.730789
3845,P,217.668228
3846,P,217.668228
3847,P,873.649963
3848,P,873.649963
3849,P,1530.56189
3850,P,1530.56189
3851,P,1530.56189
3852,P,222.759796
3853,P,222.759796
3854,P,15.3441744
3855,P,15.3441744
3856,P,405.264709
3857,P,405.264709
3858,P,385.653473
3859,P,385.653473
3860,P,289.977325
3861,P,289.977325
3862,P,39.6978111
3863,P,39.6978111
3864,P,281.783417
3865,P,281.783417
3866,P,-97.7894211
3867,P,-97.7894211
3868,P,-128.845154
3869,P,-128.845154
3870,P,-102.511826
3871,P,-102.511826
3872,P,-102.511826
3873,P,207.637756
3874,P,207.637756
3875,P,164.327286
3876,P,164.327286
3877,P,164.327286
3878,P,182.976395
3879,P,182.976395
3880,P,182.976395
3881,P,226.974075
3882,P,226.974075
3883,P,-227.400818
3884,P,-227.400818
3885,P,-144.805298
3886,P,-144.805298
3887,P,-144.805298
3888,P,-84.528595
3889,P,-84.528595
3890,P,-34.0277672
3891,P,-34.0277672
3892,P,261.131165
3893,P,261.131165
3894,P,34.5968361
3895,P,34.5968361
3896,P,159.790512
3897,P,159.790512
3898,P,104.737534
3899,P,104.737534
3900,P,-70.5476303
3901,P,-70.5476303
3902,P,108.822128
3903,P,108.822128
3904,P,276.580963
3905,P,276.580963
3906,P,49.4610519
3907,P,49.4610519
3908,P,-7.84215784
3909,P,-7.84215784
3910,P,86.5521393
3911,P,86.5521393
3912,P,216.473587
3913,P,216.473587
3914,P,-57.5292168
3915,P,-57.5292168
3916,P,-217.117798
3917,P,-217.117798
3918,P,-103.551949
3919,P,-103.551949
3920,P,-248.306137
3921,P,-248.306137
3922,P,-204.338821
3923,P,-204.338821
3924,P,-71.3354874
3925,P,-71.3354874
3926,P,-187.753571
3927,P,-187.753571
3928,P,-221.95282
3929,P,-221.95282
3930,P,-153.939865
3931,P,-153.939865
3932,P,177.054138
3933,P,177.054138
3934,P,-114.148743
3935,P,-114.148743
3936,P,391.743622
3937,P,391.743622
3938,P,86.7915649
3939,P,86.7915649
3940,P,346.83075
3941,P,346.83075
3942,P,91.9716797
3943,P,91.9716797
3944,P,338.401245
3945,P,338.401245
3946,P,-571.891663
3947,P,-571.891663
3948,P,-793.065002
3949,P,-793.065002
3950,P,-793.065002
3951,P,224.133987
3952,P,224.133987
3953,P,134.146011
3954,P,134.146011
3955,P,134.146011
3956,P,134.026093
3957,P,134.026093
3958,P,134.026093
3959,P,224.850342
3960,P,224.850342
3961,P,-508.833801
3962,P,-508.833801
3963,P,-812.468445
3964,P,-812.468445
3965,P,-812.468445
3966,P,290.853699
3967,P,290.853699
3968,P,-72.8798523
3969,P,-72.8798523
3970,P,113.6343
3971,P,113.6343
3972,P,-315.190918
3973,P,-315.190918
3974,P,-423.598267
3975,P,-423.598267
3976,P,-466.45578
3977,P,-466.45578
3978,P,286.312988
3979,P,286.312988
3980,P,-293.949982
3981,P,-293.949982
3982,P,-316.818176
3983,P,-316.818176
3984,P,-509.196899
3985,P,-509.196899
3986,P,-474.239166
3987,P,-474.239166
3988,P,111.560371
3989,P,111.560371
3990,P,106.09951
3991,P,106.09951
3992,P,283.895294
3993,P,283.895294
3994,P,225.054504
3995,P,225.054504
3996,P,-521.367798
3997,P,-521.367798
3998,P,-508.370117
3999,P,-508.370117
4000,P,-514.725159
4001,P,-514.725159
4002,P,-508.458862
4003,P,-508.458862
4004,P,283.511719
4005,P,283.511719
4006,P,108.653961
4007,P,108.653961
4008,P,254.70256
4009,P,254.70256
4010,P,234.548431
4011,P,234.548431
4012,P,417.095886
4013,P,417.095886
4014,P,343.919037
4015,P,343.919037
4016,P,343.731934
4017,P,343.731934
4018,P,-14.8171625
4019,P,-14.8171625
4020,P,-5.02986574
4021,P,-5.02986574
4022,P,-15.6895056
4023,P,-15.6895056
4024,P,-12.627058
4025,P,-12.627058
4026,P,214.880005
4027,P,214.880005
4028,P,-1067.98523
4029,P,-1067.98523
4030,P,-1067.98523
4031,P,232.41925
4032,P,232.41925
4033,P,135.480087
4034,P,135.480087
4035,P,135.480087
4036,P,135.900208
4037,P,135.900208
4038,P,135.900208
4039,P,232.322067
4040,P,232.322067
4041,P,237.463943
4042,P,237.463943
4043,P,-1070.59961
4044,P,-1070.59961
4045,P,-1070.59961
4046,P,153.984879
4047,P,153.984879
4048,P,104.309853
4049,P,104.309853
4050,P,131.146469
4051,P,131.146469
4052,P,126.007759
4053,P,126.007759
4054,P,76.9446869
4055,P,76.9446869
4056,P,80.3080063
4057,P,80.3080063
4058,P,152.314301
4059,P,152.314301
4060,P,104.580475
4061,P,104.580475
4062,P,117.368607
4063,P,117.368607
4064,P,104.396759
4065,P,104.396759
4066,P,123.409744
4067,P,123.409744
4068,P,84.2290421
4069,P,84.2290421
4070,P,81.9670715
4071,P,81.9670715
4072,P,133.294495
4073,P,133.294495
4074,P,166.605225
4075,P,166.605225
4076,P,103.645393
4077,P,103.645393
4078,P,136.246078
4079,P,136.246078
4080,P,82.7150803
4081,P,82.7150803
4082,P,84.9967041
4083,P,84.9967041
4084,P,85.4064026
4085,P,85.4064026
4086,P,85.2975235
4087,P,85.2975235
4088,P,168.14801
4089,P,168.14801
4090,P,133.028336
4091,P,133.028336
4092,P,136.725235
4093,P,136.725235
4094,P,419.229675
4095,P,419.229675
4096,P,-14.0570393
4097,P,-14.0570393
4098,P,-2.49721313
4099,P,-2.49721313
4100,P,-18.5339794
4101,P,-18.5339794
4102,P,-32.599781
4103,P,-32.599781
4104,P,-25.3357296
4105,P,-25.3357296
4106,P,-686.964294
4107,P,-686.964294
4108,P,231.763824
4109,P,231.763824
4110,P,134.829025
4111,P,134.829025
4112,P,134.829025
4113,P,134.178375
4114,P,134.178375
4115,P,134.178375
4116,P,232.043884
4117,P,232.043884
4118,P,251.70871
4119,P,251.70871
4120,P,-973.528015
4121,P,-973.528015
4122,P,-973.528015
4123,P,-973.528015
4124,P,-69.7492294
4125,P,-69.7492294
4126,P,96.9008255
4127,P,96.9008255
4128,P,21.5609055
4129,P,21.5609055
4130,P,95.6496201
4131,P,95.6496201
4132,P,-1.72304451
4133,P,-1.72304451
4134,P,29.8405609
4135,P,29.8405609
4136,P,32.6216087
4137,P,32.6216087
4138,P,-68.0112076
4139,P,-68.0112076
4140,P,94.7850647
4141,P,94.7850647
4142,P,-13.0557423
4143,P,-13.0557423
4144,P,-7.95792294
4145,P,-7.95792294
4146,P,46.3829079
4147,P,46.3829079
4148,P,36.7323532
4149,P,36.7323532
4150,P,39.3501854
4151,P,39.3501854
4152,P,116.49749
4153,P,116.49749
4154,P,99.1169128
4155,P,99.1169128
4156,P,84.6842804
4157,P,84.6842804
4158,P,77.7516556
4159,P,77.7516556
4160,P,73.4297714
4161,P,73.4297714
4162,P,55.6346893
4163,P,55.6346893
4164,P,66.751976
4165,P,66.751976
4166,P,150.487656
4167,P,150.487656
4168,P,125.089752
4169,P,125.089752
4170,P,102.246529
4171,P,102.246529
4172,P,402.109741
4173,P,402.109741
4174,P,335.43219
4175,P,335.43219
4176,P,336.228577
4177,P,336.228577
4178,P,27.5066013
4179,P,27.5066013
4180,P,242.849091
4181,P,242.849091
4182,P,10.0867853
4183,P,10.0867853
4184,P,-5.12192059
4185,P,-5.12192059
4186,P,162.572113
4187,P,162.572113
4188,P,-951.690491
4189,P,-951.690491
4190,P,-951.690491
4191,P,225.668137
4192,P,225.668137
4193,P,133.743912
4194,P,133.743912
4195,P,133.743912
4196,P,133.805557
4197,P,133.805557
4198,P,133.805557
4199,P,225.035416
4200,P,225.035416
4201,P,-260.128998
4202,P,-260.128998
4203,P,-931.974243
4204,P,-931.974243
4205,P,-931.974243
4206,P,133.220795
4207,P,133.220795
4208,P,95.0104904
4209,P,95.0104904
4210,P,104.162933
4211,P,104.162933
4212,P,75.0669479
4213,P,75.0669479
4214,P,70.2570801
4215,P,70.2570801
4216,P,136.184402
4217,P,136.184402
4218,P,114.631195
4219,P,114.631195
4220,P,107.526886
4221,P,107.526886
4222,P,56.8997002
4223,P,56.8997002
4224,P,67.5081253
4225,P,67.5081253
4226,P,105.703568
4227,P,105.703568
4228,P,91.7487106
4229,P,91.7487106
4230,P,126.430153
4231,P,126.430153
4232,P,107.797012
4233,P,107.797012
4234,P,-522.245972
4235,P,-522.245972
4236,P,-273.157471
4237,P,-273.157471
4238,P,49.6666946
4239,P,49.6666946
4240,P,-64.3106766
4241,P,-64.3106766
4242,P,140.151535
4243,P,140.151535
4244,P,107.98571
4245,P,107.98571
4246,P,263.942169
4247,P,263.942169
4248,P,107.126823
4249,P,107.126823
4250,P,202.348389
4251,P,202.348389
4252,P,373.862396
4253,P,373.862396
4254,P,144.345413
4255,P,144.345413
4256,P,163.985687
4257,P,163.985687
4258,P,136.363739
4259,P,136.363739
4260,P,248.230103
4261,P,248.230103
4262,P,-307.715057
4263,P,-307.715057
4264,P,-358.088257
4265,P,-358.088257
4266,P,-358.088257
4267,P,225.935043
4268,P,225.935043
4269,P,154.073044
4270,P,154.073044
4271,P,154.073044
4272,P,149.085861
4273,P,149.085861
4274,P,149.085861
4275,P,226.417938
4276,P,226.417938
4277,P,-256.777161
4278,P,-256.777161
4279,P,-327.141266
4280,P,-327.141266
4281,P,-327.141266
4282,P,89.1320496
4283,P,89.1320496
4284,P,126.152924
4285,P,126.152924
4286,P,-224.332748
4287,P,-224.332748
4288,P,122.552673
4289,P,122.552673
4290,P,-248.977997
4291,P,-248.977997
4292,P,-406.131866
4293,P,-406.131866
4294,P,-369.129181
4295,P,-369.129181
4296,P,146.757706
4297,P,146.757706
4298,P,-282.162781
4299,P,-282.162781
4300,P,120.607048
4301,P,120.607048
4302,P,-254.469864
4303,P,-254.469864
4304,P,-343.390686
4305,P,-343.390686
4306,P,-363.482025
4307,P,-363.482025
4308,P,127.309036
4309,P,127.309036
4310,P,-218.025223
4311,P,-218.025223
4312,P,-107.892349
4313,P,-107.892349
4314,P,129.696106
4315,P,129.696106
4316,P,-195.500168
4317,P,-195.500168
4318,P,-256.618652
4319,P,-256.618652
4320,P,-294.803833
4321,P,-294.803833
4322,P,-335.797485
4323,P,-335.797485
4324,P,-305.085632
4325,P,-305.085632
4326,P,-121.016487
4327,P,-121.016487
4328,P,-159.08194
4329,P,-159.08194
4330,P,-188.340836
4331,P,-188.340836
4332,P,836.355286
4333,P,836.355286
4334,P,895.488159
4335,P,895.488159
4336,P,1307.69775
4337,P,1307.69775
4338,P,1307.69775
4339,P,1168.84033
4340,P,1168.84033
4341,P,911.594543
4342,P,911.594543
4343,P,1101.90051
4344,P,1101.90051
4345,P,1101.90051
4346,P,1023.09503
4347,P,1023.09503
4348,P,422.851074
4349,P,422.851074
4350,P,122.204727
4351,P,122.204727
4352,P,110.853355
4353,P,110.853355
4354,P,110.853355
4355,P,376.075256
4356,P,376.075256
4357,P,328.044159
4358,P,328.044159
4359,P,144.979584
4360,P,144.979584
4361,P,165.093918
4362,P,165.093918
4363,P,136.878754
4364,P,136.878754
4365,P,248.757309
4366,P,248.757309
4367,P,-307.373901
4368,P,-307.373901
4369,P,-357.598297
4370,P,-357.598297
4371,P,-357.598297
4372,P,228.356995
4373,P,228.356995
4374,P,156.568558
4375,P,156.568558
4376,P,156.568558
4377,P,229.268936
4378,P,229.268936
4379,P,151.2211
4380,P,151.2211
4381,P,151.2211
4382,P,-255.343292
4383,P,-255.343292
4384,P,-326.094086
4385,P,-326.094086
4386,P,-326.094086
4387,P,88.9314346
4388,P,88.9314346
4389,P,-225.051071
4390,P,-225.051071
4391,P,-249.386139
4392,P,-249.386139
4393,P,-406.318726
4394,P,-406.318726
4395,P,-369.439301
4396,P,-369.439301
4397,P,146.58493
4398,P,146.58493
4399,P,-282.367737
4400,P,-282.367737
4401,P,-254.809692
4402,P,-254.809692
4403,P,-344.041901
4404,P,-344.041901
4405,P,-363.852386
4406,P,-363.852386
4407,P,-108.205894
4408,P,-108.205894
4409,P,-218.905838
4410,P,-218.905838
4411,P,130.966553
4412,P,130.966553
4413,P,-197.110687
4414,P,-197.110687
4415,P,-260.159973
4416,P,-260.159973
4417,P,-296.63974
4418,P,-296.63974
4419,P,-121.485931
4420,P,-121.485931
4421,P,-163.233566
4422,P,-163.233566
4423,P,-190.376892
4424,P,-190.376892
4425,P,-336.597382
4426,P,-336.597382
4427,P,-306.55014
4428,P,-306.55014
4429,P,402.677216
4430,P,402.677216
4431,P,335.976471
4432,P,335.976471
4433,P,336.736633
4434,P,336.736633
4435,P,27.489975
4436,P,27.489975
4437,P,242.845795
4438,P,242.845795
4439,P,10.064394
4440,P,10.064394
4441,P,-5.15385389
4442,P,-5.15385389
4443,P,162.527771
4444,P,162.527771
4445,P,-951.767395
4446,P,-951.767395
4447,P,-951.767395
4448,P,226.216599
4449,P,226.216599
4450,P,134.262802
4451,P,134.262802
4452,P,134.262802
4453,P,225.627243
4454,P,225.627243
4455,P,134.294266
4456,P,134.294266
4457,P,134.294266
4458,P,-260.165131
4459,P,-260.165131
4460,P,-932.043762
4461,P,-932.043762
4462,P,-932.043762
4463,P,133.127853
4464,P,133.127853
4465,P,105.79438
4466,P,105.79438
4467,P,94.9652405
4468,P,94.9652405
4469,P,104.093437
4470,P,104.093437
4471,P,75.0195694
4472,P,75.0195694
4473,P,70.2343216
4474,P,70.2343216
4475,P,136.087418
4476,P,136.087418
4477,P,104.526138
4478,P,104.526138
4479,P,114.538635
4480,P,114.538635
4481,P,104.883209
4482,P,104.883209
4483,P,107.44828
4484,P,107.44828
4485,P,56.9147339
4486,P,56.9147339
4487,P,67.4969482
4488,P,67.4969482
4489,P,126.35157
4490,P,126.35157
4491,P,106.005859
4492,P,106.005859
4493,P,91.7079391
4494,P,91.7079391
4495,P,107.769119
4496,P,107.769119
4497,P,-522.258972
4498,P,-522.258972
4499,P,-273.147583
4500,P,-273.147583
4501,P,140.079254
4502,P,140.079254
4503,P,263.909576
4504,P,263.909576
4505,P,107.474785
4506,P,107.474785
4507,P,202.322906
4508,P,202.322906
4509,P,49.686821
4510,P,49.686821
4511,P,-64.287384
4512,P,-64.287384
4513,P,419.325348
4514,P,419.325348
4515,P,-14.1057739
4516,P,-14.1057739
4517,P,-2.55395269
4518,P,-2.55395269
4519,P,-18.5758038
4520,P,-18.5758038
4521,P,-32.6351318
4522,P,-32.6351318
4523,P,-25.3757648
4524,P,-25.3757648
4525,P,-687.018372
4526,P,-687.018372
4527,P,231.855576
4528,P,231.855576
4529,P,134.923599
4530,P,134.923599
4531,P,134.923599
4532,P,232.154556
4533,P,232.154556
4534,P,134.254211
4535,P,134.254211
4536,P,134.254211
4537,P,251.652939
4538,P,251.652939
4539,P,-973.586304
4540,P,-973.586304
4541,P,-973.586304
4542,P,-973.586304
4543,P,-69.7851181
4544,P,-69.7851181
4545,P,21.5576591
4546,P,21.5576591
4547,P,95.6517944
4548,P,95.6517944
4549,P,-1.7267462
4550,P,-1.7267462
4551,P,29.8407021
4552,P,29.8407021
4553,P,32.6382637
4554,P,32.6382637
4555,P,-68.0394287
4556,P,-68.0394287
4557,P,94.7862473
4558,P,94.7862473
4559,P,-13.0581121
4560,P,-13.0581121
4561,P,95.2937469
4562,P,95.2937469
4563,P,-7.96146774
4564,P,-7.96146774
4565,P,46.411602
4566,P,46.411602
4567,P,36.7544136
4568,P,36.7544136
4569,P,116.432472
4570,P,116.432472
4571,P,97.4159851
4572,P,97.4159851
4573,P,39.3454514
4574,P,39.3454514
4575,P,84.6740646
4576,P,84.6740646
4577,P,77.7511826
4578,P,77.7511826
4579,P,73.4429169
4580,P,73.4429169
4581,P,150.42421
4582,P,150.42421
4583,P,101.439629
4584,P,101.439629
4585,P,125.066208
4586,P,125.066208
4587,P,102.233734
4588,P,102.233734
4589,P,55.6612167
4590,P,55.6612167
4591,P,66.7715759
4592,P,66.7715759
4593,P,416.893616
4594,P,416.893616
4595,P,-14.7597113
4596,P,-14.7597113
4597,P,-4.97063637
4598,P,-4.97063637
4599,P,-15.6308651
4600,P,-15.6308651
4601,P,-12.5666065
4602,P,-12.5666065
4603,P,214.929306
4604,P,214.929306
4605,P,-1067.89014
4606,P,-1067.89014
4607,P,-1067.89014
4608,P,232.263931
4609,P,232.263931
4610,P,135.363419
4611,P,135.363419
4612,P,135.363419
4613,P,232.186981
4614,P,232.186981
4615,P,135.76239
4616,P,135.76239
4617,P,135.76239
4618,P,237.516861
4619,P,237.516861
4620,P,-1070.50708
4621,P,-1070.50708
4622,P,-1070.50708
4623,P,154.040527
4624,P,154.040527
4625,P,131.230179
4626,P,131.230179
4627,P,126.110657
4628,P,126.110657
4629,P,77.000824
4630,P,77.000824
4631,P,80.3816986
4632,P,80.3816986
4633,P,152.379395
4634,P,152.379395
4635,P,117.471008
4636,P,117.471008
4637,P,123.516808
4638,P,123.516808
4639,P,84.2901611
4640,P,84.2901611
4641,P,82.0396576
4642,P,82.0396576
4643,P,166.641663
4644,P,166.641663
4645,P,133.369858
4646,P,133.369858
4647,P,103.514938
4648,P,103.514938
4649,P,136.295578
4650,P,136.295578
4651,P,82.7219315
4652,P,82.7219315
4653,P,85.023613
4654,P,85.023613
4655,P,168.187683
4656,P,168.187683
4657,P,133.057083
4658,P,133.057083
4659,P,136.76976
4660,P,136.76976
4661,P,85.4614334
4662,P,85.4614334
4663,P,85.3305969
4664,P,85.3305969
4665,P,390.959167
4666,P,390.959167
4667,P,329.826263
4668,P,329.826263
4669,P,328.823914
4670,P,328.823914
4671,P,86.7887726
4672,P,86.7887726
4673,P,346.827332
4674,P,346.827332
4675,P,91.9595795
4676,P,91.9595795
4677,P,338.384644
4678,P,338.384644
4679,P,-571.868896
4680,P,-571.868896
4681,P,-793.028931
4682,P,-793.028931
4683,P,-793.028931
4684,P,223.47226
4685,P,223.47226
4686,P,133.591934
4687,P,133.591934
4688,P,133.591934
4689,P,224.221176
4690,P,224.221176
4691,P,133.44014
4692,P,133.44014
4693,P,133.44014
4694,P,-508.801727
4695,P,-508.801727
4696,P,-812.426758
4697,P,-812.426758
4698,P,-812.426758
4699,P,290.890991
4700,P,290.890991
4701,P,111.579674
4702,P,111.579674
4703,P,-72.824501
4704,P,-72.824501
4705,P,-315.104523
4706,P,-315.104523
4707,P,-423.440491
4708,P,-423.440491
4709,P,-466.374023
4710,P,-466.374023
4711,P,286.362518
4712,P,286.362518
4713,P,116.28009
4714,P,116.28009
4715,P,-293.772339
4716,P,-293.772339
4717,P,114.117195
4718,P,114.117195
4719,P,-316.712799
4720,P,-316.712799
4721,P,-509.167542
4722,P,-509.167542
4723,P,-474.177155
4724,P,-474.177155
4725,P,283.927002
4726,P,283.927002
4727,P,106.149048
4728,P,106.149048
4729,P,110.074501
4730,P,110.074501
4731,P,225.088516
4732,P,225.088516
4733,P,-521.344788
4734,P,-521.344788
4735,P,-508.354279
4736,P,-508.354279
4737,P,283.546295
4738,P,283.546295
4739,P,254.739182
4740,P,254.739182
4741,P,109.26001
4742,P,109.26001
4743,P,234.585403
4744,P,234.585403
4745,P,-514.708069
4746,P,-514.708069
4747,P,-508.436493
4748,P,-508.436493
4749,P,400.747314
4750,P,400.747314
4751,P,380.36615
4752,P,380.36615
4753,P,289.61969
4754,P,289.61969
4755,P,38.5584831
4756,P,38.5584831
4757,P,282.292755
4758,P,282.292755
4759,P,-92.4410095
4760,P,-92.4410095
4761,P,-127.481529
4762,P,-127.481529
4763,P,-129.026031
4764,P,-129.026031
4765,P,-129.026031
4766,P,203.648972
4767,P,203.648972
4768,P,161.407547
4769,P,161.407547
4770,P,161.407547
4771,P,223.608475
4772,P,223.608475
4773,P,179.562759
4774,P,179.562759
4775,P,179.562759
4776,P,-229.615021
4777,P,-229.615021
4778,P,-156.111115
4779,P,-156.111115
4780,P,-156.111115
4781,P,205.404938
4782,P,205.404938
4783,P,9.65550137
4784,P,9.65550137
4785,P,278.217285
4786,P,278.217285
4787,P,91.4531326
4788,P,91.4531326
4789,P,78.149498
4790,P,78.149498
4791,P,104.028511
4792,P,104.028511
4793,P,400.987122
4794,P,400.987122
4795,P,57.0695534
4796,P,57.0695534
4797,P,296.034882
4798,P,296.034882
4799,P,296.034882
4800,P,296.034882
4801,P,296.034882
4802,P,72.4698105
4803,P,72.4698105
4804,P,15.9820328
4805,P,15.9820328
4806,P,105.77285
4807,P,105.77285
4808,P,-214.834915
4809,P,-214.834915
4810,P,215.39061
4811,P,215.39061
4812,P,-23.6821842
4813,P,-23.6821842
4814,P,-87.1865997
4815,P,-87.1865997
4816,P,-243.777969
4817,P,-243.777969
4818,P,-195.634491
4819,P,-195.634491
4820,P,-221.339523
4821,P,-221.339523
4822,P,148.555115
4823,P,148.555115
4824,P,-148.468414
4825,P,-148.468414
4826,P,175.348984
4827,P,175.348984
4828,P,-102.071243
4829,P,-102.071243
4830,P,-51.4481697
4831,P,-51.4481697
4832,P,-176.538666
4833,P,-176.538666
4834,P,836.172852
4835,P,836.172852
4836,P,895.440918
4837,P,895.440918
4838,P,1307.79456
4839,P,1307.79456
4840,P,1307.79456
4841,P,908.148743
4842,P,908.148743
4843,P,1020.12885
4844,P,1020.12885
4845,P,428.238861
4846,P,428.238861
4847,P,122.154175
4848,P,122.154175
4849,P,1033.17224
4850,P,1033.17224
4851,P,1033.17224
4852,P,607.609009
4853,P,607.609009
4854,P,619.930298
4855,P,619.930298
4856,P,660.612854
4857,P,660.612854
4858,P,941.007751
4859,P,941.007751
4860,P,-209.191879
4861,P,-209.191879
4862,P,75.4834061
4863,P,75.4834061
4864,P,-305.809937
4865,P,-305.809937
4866,P,146.489044
4867,P,146.489044
4868,P,-347.794983
4869,P,-347.794983
4870,P,205.898758
4871,P,205.898758
4872,P,-329.229706
4873,P,-329.229706
4874,P,245.574753
4875,P,245.574753
4876,P,-376.872559
4877,P,-376.872559
4878,P,87.8805466
4879,P,87.8805466
4880,P,-381.841705
4881,P,-381.841705
4882,P,68.2501907
4883,P,68.2501907
4884,P,-384.683105
4885,P,-384.683105
4886,P,10.3109627
4887,P,10.3109627
4888,P,-382.606628
4889,P,-382.606628
4890,P,51.5457573
4891,P,51.5457573
4892,P,-409.609436
4893,P,-409.609436
4894,P,-144.907059
4895,P,-144.907059
4896,P,-407.04126
4897,P,-407.04126
4898,P,-170.370651
4899,P,-170.370651
4900,P,-407.549561
4901,P,-407.549561
4902,P,-183.267654
4903,P,-183.267654
4904,P,-406.328552
4905,P,-406.328552
4906,P,-173.762085
4907,P,-173.762085
4908,P,-458.169373
4909,P,-458.169373
4910,P,-160.20311
4911,P,-160.20311
4912,P,-451.761047
4913,P,-451.761047
4914,P,-158.243805
4915,P,-158.243805
4916,P,-413.516602
4917,P,-413.516602
4918,P,-186.128235
4919,P,-186.128235
4920,P,-439.263611
4921,P,-439.263611
4922,P,-160.762299
4923,P,-160.762299
4924,P,-411.7388
4925,P,-411.7388
4926,P,-141.216415
4927,P,-141.216415
4928,P,-413.492706
4929,P,-413.492706
4930,P,-117.626846
4931,P,-117.626846
4932,P,-390.688416
4933,P,-390.688416
4934,P,9.19654846
4935,P,9.19654846
4936,P,-410.510681
4937,P,-410.510681
4938,P,-114.201317
4939,P,-114.201317
4940,P,-370.575134
4941,P,-370.575134
4942,P,81.058136
4943,P,81.058136
4944,P,-364.554657
4945,P,-364.554657
4946,P,117.415733
4947,P,117.415733
4948,P,-354.098999
4949,P,-354.098999
4950,P,197.230301
4951,P,197.230301
4952,P,-361.75943
4953,P,-361.75943
4954,P,127.271439
4955,P,127.271439
4956,P,-370.288483
4957,P,-370.288483
4958,P,80.9921265
4959,P,80.9921265
4960,P,-364.313477
4961,P,-364.313477
4962,P,116.793983
4963,P,116.793983
4964,P,-354.387665
4965,P,-354.387665
4966,P,194.242889
4967,P,194.242889
4968,P,-361.616516
4969,P,-361.616516
4970,P,126.512947
4971,P,126.512947
4972,P,-411.609497
4973,P,-411.609497
4974,P,-141.119064
4975,P,-141.119064
4976,P,-413.371826
4977,P,-413.371826
4978,P,-117.499252
4979,P,-117.499252
4980,P,-390.543915
4981,P,-390.543915
4982,P,9.32333088
4983,P,9.32333088
4984,P,-410.386658
4985,P,-410.386658
4986,P,-114.072639
4987,P,-114.072639
4988,P,-458.156799
4989,P,-458.156799
4990,P,-160.198639
4991,P,-160.198639
4992,P,-451.698944
4993,P,-451.698944
4994,P,-158.18364
4995,P,-158.18364
4996,P,-413.409454
4997,P,-413.409454
4998,P,-186.07782
4999,P,-186.07782
5000,P,-439.174286
5001,P,-439.174286
5002,P,-160.698593
5003,P,-160.698593
5004,P,-409.741669
5005,P,-409.741669
5006,P,-144.995895
5007,P,-144.995895
5008,P,-407.158447
5009,P,-407.158447
5010,P,-170.418365
5011,P,-170.418365
5012,P,-407.645142
5013,P,-407.645142
5014,P,-183.317322
5015,P,-183.317322
5016,P,-406.433868
5017,P,-406.433868
5018,P,-173.806091
5019,P,-173.806091
5020,P,-377.150757
5021,P,-377.150757
5022,P,87.9087753
5023,P,87.9087753
5024,P,-382.073029
5025,P,-382.073029
5026,P,68.1691589
5027,P,68.1691589
5028,P,-384.838562
5029,P,-384.838562
5030,P,10.1863871
5031,P,10.1863871
5032,P,-382.803436
5033,P,-382.803436
5034,P,51.4600067
5035,P,51.4600067
5036,P,-193.502106
5037,P,-193.502106
5038,P,80.7199097
5039,P,80.7199097
5040,P,-299.897156
5041,P,-299.897156
5042,P,154.669434
5043,P,154.669434
5044,P,-347.068329
5045,P,-347.068329
5046,P,209.544479
5047,P,209.544479
5048,P,-326.847534
5049,P,-326.847534
5050,P,254.197922
5051,P,254.197922
5052,P,79.4094543
5053,P,79.4094543
5054,P,202.021072
5055,P,202.021072
5056,P,423.540009
5057,P,423.540009
5058,P,355.359253
5059,P,355.359253
5060,P,449.498657
5061,P,449.498657
5062,P,540.163879
5063,P,540.163879
5064,P,673.2724
5065,P,673.2724
5066,P,-52.1423073
5067,P,-52.1423073
5068,P,-288.418762
5069,P,-288.418762
5070,P,221.715942
5071,P,221.715942
5072,P,-68.0358658
5073,P,-68.0358658
5074,P,-68.0358658
5075,P,-68.0358658
5076,P,95.3319626
5077,P,95.3319626
5078,P,210.56601
5079,P,210.56601
5080,P,680.66394
5081,P,680.66394
5082,P,453.719482
5083,P,453.719482
5084,P,453.719482
5085,P,417.806458
5086,P,417.806458
5087,P,603.591187
5088,P,603.591187
5089,P,552.561035
5090,P,552.561035
5091,P,552.561035
5092,P,101.434319
5093,P,101.434319
5094,P,-437.99408
5095,P,-437.99408
5096,P,-437.99408
5097,P,221.199692
5098,P,221.199692
5099,P,-556.044189
5100,P,-556.044189
5101,P,-556.044189
5102,P,-556.044189
5103,P,-556.044189
5104,P,83.6091232
5105,P,83.6091232
5106,P,276.893646
5107,P,276.893646
5108,P,60.2129898
5109,P,60.2129898
5110,P,191.586975
5111,P,191.586975
5112,P,180.958084
5113,P,180.958084
5114,P,525.94165
5115,P,525.94165
5116,P,178.313629
5117,P,178.313629
5118,P,207.596603
5119,P,207.596603
5120,P,134.875519
5121,P,134.875519
5122,P,265.519379
5123,P,265.519379
5124,P,1075.60059
5125,P,1075.60059
5126,P,308.960022
5127,P,308.960022
5128,P,333.509735
5129,P,333.509735
5130,P,564.290894
5131,P,564.290894
5132,P,276.318848
5133,P,276.318848
5134,P,175.338699
5135,P,175.338699
5136,P,-4.65238333
5137,P,-4.65238333
5138,P,80.9277573
5139,P,80.9277573
5140,P,18.0168266
5141,P,18.0168266
5142,P,10.9208107
5143,P,10.9208107
5144,P,38.1215782
5145,P,38.1215782
5146,P,-53.5832443
5147,P,-53.5832443
5148,P,440.324097
5149,P,440.324097
5150,P,141.094635
5151,P,141.094635
5152,P,-238.297913
5153,P,-238.297913
5154,P,25.2174854
5155,P,25.2174854
5156,P,-82.1818771
5157,P,-82.1818771
5158,P,123.208038
5159,P,123.208038
5160,P,366.516846
5161,P,366.516846
5162,P,135.337906
5163,P,135.337906
5164,P,86.2986298
5165,P,86.2986298
5166,P,86.8731995
5167,P,86.8731995
5168,P,67.15242
5169,P,67.15242
5170,P,-13.5894175
5171,P,-13.5894175
5172,P,-34.0957108
5173,P,-34.0957108
5174,P,-149.289261
5175,P,-149.289261
5176,P,226.196289
5177,P,226.196289
5178,P,37.2606697
5179,P,37.2606697
5180,P,-293.929291
5181,P,-293.929291
5182,P,14.4619417
5183,P,14.4619417
5184,P,-136.778
5185,P,-136.778
5186,P,65.4579849
5187,P,65.4579849
5188,P,342.394531
5189,P,342.394531
5190,P,251.186493
5191,P,251.186493
5192,P,-77.0767593
5193,P,-77.0767593
5194,P,-90.2408981
5195,P,-90.2408981
5196,P,303.950958
5197,P,303.950958
5198,P,-118.58429
5199,P,-118.58429
5200,P,-125.708809
5201,P,-125.708809
5202,P,-345.324677
5203,P,-345.324677
5204,P,243.759888
5205,P,243.759888
5206,P,-202.545975
5207,P,-202.545975
5208,P,158.54306
5209,P,158.54306
5210,P,-234.694717
5211,P,-234.694717
5212,P,-198.817734
5213,P,-198.817734
5214,P,165.1418
5215,P,165.1418
5216,P,-220.66185
5217,P,-220.66185
5218,P,-111.277039
5219,P,-111.277039
5220,P,-101.785782
5221,P,-101.785782
5222,P,-177.760757
5223,P,-177.760757
5224,P,153.780792
5225,P,153.780792
5226,P,-134.285782
5227,P,-134.285782
5228,P,-333.932495
5229,P,-333.932495
5230,P,255.21727
5231,P,255.21727
5232,P,-183.776489
5233,P,-183.776489
5234,P,-164.830841
5235,P,-164.830841
5236,P,166.606461
5237,P,166.606461
5238,P,288.062317
5239,P,288.062317
5240,P,-141.989487
5241,P,-141.989487
5242,P,310.28833
5243,P,310.28833
5244,P,-128.35553
5245,P,-128.35553
5246,P,367.332581
5247,P,367.332581
5248,P,-242.265717
5249,P,-242.265717
5250,P,415.742432
5251,P,415.742432
5252,P,-300.227539
5253,P,-300.227539
5254,P,-180.409958
5255,P,-180.409958
5256,P,-179.158875
5257,P,-179.158875
5258,P,-237.042816
5259,P,-237.042816
5260,P,184.83844
5261,P,184.83844
5262,P,-439.175568
5263,P,-439.175568
5264,P,-378.617798
5265,P,-378.617798
5266,P,102.767715
5267,P,102.767715
5268,P,-238.629593
5269,P,-238.629593
5270,P,-456.789215
5271,P,-456.789215
5272,P,219.090332
5273,P,219.090332
5274,P,343.073303
5275,P,343.073303
5276,P,-303.52533
5277,P,-303.52533
5278,P,401.219208
5279,P,401.219208
5280,P,-314.205475
5281,P,-314.205475
5282,P,-181.40274
5283,P,-181.40274
5284,P,-182.246445
5285,P,-182.246445
5286,P,-242.806931
5287,P,-242.806931
5288,P,161.319901
5289,P,161.319901
5290,P,-489.283722
5291,P,-489.283722
5292,P,-381.570038
5293,P,-381.570038
5294,P,101.187943
5295,P,101.187943
5296,P,-242.054535
5297,P,-242.054535
5298,P,-478.157257
5299,P,-478.157257
5300,P,221.607849
5301,P,221.607849
5302,P,254.901505
5303,P,254.901505
5304,P,180.109818
5305,P,180.109818
5306,P,210.096695
5307,P,210.096695
5308,P,234.023697
5309,P,234.023697
5310,P,-187.249054
5311,P,-187.249054
5312,P,-188.003357
5313,P,-188.003357
5314,P,-383.938293
5315,P,-383.938293
5316,P,18.8273335
5317,P,18.8273335
5318,P,-248.442337
5319,P,-248.442337
5320,P,119.36853
5321,P,119.36853
5322,P,-515.279724
5323,P,-515.279724
5324,P,-247.389923
5325,P,-247.389923
5326,P,105.282814
5327,P,105.282814
5328,P,-511.617676
5329,P,-511.617676
5330,P,-186.493774
5331,P,-186.493774
5332,P,-185.726593
5333,P,-185.726593
5334,P,-244.593033
5335,P,-244.593033
5336,P,127.188904
5337,P,127.188904
5338,P,-515.424622
5339,P,-515.424622
5340,P,-382.728058
5341,P,-382.728058
5342,P,23.7642918
5343,P,23.7642918
5344,P,-245.178741
5345,P,-245.178741
5346,P,-510.014008
5347,P,-510.014008
5348,P,103.833549
5349,P,103.833549
5350,P,249.917953
5351,P,249.917953
5352,P,248.463028
5353,P,248.463028
5354,P,238.811295
5355,P,238.811295
5356,P,241.425537
5357,P,241.425537
5358,P,286.536682
5359,P,286.536682
5360,P,129.894638
5361,P,129.894638
5362,P,276.751404
5363,P,276.751404
5364,P,127.42057
5365,P,127.42057
5366,P,-203.031158
5367,P,-203.031158
5368,P,-203.044296
5369,P,-203.044296
5370,P,-268.132355
5371,P,-268.132355
5372,P,170.234497
5373,P,170.234497
5374,P,77.7952652
5375,P,77.7952652
5376,P,-408.908081
5377,P,-408.908081
5378,P,-155.955933
5379,P,-155.955933
5380,P,-267.905975
5381,P,-267.905975
5382,P,79.6435852
5383,P,79.6435852
5384,P,172.557526
5385,P,172.557526
5386,P,261.985657
5387,P,261.985657
5388,P,119.057678
5389,P,119.057678
5390,P,272.608734
5391,P,272.608734
5392,P,121.851692
5393,P,121.851692
5394,P,-202.955276
5395,P,-202.955276
5396,P,-202.814056
5397,P,-202.814056
5398,P,-266.974274
5399,P,-266.974274
5400,P,173.706284
5401,P,173.706284
5402,P,83.9441147
5403,P,83.9441147
5404,P,-407.469482
5405,P,-407.469482
5406,P,-159.534088
5407,P,-159.534088
5408,P,-267.177002
5409,P,-267.177002
5410,P,82.454071
5411,P,82.454071
5412,P,173.076385
5413,P,173.076385
5414,P,290.29126
5415,P,290.29126
5416,P,134.261124
5417,P,134.261124
5418,P,135.865601
5419,P,135.865601
5420,P,298.46817
5421,P,298.46817
5422,P,-204.542053
5423,P,-204.542053
5424,P,-205.161957
5425,P,-205.161957
5426,P,-406.84024
5427,P,-406.84024
5428,P,-181.946793
5429,P,-181.946793
5430,P,-269.542938
5431,P,-269.542938
5432,P,161.832687
5433,P,161.832687
5434,P,82.27845
5435,P,82.27845
5436,P,-268.583618
5437,P,-268.583618
5438,P,167.074631
5439,P,167.074631
5440,P,84.4183273
5441,P,84.4183273
5442,P,-203.969177
5443,P,-203.969177
5444,P,-203.479721
5445,P,-203.479721
5446,P,-266.876678
5447,P,-266.876678
5448,P,173.698151
5449,P,173.698151
5450,P,85.3783798
5451,P,85.3783798
5452,P,-406.243958
5453,P,-406.243958
5454,P,-181.16452
5455,P,-181.16452
5456,P,-267.101471
5457,P,-267.101471
5458,P,85.9338913
5459,P,85.9338913
5460,P,169.673599
5461,P,169.673599
5462,P,297.794373
5463,P,297.794373
5464,P,133.829636
5465,P,133.829636
5466,P,300.664368
5467,P,300.664368
5468,P,136.387787
5469,P,136.387787
5470,P,29.3289566
5471,P,29.3289566
5472,P,14.2212296
5473,P,14.2212296
5474,P,-16.0253429
5475,P,-16.0253429
5476,P,1.87222445
5477,P,1.87222445
5478,P,-230.808456
5479,P,-230.808456
5480,P,-231.370148
5481,P,-231.370148
5482,P,-305.897583
5483,P,-305.897583
5484,P,259.581451
5485,P,259.581451
5486,P,30.1367798
5487,P,30.1367798
5488,P,-457.679108
5489,P,-457.679108
5490,P,-159.114822
5491,P,-159.114822
5492,P,-305.410736
5493,P,-305.410736
5494,P,31.8503551
5495,P,31.8503551
5496,P,262.631378
5497,P,262.631378
5498,P,-31.9334984
5499,P,-31.9334984
5500,P,-12.4514761
5501,P,-12.4514761
5502,P,-24.7913799
5503,P,-24.7913799
5504,P,-10.0214005
5505,P,-10.0214005
5506,P,-229.869293
5507,P,-229.869293
5508,P,-228.630188
5509,P,-228.630188
5510,P,-300.232849
5511,P,-300.232849
5512,P,265.140198
5513,P,265.140198
5514,P,44.817131
5515,P,44.817131
5516,P,-454.169281
5517,P,-454.169281
5518,P,-157.257004
5519,P,-157.257004
5520,P,-302.181213
5521,P,-302.181213
5522,P,37.5004234
5523,P,37.5004234
5524,P,265.52182
5525,P,265.52182
5526,P,65.272995
5527,P,65.272995
5528,P,52.9709358
5529,P,52.9709358
5530,P,74.6636658
5531,P,74.6636658
5532,P,188.093933
5533,P,188.093933
5534,P,-214.450485
5535,P,-214.450485
5536,P,-212.294113
5537,P,-212.294113
5538,P,-417.415985
5539,P,-417.415985
5540,P,-183.174072
5541,P,-183.174072
5542,P,-274.715271
5543,P,-274.715271
5544,P,159.060211
5545,P,159.060211
5546,P,78.8720245
5547,P,78.8720245
5548,P,-277.514496
5549,P,-277.514496
5550,P,181.621536
5551,P,181.621536
5552,P,72.3833694
5553,P,72.3833694
5554,P,-216.752014
5555,P,-216.752014
5556,P,-218.958206
5557,P,-218.958206
5558,P,-291.63916
5559,P,-291.63916
5560,P,261.423523
5561,P,261.423523
5562,P,57.8893661
5563,P,57.8893661
5564,P,-433.018341
5565,P,-433.018341
5566,P,-177.596115
5567,P,-177.596115
5568,P,-287.817627
5569,P,-287.817627
5570,P,67.847084
5571,P,67.847084
5572,P,206.334518
5573,P,206.334518
5574,P,286.122772
5575,P,286.122772
5576,P,122.351601
5577,P,122.351601
5578,P,228.458618
5579,P,228.458618
5580,P,109.405884
5581,P,109.405884
5582,P,230.435959
5583,P,230.435959
5584,P,98.0371475
5585,P,98.0371475
5586,P,241.586807
5587,P,241.586807
5588,P,101.647736
5589,P,101.647736
5590,P,-203.545792
5591,P,-203.545792
5592,P,-203.515457
5593,P,-203.515457
5594,P,-269.079681
5595,P,-269.079681
5596,P,169.227554
5597,P,169.227554
5598,P,73.9985123
5599,P,73.9985123
5600,P,-412.401031
5601,P,-412.401031
5602,P,-130.30864
5603,P,-130.30864
5604,P,-269.267334
5605,P,-269.267334
5606,P,71.7021713
5607,P,71.7021713
5608,P,164.96788
5609,P,164.96788
5610,P,257.715332
5611,P,257.715332
5612,P,112.748596
5613,P,112.748596
5614,P,246.301666
5615,P,246.301666
5616,P,109.602524
5617,P,109.602524
5618,P,-203.37883
5619,P,-203.37883
5620,P,-203.043884
5621,P,-203.043884
5622,P,-268.850616
5623,P,-268.850616
5624,P,151.241165
5625,P,151.241165
5626,P,61.3953247
5627,P,61.3953247
5628,P,-413.492371
5629,P,-413.492371
5630,P,-126.693398
5631,P,-126.693398
5632,P,-269.2117
5633,P,-269.2117
5634,P,65.2229462
5635,P,65.2229462
5636,P,162.773422
5637,P,162.773422
5638,P,227.529556
5639,P,227.529556
5640,P,89.3274994
5641,P,89.3274994
5642,P,91.7273636
5643,P,91.7273636
5644,P,231.329575
5645,P,231.329575
5646,P,-196.041885
5647,P,-196.041885
5648,P,-194.365372
5649,P,-194.365372
5650,P,-394.427704
5651,P,-394.427704
5652,P,-49.8331528
5653,P,-49.8331528
5654,P,-253.501511
5655,P,-253.501511
5656,P,130.807892
5657,P,130.807892
5658,P,-510.43576
5659,P,-510.43576
5660,P,-256.026489
5661,P,-256.026489
5662,P,129.333328
5663,P,129.333328
5664,P,-451.573242
5665,P,-451.573242
5666,P,-197.631195
5667,P,-197.631195
5668,P,-198.97937
5669,P,-198.97937
5670,P,-266.005127
5671,P,-266.005127
5672,P,144.450562
5673,P,144.450562
5674,P,36.3972244
5675,P,36.3972244
5676,P,-408.026245
5677,P,-408.026245
5678,P,-86.754715
5679,P,-86.754715
5680,P,-264.135468
5681,P,-264.135468
5682,P,9.07006168
5683,P,9.07006168
5684,P,118.301414
5685,P,118.301414
5686,P,254.257812
5687,P,254.257812
5688,P,267.042755
5689,P,267.042755
5690,P,243.846527
5691,P,243.846527
5692,P,262.334656
5693,P,262.334656
5694,P,330.71817
5695,P,330.71817
5696,P,-231.634064
5697,P,-231.634064
5698,P,290.690918
5699,P,290.690918
5700,P,-238.144714
5701,P,-238.144714
5702,P,-171.439117
5703,P,-171.439117
5704,P,-172.835678
5705,P,-172.835678
5706,P,-232.070831
5707,P,-232.070831
5708,P,169.948349
5709,P,169.948349
5710,P,-391.605927
5711,P,-391.605927
5712,P,-368.767517
5713,P,-368.767517
5714,P,79.1446838
5715,P,79.1446838
5716,P,-230.328461
5717,P,-230.328461
5718,P,-379.479187
5719,P,-379.479187
5720,P,141.834259
5721,P,141.834259
5722,P,323.227295
5723,P,323.227295
5724,P,-271.94809
5725,P,-271.94809
5726,P,287.847839
5727,P,287.847839
5728,P,-263.021515
5729,P,-263.021515
5730,P,-169.932404
5731,P,-169.932404
5732,P,-168.344879
5733,P,-168.344879
5734,P,-224.82988
5735,P,-224.82988
5736,P,147.299957
5737,P,147.299957
5738,P,-351.601898
5739,P,-351.601898
5740,P,-365.244781
5741,P,-365.244781
5742,P,85.3643417
5743,P,85.3643417
5744,P,-226.035553
5745,P,-226.035553
5746,P,-356.397125
5747,P,-356.397125
5748,P,138.332672
5749,P,138.332672
5750,P,327.296631
5751,P,327.296631
5752,P,-209.786057
5753,P,-209.786057
5754,P,-203.646942
5755,P,-203.646942
5756,P,312.922394
5757,P,312.922394
5758,P,-153.350296
5759,P,-153.350296
5760,P,-149.946396
5761,P,-149.946396
5762,P,-355.835205
5763,P,-355.835205
5764,P,165.248993
5765,P,165.248993
5766,P,-212.150558
5767,P,-212.150558
5768,P,160.619385
5769,P,160.619385
5770,P,-270.706635
5771,P,-270.706635
5772,P,-214.727737
5773,P,-214.727737
5774,P,154.848831
5775,P,154.848831
5776,P,-282.166901
5777,P,-282.166901
5778,P,-156.325134
5779,P,-156.325134
5780,P,-158.81517
5781,P,-158.81517
5782,P,-221.476227
5783,P,-221.476227
5784,P,148.915131
5785,P,148.915131
5786,P,-325.272186
5787,P,-325.272186
5788,P,-360.469635
5789,P,-360.469635
5790,P,155.276154
5791,P,155.276154
5792,P,-220.191895
5793,P,-220.191895
5794,P,-316.506012
5795,P,-316.506012
5796,P,153.482193
5797,P,153.482193
5798,P,295.835876
5799,P,295.835876
5800,P,-170.596436
5801,P,-170.596436
5802,P,307.952515
5803,P,307.952515
5804,P,-179.114822
5805,P,-179.114822
5806,P,329.890839
5807,P,329.890839
5808,P,-232.231567
5809,P,-232.231567
5810,P,290.213226
5811,P,290.213226
5812,P,-238.636597
5813,P,-238.636597
5814,P,-170.892838
5815,P,-170.892838
5816,P,-172.305191
5817,P,-172.305191
5818,P,-231.698944
5819,P,-231.698944
5820,P,169.789459
5821,P,169.789459
5822,P,-391.822815
5823,P,-391.822815
5824,P,-368.483551
5825,P,-368.483551
5826,P,78.8935165
5827,P,78.8935165
5828,P,-229.951523
5829,P,-229.951523
5830,P,-379.739288
5831,P,-379.739288
5832,P,141.479126
5833,P,141.479126
5834,P,323.010345
5835,P,323.010345
5836,P,-272.187103
5837,P,-272.187103
5838,P,287.457855
5839,P,287.457855
5840,P,-263.306824
5841,P,-263.306824
5842,P,-169.375259
5843,P,-169.375259
5844,P,-167.776245
5845,P,-167.776245
5846,P,-224.450333
5847,P,-224.450333
5848,P,146.499069
5849,P,146.499069
5850,P,-352.140076
5851,P,-352.140076
5852,P,-364.982147
5853,P,-364.982147
5854,P,85.0341644
5855,P,85.0341644
5856,P,-225.649796
5857,P,-225.649796
5858,P,-356.840637
5859,P,-356.840637
5860,P,137.890945
5861,P,137.890945
5862,P,326.300873
5863,P,326.300873
5864,P,-210.854965
5865,P,-210.854965
5866,P,311.145386
5867,P,311.145386
5868,P,-204.960434
5869,P,-204.960434
5870,P,-152.805206
5871,P,-152.805206
5872,P,-149.415527
5873,P,-149.415527
5874,P,-212.17334
5875,P,-212.17334
5876,P,156.994141
5877,P,156.994141
5878,P,-273.569916
5879,P,-273.569916
5880,P,-355.993042
5881,P,-355.993042
5882,P,163.57695
5883,P,163.57695
5884,P,-214.649094
5885,P,-214.649094
5886,P,-284.430023
5887,P,-284.430023
5888,P,152.796219
5889,P,152.796219
5890,P,291.187134
5891,P,291.187134
5892,P,-173.871292
5893,P,-173.871292
5894,P,305.719238
5895,P,305.719238
5896,P,-181.65477
5897,P,-181.65477
5898,P,-155.762024
5899,P,-155.762024
5900,P,-158.247787
5901,P,-158.247787
5902,P,-221.159073
5903,P,-221.159073
5904,P,147.948364
5905,P,147.948364
5906,P,-326.246765
5907,P,-326.246765
5908,P,-360.380676
5909,P,-360.380676
5910,P,153.910812
5911,P,153.910812
5912,P,-219.915375
5913,P,-219.915375
5914,P,-317.701416
5915,P,-317.701416
5916,P,151.795654
5917,P,151.795654
5918,P,230.347961
5919,P,230.347961
5920,P,97.9820862
5921,P,97.9820862
5922,P,241.483063
5923,P,241.483063
5924,P,101.586227
5925,P,101.586227
5926,P,-203.450806
5927,P,-203.450806
5928,P,-203.418228
5929,P,-203.418228
5930,P,-268.966095
5931,P,-268.966095
5932,P,169.264709
5933,P,169.264709
5934,P,73.9621811
5935,P,73.9621811
5936,P,-412.277863
5937,P,-412.277863
5938,P,-130.199295
5939,P,-130.199295
5940,P,-269.155792
5941,P,-269.155792
5942,P,71.6658554
5943,P,71.6658554
5944,P,165.02533
5945,P,165.02533
5946,P,257.605621
5947,P,257.605621
5948,P,112.664024
5949,P,112.664024
5950,P,246.189606
5951,P,246.189606
5952,P,109.513252
5953,P,109.513252
5954,P,-203.286514
5955,P,-203.286514
5956,P,-202.952164
5957,P,-202.952164
5958,P,-268.749878
5959,P,-268.749878
5960,P,151.331528
5961,P,151.331528
5962,P,61.4003792
5963,P,61.4003792
5964,P,-413.376648
5965,P,-413.376648
5966,P,-126.581772
5967,P,-126.581772
5968,P,-269.112457
5969,P,-269.112457
5970,P,65.2220459
5971,P,65.2220459
5972,P,162.838867
5973,P,162.838867
5974,P,227.443054
5975,P,227.443054
5976,P,89.2914047
5977,P,89.2914047
5978,P,231.265808
5979,P,231.265808
5980,P,91.6965256
5981,P,91.6965256
5982,P,-195.912933
5983,P,-195.912933
5984,P,-194.228638
5985,P,-194.228638
5986,P,-253.361816
5987,P,-253.361816
5988,P,130.875504
5989,P,130.875504
5990,P,-510.441956
5991,P,-510.441956
5992,P,-394.28006
5993,P,-394.28006
5994,P,-49.6926804
5995,P,-49.6926804
5996,P,-255.89473
5997,P,-255.89473
5998,P,-451.577576
5999,P,-451.577576
6000,P,129.425949
6001,P,129.425949
6002,P,254.205963
6003,P,254.205963
6004,P,267.013702
6005,P,267.013702
6006,P,243.783279
6007,P,243.783279
6008,P,262.308838
6009,P,262.308838
6010,P,-197.510803
6011,P,-197.510803
6012,P,-198.867676
6013,P,-198.867676
6014,P,-265.898132
6015,P,-265.898132
6016,P,144.544067
6017,P,144.544067
6018,P,36.4239883
6019,P,36.4239883
6020,P,-407.893188
6021,P,-407.893188
6022,P,-86.6153564
6023,P,-86.6153564
6024,P,-264.019501
6025,P,-264.019501
6026,P,9.09446239
6027,P,9.09446239
6028,P,118.395164
6029,P,118.395164
6030,P,29.2966595
6031,P,29.2966595
6032,P,14.2184572
6033,P,14.2184572
6034,P,-16.050663
6035,P,-16.050663
6036,P,1.86794269
6037,P,1.86794269
6038,P,-230.795029
6039,P,-230.795029
6040,P,-231.363037
6041,P,-231.363037
6042,P,-305.886047
6043,P,-305.886047
6044,P,259.580383
6045,P,259.580383
6046,P,30.1418839
6047,P,30.1418839
6048,P,-457.655426
6049,P,-457.655426
6050,P,-159.077896
6051,P,-159.077896
6052,P,-305.392059
6053,P,-305.392059
6054,P,31.8620605
6055,P,31.8620605
6056,P,262.663116
6057,P,262.663116
6058,P,-31.9384308
6059,P,-31.9384308
6060,P,-12.454689
6061,P,-12.454689
6062,P,-24.8122196
6063,P,-24.8122196
6064,P,-10.0241289
6065,P,-10.0241289
6066,P,-229.852158
6067,P,-229.852158
6068,P,-228.607605
6069,P,-228.607605
6070,P,-300.177124
6071,P,-300.177124
6072,P,265.191925
6073,P,265.191925
6074,P,44.8468628
6075,P,44.8468628
6076,P,-454.119751
6077,P,-454.119751
6078,P,-157.209625
6079,P,-157.209625
6080,P,-302.139526
6081,P,-302.139526
6082,P,37.5265732
6083,P,37.5265732
6084,P,265.563965
6085,P,265.563965
6086,P,65.2386551
6087,P,65.2386551
6088,P,52.9640617
6089,P,52.9640617
6090,P,188.053802
6091,P,188.053802
6092,P,74.6557541
6093,P,74.6557541
6094,P,-214.38028
6095,P,-214.38028
6096,P,-212.2202
6097,P,-212.2202
6098,P,-274.617828
6099,P,-274.617828
6100,P,159.092209
6101,P,159.092209
6102,P,78.8766708
6103,P,78.8766708
6104,P,-417.306702
6105,P,-417.306702
6106,P,-183.117371
6107,P,-183.117371
6108,P,-277.417572
6109,P,-277.417572
6110,P,72.3918839
6111,P,72.3918839
6112,P,181.659958
6113,P,181.659958
6114,P,286.083405
6115,P,286.083405
6116,P,122.333595
6117,P,122.333595
6118,P,228.417694
6119,P,228.417694
6120,P,109.388985
6121,P,109.388985
6122,P,-216.686584
6123,P,-216.686584
6124,P,-218.898636
6125,P,-218.898636
6126,P,-291.555695
6127,P,-291.555695
6128,P,261.476868
6129,P,261.476868
6130,P,57.913372
6131,P,57.913372
6132,P,-432.921478
6133,P,-432.921478
6134,P,-177.536469
6135,P,-177.536469
6136,P,-287.729462
6137,P,-287.729462
6138,P,67.8670959
6139,P,67.8670959
6140,P,206.382263
6141,P,206.382263
6142,P,286.610657
6143,P,286.610657
6144,P,129.991791
6145,P,129.991791
6146,P,276.845795
6147,P,276.845795
6148,P,127.513298
6149,P,127.513298
6150,P,-203.157944
6151,P,-203.157944
6152,P,-203.169418
6153,P,-203.169418
6154,P,-268.262207
6155,P,-268.262207
6156,P,170.203064
6157,P,170.203064
6158,P,77.8529053
6159,P,77.8529053
6160,P,-409.037964
6161,P,-409.037964
6162,P,-156.030701
6163,P,-156.030701
6164,P,-268.03244
6165,P,-268.03244
6166,P,79.7177963
6167,P,79.7177963
6168,P,172.55127
6169,P,172.55127
6170,P,262.099792
6171,P,262.099792
6172,P,119.167328
6173,P,119.167328
6174,P,272.707031
6175,P,272.707031
6176,P,121.955383
6177,P,121.955383
6178,P,-203.083176
6179,P,-203.083176
6180,P,-202.939728
6181,P,-202.939728
6182,P,-267.09375
6183,P,-267.09375
6184,P,173.710831
6185,P,173.710831
6186,P,84.0110474
6187,P,84.0110474
6188,P,-407.588501
6189,P,-407.588501
6190,P,-159.5979
6191,P,-159.5979
6192,P,-267.306335
6193,P,-267.306335
6194,P,82.5235291
6195,P,82.5235291
6196,P,173.072937
6197,P,173.072937
6198,P,290.355103
6199,P,290.355103
6200,P,134.326019
6201,P,134.326019
6202,P,298.51001
6203,P,298.51001
6204,P,135.923187
6205,P,135.923187
6206,P,-204.637711
6207,P,-204.637711
6208,P,-205.25531
6209,P,-205.25531
6210,P,-269.637695
6211,P,-269.637695
6212,P,161.802673
6213,P,161.802673
6214,P,82.2917252
6215,P,82.2917252
6216,P,-406.935425
6217,P,-406.935425
6218,P,-181.992737
6219,P,-181.992737
6220,P,-268.678284
6221,P,-268.678284
6222,P,84.4392548
6223,P,84.4392548
6224,P,167.056213
6225,P,167.056213
6226,P,297.830933
6227,P,297.830933
6228,P,133.863647
6229,P,133.863647
6230,P,300.703949
6231,P,300.703949
6232,P,136.427307
6233,P,136.427307
6234,P,-204.068329
6235,P,-204.068329
6236,P,-203.583694
6237,P,-203.583694
6238,P,-266.981934
6239,P,-266.981934
6240,P,173.696793
6241,P,173.696793
6242,P,85.42556
6243,P,85.42556
6244,P,-406.347076
6245,P,-406.347076
6246,P,-181.209213
6247,P,-181.209213
6248,P,-267.204803
6249,P,-267.204803
6250,P,85.9736862
6251,P,85.9736862
6252,P,169.662033
6253,P,169.662033
6254,P,367.393921
6255,P,367.393921
6256,P,-242.202179
6257,P,-242.202179
6258,P,415.847778
6259,P,415.847778
6260,P,-300.155701
6261,P,-300.155701
6262,P,-180.81723
6263,P,-180.81723
6264,P,-179.587387
6265,P,-179.587387
6266,P,-237.381683
6267,P,-237.381683
6268,P,184.959991
6269,P,184.959991
6270,P,-439.045929
6271,P,-439.045929
6272,P,-378.880341
6273,P,-378.880341
6274,P,102.731148
6275,P,102.731148
6276,P,-238.953796
6277,P,-238.953796
6278,P,-456.687317
6279,P,-456.687317
6280,P,219.136826
6281,P,219.136826
6282,P,343.255951
6283,P,343.255951
6284,P,-303.37323
6285,P,-303.37323
6286,P,401.339996
6287,P,401.339996
6288,P,-314.080505
6289,P,-314.080505
6290,P,-181.790054
6291,P,-181.790054
6292,P,-182.612808
6293,P,-182.612808
6294,P,-243.075882
6295,P,-243.075882
6296,P,161.312546
6297,P,161.312546
6298,P,-489.243134
6299,P,-489.243134
6300,P,-381.809265
6301,P,-381.809265
6302,P,101.138527
6303,P,101.138527
6304,P,-242.335373
6305,P,-242.335373
6306,P,-478.104431
6307,P,-478.104431
6308,P,221.633453
6309,P,221.633453
6310,P,254.959137
6311,P,254.959137
6312,P,180.167969
6313,P,180.167969
6314,P,234.075546
6315,P,234.075546
6316,P,210.114685
6317,P,210.114685
6318,P,-187.457153
6319,P,-187.457153
6320,P,-188.195724
6321,P,-188.195724
6322,P,-248.595139
6323,P,-248.595139
6324,P,119.303001
6325,P,119.303001
6326,P,-515.256897
6327,P,-515.256897
6328,P,-384.098358
6329,P,-384.098358
6330,P,18.7181339
6331,P,18.7181339
6332,P,-247.555939
6333,P,-247.555939
6334,P,-511.597443
6335,P,-511.597443
6336,P,105.233795
6337,P,105.233795
6338,P,249.970184
6339,P,249.970184
6340,P,248.497955
6341,P,248.497955
6342,P,238.864487
6343,P,238.864487
6344,P,241.464386
6345,P,241.464386
6346,P,-186.719498
6347,P,-186.719498
6348,P,-185.972366
6349,P,-185.972366
6350,P,-244.809982
6351,P,-244.809982
6352,P,127.166542
6353,P,127.166542
6354,P,-515.409851
6355,P,-515.409851
6356,P,-382.911804
6357,P,-382.911804
6358,P,23.660202
6359,P,23.660202
6360,P,-245.377625
6361,P,-245.377625
6362,P,-509.984192
6363,P,-509.984192
6364,P,103.78981
6365,P,103.78981
6366,P,262.429688
6367,P,262.429688
6368,P,45.3946686
6369,P,45.3946686
6370,P,268.587067
6371,P,268.587067
6372,P,75.4975967
6373,P,75.4975967
6374,P,35.6548386
6375,P,35.6548386
6376,P,67.420723
6377,P,67.420723
6378,P,-37.5511971
6379,P,-37.5511971
6380,P,367.518677
6381,P,367.518677
6382,P,90.8711319
6383,P,90.8711319
6384,P,-221.477692
6385,P,-221.477692
6386,P,16.5198994
6387,P,16.5198994
6388,P,-64.4124298
6389,P,-64.4124298
6390,P,89.82341
6391,P,89.82341
6392,P,355.464294
6393,P,355.464294
6394,P,4.23697329
6395,P,4.23697329
6396,P,-26.9331169
6397,P,-26.9331169
6398,P,-142.461029
6399,P,-142.461029
6400,P,240.999756
6401,P,240.999756
6402,P,61.1828423
6403,P,61.1828423
6404,P,-286.202087
6405,P,-286.202087
6406,P,13.4853897
6407,P,13.4853897
6408,P,-127.644005
6409,P,-127.644005
6410,P,88.6379089
6411,P,88.6379089
6412,P,343.004822
6413,P,343.004822
6414,P,313.099548
6415,P,313.099548
6416,P,-49.3305931
6417,P,-49.3305931
6418,P,327.172424
6419,P,327.172424
6420,P,-69.598732
6421,P,-69.598732
6422,P,-118.8004
6423,P,-118.8004
6424,P,-126.003876
6425,P,-126.003876
6426,P,-202.167725
6427,P,-202.167725
6428,P,162.978943
6429,P,162.978943
6430,P,-229.115768
6431,P,-229.115768
6432,P,-344.38501
6433,P,-344.38501
6434,P,249.88121
6435,P,249.88121
6436,P,-198.256836
6437,P,-198.256836
6438,P,-213.483292
6439,P,-213.483292
6440,P,172.547516
6441,P,172.547516
6442,P,294.348907
6443,P,294.348907
6444,P,-134.974991
6445,P,-134.974991
6446,P,326.306549
6447,P,326.306549
6448,P,-118.913834
6449,P,-118.913834
6450,P,-111.344795
6451,P,-111.344795
6452,P,-101.687927
6453,P,-101.687927
6454,P,-175.627716
6455,P,-175.627716
6456,P,166.271881
6457,P,166.271881
6458,P,-117.241112
6459,P,-117.241112
6460,P,-332.118652
6461,P,-332.118652
6462,P,262.505707
6463,P,262.505707
6464,P,-182.305923
6465,P,-182.305923
6466,P,-151.538361
6467,P,-151.538361
6468,P,175.55127
6469,P,175.55127
6470,P,135.493683
6471,P,135.493683
6472,P,-82.6648941
6473,P,-82.6648941
6474,P,94.0297089
6475,P,94.0297089
6476,P,-99.6147614
6477,P,-99.6147614
6478,P,354.171082
6479,P,354.171082
6480,P,77.5127411
6481,P,77.5127411
6482,P,114.549263
6483,P,114.549263
6484,P,284.49942
6485,P,284.49942
6486,P,264.730133
6487,P,264.730133
6488,P,-18.626791
6489,P,-18.626791
6490,P,167.70993
6491,P,167.70993
6492,P,168.365189
6493,P,168.365189
6494,P,160.861984
6495,P,160.861984
6496,P,428.912262
6497,P,428.912262
6498,P,357.132782
6499,P,357.132782
6500,P,465.237
6501,P,465.237
6502,P,-122.841499
6503,P,-122.841499
6504,P,518.267273
6505,P,518.267273
6506,P,353.275757
6507,P,353.275757
6508,P,370.94751
6509,P,370.94751
6510,P,461.2995
6511,P,461.2995
6512,P,61.8015442
6513,P,61.8015442
6514,P,196.75882
6515,P,196.75882
6516,P,321.401276
6517,P,321.401276
6518,P,261.483612
6519,P,261.483612
6520,P,-43.1984901
6521,P,-43.1984901
6522,P,55.298584
6523,P,55.298584
6524,P,140.028412
6525,P,140.028412
6526,P,215.011612
6527,P,215.011612
6528,P,409.902863
6529,P,409.902863
6530,P,163.919693
6531,P,163.919693
6532,P,169.171112
6533,P,169.171112
6534,P,219.511795
6535,P,219.511795
6536,P,312.511444
6537,P,312.511444
6538,P,345.296906
6539,P,345.296906
6540,P,398.902954
6541,P,398.902954
6542,P,346.119415
6543,P,346.119415
6544,P,407.768188
6545,P,407.768188
6546,P,-106.813972
6547,P,-106.813972
6548,P,450.684357
6549,P,450.684357
6550,P,344.916809
6551,P,344.916809
6552,P,205.593582
6553,P,205.593582
6554,P,-117.525795
6555,P,-117.525795
6556,P,284.585876
6557,P,284.585876
6558,P,-40.1589241
6559,P,-40.1589241
6560,P,279.275696
6561,P,279.275696
6562,P,236.635483
6563,P,236.635483
6564,P,-187.113647
6565,P,-187.113647
6566,P,-113.638199
6567,P,-113.638199
6568,P,219.907501
6569,P,219.907501
6570,P,297.638489
6571,P,297.638489
6572,P,425.904602
6573,P,425.904602
6574,P,258.121429
6575,P,258.121429
6576,P,344.616394
6577,P,344.616394
6578,P,416.287598
6579,P,416.287598
6580,P,283.328278
6581,P,283.328278
6582,P,271.30307
6583,P,271.30307
6584,P,419.260681
6585,P,419.260681
6586,P,157.421326
6587,P,157.421326
6588,P,457.216888
6589,P,457.216888
6590,P,148.137543
6591,P,148.137543
6592,P,425.240234
6593,P,425.240234
6594,P,461.942841
6595,P,461.942841
6596,P,162.586945
6597,P,162.586945
6598,P,175.167435
6599,P,175.167435
6600,P,484.463531
6601,P,484.463531
6602,P,-74.5733871
6603,P,-74.5733871
6604,P,21.3815937
6605,P,21.3815937
6606,P,-65.7016525
6607,P,-65.7016525
6608,P,-44.9265785
6609,P,-44.9265785
6610,P,80.6010437
6611,P,80.6010437
6612,P,33.4415512
6613,P,33.4415512
6614,P,201.661179
6615,P,201.661179
6616,P,475.332306
6617,P,475.332306
6618,P,127.2164
6619,P,127.2164
6620,P,383.724426
6621,P,383.724426
6622,P,141.296753
6623,P,141.296753
6624,P,419.653259
6625,P,419.653259
6626,P,380.117706
6627,P,380.117706
6628,P,121.03241
6629,P,121.03241
6630,P,189.402573
6631,P,189.402573
6632,P,416.405609
6633,P,416.405609
6634,P,-125.862991
6635,P,-125.862991
6636,P,281.327911
6637,P,281.327911
6638,P,205.262436
6639,P,205.262436
6640,P,325.531799
6641,P,325.531799
6642,P,269.641754
6643,P,269.641754
6644,P,-119.344955
6645,P,-119.344955
6646,P,-107.634789
6647,P,-107.634789
6648,P,234.416367
6649,P,234.416367
6650,P,-126.126305
6651,P,-126.126305
6652,P,280.718994
6653,P,280.718994
6654,P,205.15416
6655,P,205.15416
6656,P,325.3461
6657,P,325.3461
6658,P,-119.623199
6659,P,-119.623199
6660,P,268.913574
6661,P,268.913574
6662,P,-108.159325
6663,P,-108.159325
6664,P,231.370026
6665,P,231.370026
6666,P,127.128189
6667,P,127.128189
6668,P,383.627197
6669,P,383.627197
6670,P,141.195709
6671,P,141.195709
6672,P,419.551819
6673,P,419.551819
6674,P,120.954735
6675,P,120.954735
6676,P,380.023651
6677,P,380.023651
6678,P,189.319595
6679,P,189.319595
6680,P,416.350769
6681,P,416.350769
6682,P,-74.6198349
6683,P,-74.6198349
6684,P,21.3326473
6685,P,21.3326473
6686,P,-65.7155075
6687,P,-65.7155075
6688,P,-44.9333153
6689,P,-44.9333153
6690,P,33.3781281
6691,P,33.3781281
6692,P,80.5487747
6693,P,80.5487747
6694,P,201.606842
6695,P,201.606842
6696,P,475.288361
6697,P,475.288361
6698,P,157.473145
6699,P,157.473145
6700,P,457.264771
6701,P,457.264771
6702,P,148.194931
6703,P,148.194931
6704,P,425.339508
6705,P,425.339508
6706,P,162.62088
6707,P,162.62088
6708,P,461.982086
6709,P,461.982086
6710,P,175.208878
6711,P,175.208878
6712,P,484.498932
6713,P,484.498932
6714,P,297.68222
6715,P,297.68222
6716,P,425.954742
6717,P,425.954742
6718,P,258.182281
6719,P,258.182281
6720,P,344.768799
6721,P,344.768799
6722,P,283.368073
6723,P,283.368073
6724,P,416.331085
6725,P,416.331085
6726,P,271.347534
6727,P,271.347534
6728,P,419.312805
6729,P,419.312805
6730,P,-23.2820911
6731,P,-23.2820911
6732,P,404.416656
6733,P,404.416656
6734,P,-175.69342
6735,P,-175.69342
6736,P,309.225128
6737,P,309.225128
6738,P,-113.61441
6739,P,-113.61441
6740,P,224.1996
6741,P,224.1996
6742,P,301.706787
6743,P,301.706787
6744,P,80.8508224
6745,P,80.8508224
6746,P,-101.348907
6747,P,-101.348907
6748,P,292.6716
6749,P,292.6716
6750,P,173.661774
6751,P,173.661774
6752,P,147.731903
6753,P,147.731903
6754,P,-56.4832001
6755,P,-56.4832001
6756,P,282.051636
6757,P,282.051636
6758,P,210.153397
6759,P,210.153397
6760,P,-204.501678
6761,P,-204.501678
6762,P,231.365067
6763,P,231.365067
6764,P,47.9207573
6765,P,47.9207573
6766,P,59.1913681
6767,P,59.1913681
6768,P,15.3529072
6769,P,15.3529072
6770,P,-201.661789
6771,P,-201.661789
6772,P,239.197052
6773,P,239.197052
6774,P,8.87193298
6775,P,8.87193298
6776,P,2.92831564
6777,P,2.92831564
6778,P,293.669739
6779,P,293.669739
6780,P,412.073029
6781,P,412.073029
6782,P,-37.7985115
6783,P,-37.7985115
6784,P,-38.9185867
6785,P,-38.9185867
6786,P,267.266357
6787,P,267.266357
6788,P,400.277435
6789,P,400.277435
6790,P,-36.6899643
6791,P,-36.6899643
6792,P,283.785522
6793,P,283.785522
6794,P,414.643616
6795,P,414.643616
6796,P,-43.3749237
6797,P,-43.3749237
6798,P,-42.9507828
6799,P,-42.9507828
6800,P,-46.0135765
6801,P,-46.0135765
6802,P,282.061981
6803,P,282.061981
6804,P,418.643402
6805,P,418.643402
6806,P,-46.8628235
6807,P,-46.8628235
6808,P,-47.7599106
6809,P,-47.7599106
6810,P,155.703232
6811,P,155.703232
6812,P,444.498047
6813,P,444.498047
6814,P,-56.4657974
6815,P,-56.4657974
6816,P,-56.6732597
6817,P,-56.6732597
6818,P,150.274857
6819,P,150.274857
6820,P,439.266296
6821,P,439.266296
6822,P,-56.34692
6823,P,-56.34692
6824,P,163.909698
6825,P,163.909698
6826,P,473.733612
6827,P,473.733612
6828,P,-57.0272141
6829,P,-57.0272141
6830,P,-56.9983597
6831,P,-56.9983597
6832,P,-58.9300117
6833,P,-58.9300117
6834,P,171.857574
6835,P,171.857574
6836,P,477.526428
6837,P,477.526428
6838,P,-59.736969
6839,P,-59.736969
6840,P,-60.7084465
6841,P,-60.7084465
6842,P,-78.2338333
6843,P,-78.2338333
6844,P,-31.4328671
6845,P,-31.4328671
6846,P,-74.7751007
6847,P,-74.7751007
6848,P,-74.5698242
6849,P,-74.5698242
6850,P,-65.8482285
6851,P,-65.8482285
6852,P,-39.5141335
6853,P,-39.5141335
6854,P,-75.1025543
6855,P,-75.1025543
6856,P,78.8736954
6857,P,78.8736954
6858,P,315.463226
6859,P,315.463226
6860,P,-68.7912521
6861,P,-68.7912521
6862,P,-70.1161652
6863,P,-70.1161652
6864,P,-63.7224541
6865,P,-63.7224541
6866,P,185.311111
6867,P,185.311111
6868,P,387.385712
6869,P,387.385712
6870,P,-62.4862633
6871,P,-62.4862633
6872,P,-61.7189255
6873,P,-61.7189255
6874,P,129.915802
6875,P,129.915802
6876,P,398.1409
6877,P,398.1409
6878,P,-56.1434669
6879,P,-56.1434669
6880,P,-56.215416
6881,P,-56.215416
6882,P,138.495865
6883,P,138.495865
6884,P,404.337006
6885,P,404.337006
6886,P,-56.3425903
6887,P,-56.3425903
6888,P,122.848633
6889,P,122.848633
6890,P,380.64093
6891,P,380.64093
6892,P,-53.5913086
6893,P,-53.5913086
6894,P,-54.3342361
6895,P,-54.3342361
6896,P,-50.2972107
6897,P,-50.2972107
6898,P,162.319534
6899,P,162.319534
6900,P,388.897858
6901,P,388.897858
6902,P,-49.3722801
6903,P,-49.3722801
6904,P,-48.7330132
6905,P,-48.7330132
6906,P,-66.5405579
6907,P,-66.5405579
6908,P,257.567841
6909,P,257.567841
6910,P,-32.328186
6911,P,-32.328186
6912,P,-31.2869358
6913,P,-31.2869358
6914,P,181.855011
6915,P,181.855011
6916,P,265.055695
6917,P,265.055695
6918,P,-33.8032227
6919,P,-33.8032227
6920,P,-134.835297
6921,P,-134.835297
6922,P,255.318207
6923,P,255.318207
6924,P,-21.7447186
6925,P,-21.7447186
6926,P,-23.5623894
6927,P,-23.5623894
6928,P,-11.6357784
6929,P,-11.6357784
6930,P,-94.2087784
6931,P,-94.2087784
6932,P,248.667969
6933,P,248.667969
6934,P,-7.53262138
6935,P,-7.53262138
6936,P,-3.21710443
6937,P,-3.21710443
6938,P,-66.7436829
6939,P,-66.7436829
6940,P,257.178528
6941,P,257.178528
6942,P,-31.6609077
6943,P,-31.6609077
6944,P,-30.5953083
6945,P,-30.5953083
6946,P,181.719818
6947,P,181.719818
6948,P,264.736847
6949,P,264.736847
6950,P,-33.165554
6951,P,-33.165554
6952,P,-135.235001
6953,P,-135.235001
6954,P,254.101303
6955,P,254.101303
6956,P,-20.8911457
6957,P,-20.8911457
6958,P,-22.7425251
6959,P,-22.7425251
6960,P,-14.2061005
6961,P,-14.2061005
6962,P,-94.5144043
6963,P,-94.5144043
6964,P,247.134384
6965,P,247.134384
6966,P,-6.54872322
6967,P,-6.54872322
6968,P,129.826492
6969,P,129.826492
6970,P,398.032135
6971,P,398.032135
6972,P,-55.9946938
6973,P,-55.9946938
6974,P,-56.0691681
6975,P,-56.0691681
6976,P,138.421219
6977,P,138.421219
6978,P,404.221619
6979,P,404.221619
6980,P,-56.2003555
6981,P,-56.2003555
6982,P,122.747719
6983,P,122.747719
6984,P,380.565521
6985,P,380.565521
6986,P,-53.4117622
6987,P,-53.4117622
6988,P,-54.1617241
6989,P,-54.1617241
6990,P,-51.0527611
6991,P,-51.0527611
6992,P,162.258682
6993,P,162.258682
6994,P,388.825592
6995,P,388.825592
6996,P,-49.1477737
6997,P,-49.1477737
6998,P,-78.2746048
6999,P,-78.2746048
7000,P,-31.4690094
7001,P,-31.4690094
7002,P,-74.7772751
7003,P,-74.7772751
7004,P,-74.5692978
7005,P,-74.5692978
7006,P,-65.8680496
7007,P,-65.8680496
7008,P,-39.5432739
7009,P,-39.5432739
7010,P,-75.10569
7011,P,-75.10569
7012,P,78.8103333
7013,P,78.8103333
7014,P,315.404144
7015,P,315.404144
7016,P,-68.7651062
7017,P,-68.7651062
7018,P,-70.0967865
7019,P,-70.0967865
7020,P,-64.9840393
7021,P,-64.9840393
7022,P,185.254333
7023,P,185.254333
7024,P,387.327881
7025,P,387.327881
7026,P,-62.4202309
7027,P,-62.4202309
7028,P,155.758804
7029,P,155.758804
7030,P,444.566223
7031,P,444.566223
7032,P,-56.6239777
7033,P,-56.6239777
7034,P,-56.8328209
7035,P,-56.8328209
7036,P,150.358322
7037,P,150.358322
7038,P,439.344177
7039,P,439.344177
7040,P,-56.5111847
7041,P,-56.5111847
7042,P,163.943268
7043,P,163.943268
7044,P,473.759888
7045,P,473.759888
7046,P,-57.1613312
7047,P,-57.1613312
7048,P,-57.137619
7049,P,-57.137619
7050,P,-58.7100296
7051,P,-58.7100296
7052,P,171.894379
7053,P,171.894379
7054,P,477.553925
7055,P,477.553925
7056,P,-59.8329315
7057,P,-59.8329315
7058,P,293.692932
7059,P,293.692932
7060,P,412.154327
7061,P,412.154327
7062,P,-38.3505478
7063,P,-38.3505478
7064,P,-39.4409828
7065,P,-39.4409828
7066,P,267.318481
7067,P,267.318481
7068,P,400.374695
7069,P,400.374695
7070,P,-37.2620125
7071,P,-37.2620125
7072,P,283.805878
7073,P,283.805878
7074,P,414.685394
7075,P,414.685394
7076,P,-43.7485847
7077,P,-43.7485847
7078,P,-43.3467102
7079,P,-43.3467102
7080,P,-45.9052124
7081,P,-45.9052124
7082,P,282.07901
7083,P,282.07901
7084,P,418.690277
7085,P,418.690277
7086,P,-47.1313896
7087,P,-47.1313896
7088,P,68.4881439
7089,P,68.4881439
7090,P,643.219299
7091,P,643.219299
7092,P,42.8781013
7093,P,42.8781013
7094,P,94.6088638
7095,P,94.6088638
7096,P,24.4526234
7097,P,24.4526234
7098,P,121.783562
7099,P,121.783562
7100,P,78.1702194
7101,P,78.1702194
7102,P,304.312256
7103,P,304.312256
7104,P,55.4970207
7105,P,55.4970207
7106,P,37.7212105
7107,P,37.7212105
7108,P,-200.355209
7109,P,-200.355209
7110,P,250.993805
7111,P,250.993805
7112,P,-200.988983
7113,P,-200.988983
7114,P,251.340652
7115,P,251.340652
7116,P,7.78225183
7117,P,7.78225183
7118,P,1.88691258
7119,P,1.88691258
7120,P,99.5198441
7121,P,99.5198441
7122,P,394.376465
7123,P,394.376465
7124,P,348.753296
7125,P,348.753296
7126,P,323.084137
7127,P,323.084137
7128,P,471.444061
7129,P,471.444061
7130,P,130.641556
7131,P,130.641556
7132,P,617.595886
7133,P,617.595886
7134,P,508.593231
7135,P,508.593231
7136,P,701.89032
7137,P,701.89032
7138,P,666.469727
7139,P,666.469727
7140,P,277.632294
7141,P,277.632294
7142,P,315.710052
7143,P,315.710052
7144,P,354.378479
7145,P,354.378479
7146,P,145.171677
7147,P,145.171677
7148,P,504.398102
7149,P,504.398102
7150,P,1189.505
7151,P,1189.505
7152,P,1189.505
7153,P,363.190369
7154,P,363.190369
7155,P,597.332214
7156,P,597.332214
7157,P,142.400757
7158,P,142.400757
7159,P,198.620499
7160,P,198.620499
7161,P,333.469269
7162,P,333.469269
7163,P,342.602203
7164,P,342.602203
7165,P,222.957596
7166,P,222.957596
7167,P,207.544754
7168,P,207.544754
7169,P,129.506729
7170,P,129.506729
7171,P,91.5544815
7172,P,91.5544815
7173,P,158.487686
7174,P,158.487686
7175,P,55.602684
7176,P,55.602684
7177,P,81.7909851
7178,P,81.7909851
7179,P,166.824509
7180,P,166.824509
7181,P,7.22444868
7182,P,7.22444868
7183,P,8.89789867
7184,P,8.89789867
7185,P,117.12587
7186,P,117.12587
7187,P,12.2334576
7188,P,12.2334576
7189,P,9.57650089
7190,P,9.57650089
7191,P,116.120422
7192,P,116.120422
7193,P,6.79155302
7194,P,6.79155302
7195,P,5.40144444
7196,P,5.40144444
7197,P,109.621399
7198,P,109.621399
7199,P,3.62618542
7200,P,3.62618542
7201,P,4.94882011
7202,P,4.94882011
7203,P,105.208946
7204,P,105.208946
7205,P,-1.8452127
7206,P,-1.8452127
7207,P,-1.68465805
7208,P,-1.68465805
7209,P,105.49157
7210,P,105.49157
7211,P,-1.49077523
7212,P,-1.49077523
7213,P,-1.6499716
7214,P,-1.6499716
7215,P,105.254288
7216,P,105.254288
7217,P,-1.94629645
7218,P,-1.94629645
7219,P,-2.73969793
7220,P,-2.73969793
7221,P,103.160507
7222,P,103.160507
7223,P,-4.73707342
7224,P,-4.73707342
7225,P,-3.14700031
7226,P,-3.14700031
7227,P,-12.1050549
7228,P,-12.1050549
7229,P,-13.9741421
7230,P,-13.9741421
7231,P,95.8592987
7232,P,95.8592987
7233,P,-15.05194
7234,P,-15.05194
7235,P,-14.4076624
7236,P,-14.4076624
7237,P,-11.3214884
7238,P,-11.3214884
7239,P,-8.76589394
7240,P,-8.76589394
7241,P,101.832855
7242,P,101.832855
7243,P,-5.48147869
7244,P,-5.48147869
7245,P,-7.86848545
7246,P,-7.86848545
7247,P,101.238838
7248,P,101.238838
7249,P,-0.706603408
7250,P,-0.706603408
7251,P,-1.37155235
7252,P,-1.37155235
7253,P,105.159798
7254,P,105.159798
7255,P,-1.71107292
7256,P,-1.71107292
7257,P,-1.51512527
7258,P,-1.51512527
7259,P,106.569725
7260,P,106.569725
7261,P,-0.43005383
7262,P,-0.43005383
7263,P,0.745100081
7264,P,0.745100081
7265,P,108.590004
7266,P,108.590004
7267,P,2.83987951
7268,P,2.83987951
7269,P,1.25429058
7270,P,1.25429058
7271,P,108.070671
7272,P,108.070671
7273,P,21.5375347
7274,P,21.5375347
7275,P,16.9130001
7276,P,16.9130001
7277,P,118.944443
7278,P,118.944443
7279,P,12.3829308
7280,P,12.3829308
7281,P,15.6249323
7282,P,15.6249323
7283,P,120.482544
7284,P,120.482544
7285,P,23.3275642
7286,P,23.3275642
7287,P,30.5555267
7288,P,30.5555267
7289,P,138.729126
7290,P,138.729126
7291,P,48.2734032
7292,P,48.2734032
7293,P,33.8234482
7294,P,33.8234482
7295,P,127.027657
7296,P,127.027657
7297,P,22.5407963
7298,P,22.5407963
7299,P,17.7703648
7300,P,17.7703648
7301,P,119.716606
7302,P,119.716606
7303,P,13.0965929
7304,P,13.0965929
7305,P,16.4476624
7306,P,16.4476624
7307,P,121.281105
7308,P,121.281105
7309,P,24.3758259
7310,P,24.3758259
7311,P,31.7990055
7312,P,31.7990055
7313,P,49.8410225
7314,P,49.8410225
7315,P,140.15152
7316,P,140.15152
7317,P,35.1208
7318,P,35.1208
7319,P,136.100876
7320,P,136.100876
7321,P,106.56102
7322,P,106.56102
7323,P,-0.447799295
7324,P,-0.447799295
7325,P,-1.14029956
7326,P,-1.14029956
7327,P,105.40139
7328,P,105.40139
7329,P,-1.5100112
7330,P,-1.5100112
7331,P,-1.29054773
7332,P,-1.29054773
7333,P,106.887161
7334,P,106.887161
7335,P,-0.161546528
7336,P,-0.161546528
7337,P,1.04817593
7338,P,1.04817593
7339,P,3.19510937
7340,P,3.19510937
7341,P,108.960297
7342,P,108.960297
7343,P,1.56773746
7344,P,1.56773746
7345,P,108.430573
7346,P,108.430573
7347,P,-12.0978384
7348,P,-12.0978384
7349,P,-13.9712019
7350,P,-13.9712019
7351,P,-15.0529757
7352,P,-15.0529757
7353,P,-14.4061413
7354,P,-14.4061413
7355,P,-11.3089085
7356,P,-11.3089085
7357,P,-8.72969437
7358,P,-8.72969437
7359,P,-5.40744305
7360,P,-5.40744305
7361,P,101.898758
7362,P,101.898758
7363,P,-7.82298279
7364,P,-7.82298279
7365,P,-2.01061916
7366,P,-2.01061916
7367,P,-1.86882269
7368,P,-1.86882269
7369,P,105.269875
7370,P,105.269875
7371,P,-1.69185948
7372,P,-1.69185948
7373,P,-1.83852875
7374,P,-1.83852875
7375,P,105.040855
7376,P,105.040855
7377,P,-2.10412526
7378,P,-2.10412526
7379,P,-2.86746311
7380,P,-2.86746311
7381,P,-4.82496929
7382,P,-4.82496929
7383,P,-3.26424646
7384,P,-3.26424646
7385,P,112.617363
7386,P,112.617363
7387,P,6.70603609
7388,P,6.70603609
7389,P,8.3077879
7390,P,8.3077879
7391,P,116.432426
7392,P,116.432426
7393,P,11.5426645
7394,P,11.5426645
7395,P,8.95864201
7396,P,8.95864201
7397,P,115.452652
7398,P,115.452652
7399,P,6.29414225
7400,P,6.29414225
7401,P,4.96615744
7402,P,4.96615744
7403,P,3.25443149
7404,P,3.25443149
7405,P,109.20118
7406,P,109.20118
7407,P,4.53105688
7408,P,4.53105688
7409,P,109.898567
7410,P,109.898567
7411,P,242.117813
7412,P,242.117813
7413,P,140.201584
7414,P,140.201584
7415,P,199.187042
7416,P,199.187042
7417,P,905.596619
7418,P,905.596619
7419,P,905.596619
7420,P,747.078064
7421,P,747.078064
7422,P,206.125595
7423,P,206.125595
7424,P,127.214317
7425,P,127.214317
7426,P,89.5535049
7427,P,89.5535049
7428,P,53.9589729
7429,P,53.9589729
7430,P,79.8501282
7431,P,79.8501282
7432,P,165.155975
7433,P,165.155975
7434,P,414.68222
7435,P,414.68222
7436,P,604.134155
7437,P,604.134155
7438,P,650.190918
7439,P,650.190918
7440,P,785.098389
7441,P,785.098389
7442,P,780.275085
7443,P,571.644226
7444,P,571.644226
7445,P,1153.13379
7446,P,1153.13379
7447,P,813.731567
7448,P,813.731567
7449,P,1022.65527
7450,P,1022.65527
7451,P,1371.42212
7452,P,1371.42212
7453,P,1208.68726
7454,P,1208.68726
7455,P,1175.24866
7456,P,1175.24866
7457,P,1047.06506
7458,P,1047.06506
7459,P,1388.05981
7460,P,1388.05981
7461,P,1468.70947
7462,P,1468.70947
7463,P,1190.24817
7464,P,1190.24817
7465,P,1264.93591
7466,P,1264.93591
7467,P,1523.18762
7468,P,1523.18762
7469,P,1478.25354
7470,P,1478.25354
7471,P,1315.30029
7472,P,1315.30029
7473,P,1273.52148
7474,P,1273.52148
7475,P,1528.55029
7476,P,1528.55029
7477,P,1552.29248
7478,P,1552.29248
7479,P,1320.10596
7480,P,1320.10596
7481,P,1341.6698
7482,P,1341.6698
7483,P,1561.95105
7484,P,1561.95105
7485,P,1554.6134
7486,P,1554.6134
7487,P,1350.31982
7488,P,1350.31982
7489,P,1343.71606
7490,P,1343.71606
7491,P,1561.93994
7492,P,1561.93994
7493,P,1554.47498
7494,P,1554.47498
7495,P,1350.31006
7496,P,1350.31006
7497,P,1343.58118
7498,P,1343.58118
7499,P,1528.25122
7500,P,1528.25122
7501,P,1552.13196
7502,P,1552.13196
7503,P,1319.8075
7504,P,1319.8075
7505,P,1341.5127
7506,P,1341.5127
7507,P,1522.85645
7508,P,1522.85645
7509,P,1477.7616
7510,P,1477.7616
7511,P,1314.97253
7512,P,1314.97253
7513,P,1273.01672
7514,P,1273.01672
7515,P,1387.36511
7516,P,1387.36511
7517,P,1468.19189
7518,P,1468.19189
7519,P,1189.51953
7520,P,1189.51953
7521,P,1264.39893
7522,P,1264.39893
7523,P,1370.71436
7524,P,1370.71436
7525,P,1207.88928
7526,P,1207.88928
7527,P,1174.49207
7528,P,1174.49207
7529,P,1046.15845
7530,P,1046.15845
7531,P,571.324402
7532,P,571.324402
7533,P,1152.35217
7534,P,1152.35217
7535,P,813.180542
7536,P,813.180542
7537,P,1021.74341
7538,P,1021.74341
7539,P,777.245361
7540,P,-437.718903
7541,P,-437.718903
7542,P,9.98105907
7543,P,9.98105907
7544,P,-33.1901054
7545,P,-33.1901054
7546,P,-609.208191
7547,P,-609.208191
7548,P,-340.812653
7549,P,-340.812653
7550,P,-362.762756
7551,P,-362.762756
7552,P,-640.950806
7553,P,-640.950806
7554,P,-726.145813
7555,P,-726.145813
7556,P,-422.162018
7557,P,-422.162018
7558,P,-429.973572
7559,P,-429.973572
7560,P,-441.915527
7561,P,-441.915527
7562,P,-441.186707
7563,P,-441.186707
7564,P,-743.430786
7565,P,-743.430786
7566,P,-419.437439
7567,P,-419.437439
7568,P,-409.548279
7569,P,-409.548279
7570,P,-710.656677
7571,P,-710.656677
7572,P,-332.267517
7573,P,-332.267517
7574,P,-295.255951
7575,P,-295.255951
7576,P,-578.71814
7577,P,-578.71814
7578,P,-332.263672
7579,P,-332.263672
7580,P,-295.238586
7581,P,-295.238586
7582,P,-419.470581
7583,P,-419.470581
7584,P,-409.5755
7585,P,-409.5755
7586,P,-710.714233
7587,P,-710.714233
7588,P,-441.916138
7589,P,-441.916138
7590,P,-441.193787
7591,P,-441.193787
7592,P,-422.124084
7593,P,-422.124084
7594,P,-429.933868
7595,P,-429.933868
7596,P,-729.404114
7597,P,-729.404114
7598,P,-340.809143
7599,P,-340.809143
7600,P,-362.74585
7601,P,-362.74585
7602,P,9.83077908
7603,P,9.83077908
7604,P,-33.2564926
7605,P,-33.2564926
7606,P,-690.153931
7607,P,-690.153931
7608,P,615.312378
7609,P,615.312378
7610,P,742.766602
7611,P,742.766602
7612,P,217.576401
7613,P,217.576401
7614,P,122.385002
7615,P,122.385002
7616,P,-938.245911
7617,P,-938.245911
7618,P,-86.1513977
7619,P,-86.1513977
7620,P,-50.9813576
7621,P,-50.9813576
7622,P,67.6887512
7623,P,67.6887512
7624,P,100.207603
7625,P,100.207603
7626,P,-181.858566
7627,P,-181.858566
7628,P,-203.966217
7629,P,-203.966217
7630,P,-676.25354
7631,P,-676.25354
7632,P,-386.705597
7633,P,-386.705597
7634,P,-369.646759
7635,P,-369.646759
7636,P,-651.605103
7637,P,-651.605103
7638,P,-226.968933
7639,P,-226.968933
7640,P,-210.71405
7641,P,-210.71405
7642,P,-261.365051
7643,P,-261.365051
7644,P,-269.917175
7645,P,-269.917175
7646,P,-736.001831
7647,P,-736.001831
7648,P,-436.500977
7649,P,-436.500977
7650,P,-432.535217
7651,P,-432.535217
7652,P,-731.942566
7653,P,-731.942566
7654,P,-276.631287
7655,P,-276.631287
7656,P,-272.485382
7657,P,-272.485382
7658,P,-281.933655
7659,P,-281.933655
7660,P,-281.282959
7661,P,-281.282959
7662,P,-738.081665
7663,P,-738.081665
7664,P,-437.842224
7665,P,-437.842224
7666,P,-440.564056
7667,P,-440.564056
7668,P,-278.034546
7669,P,-278.034546
7670,P,-280.67038
7671,P,-280.67038
7672,P,-258.491119
7673,P,-258.491119
7674,P,-248.948715
7675,P,-248.948715
7676,P,-684.574524
7677,P,-684.574524
7678,P,-392.134918
7679,P,-392.134918
7680,P,-405.445435
7681,P,-405.445435
7682,P,-704.372681
7683,P,-704.372681
7684,P,-232.255112
7685,P,-232.255112
7686,P,-244.938141
7687,P,-244.938141
7688,P,-172.312851
7689,P,-172.312851
7690,P,-125.046013
7691,P,-125.046013
7692,P,-977.734802
7693,P,-977.734802
7694,P,-100.713432
7695,P,-100.713432
7696,P,-261.956299
7697,P,-261.956299
7698,P,-617.854736
7699,P,-617.854736
7700,P,51.0557404
7701,P,51.0557404
7702,P,-91.4908981
7703,P,-91.4908981
7704,P,615.089539
7705,P,615.089539
7706,P,742.349731
7707,P,742.349731
7708,P,497.251434
7709,P,497.251434
7710,P,553.020447
7711,P,553.020447
7712,P,950.80304
7713,P,950.80304
7714,P,996.750061
7715,P,996.750061
7716,P,1319
7717,P,1319
7718,P,1296.16772
7719,P,1296.16772
7720,P,1127.45532
7721,P,1127.45532
7722,P,1108.03308
7723,P,1108.03308
7724,P,-977.776062
7725,P,-977.776062
7726,P,-100.68409
7727,P,-100.68409
7728,P,-261.930847
7729,P,-261.930847
7730,P,-172.290802
7731,P,-172.290802
7732,P,-125.006516
7733,P,-125.006516
7734,P,51.1126671
7735,P,51.1126671
7736,P,-91.4432755
7737,P,-91.4432755
7738,P,1426.80371
7739,P,1426.80371
7740,P,1439.45105
7741,P,1439.45105
7742,P,1226.24011
7743,P,1226.24011
7744,P,1237.71045
7745,P,1237.71045
7746,P,1507.27234
7747,P,1507.27234
7748,P,1500.08459
7749,P,1500.08459
7750,P,1300.37305
7751,P,1300.37305
7752,P,1293.83435
7753,P,1293.83435
7754,P,-684.647888
7755,P,-684.647888
7756,P,-392.159088
7757,P,-392.159088
7758,P,-405.466522
7759,P,-405.466522
7760,P,-704.417603
7761,P,-704.417603
7762,P,-258.523529
7763,P,-258.523529
7764,P,-248.973846
7765,P,-248.973846
7766,P,-232.270782
7767,P,-232.270782
7768,P,-244.95607
7769,P,-244.95607
7770,P,1540.53552
7771,P,1540.53552
7772,P,1544.29944
7773,P,1544.29944
7774,P,1330.92932
7775,P,1330.92932
7776,P,1334.25146
7777,P,1334.25146
7778,P,1560.42383
7779,P,1560.42383
7780,P,1559.25732
7781,P,1559.25732
7782,P,1348.96606
7783,P,1348.96606
7784,P,1347.93628
7785,P,1347.93628
7786,P,-738.106873
7787,P,-738.106873
7788,P,-437.866455
7789,P,-437.866455
7790,P,-440.575195
7791,P,-440.575195
7792,P,-281.936707
7793,P,-281.936707
7794,P,-281.294434
7795,P,-281.294434
7796,P,-278.06015
7797,P,-278.06015
7798,P,-280.686127
7799,P,-280.686127
7800,P,1560.35767
7801,P,1560.35767
7802,P,1559.172
7803,P,1559.172
7804,P,1348.90393
7805,P,1348.90393
7806,P,1347.85522
7807,P,1347.85522
7808,P,1540.29333
7809,P,1540.29333
7810,P,1544.08337
7811,P,1544.08337
7812,P,1330.6908
7813,P,1330.6908
7814,P,1334.03796
7815,P,1334.03796
7816,P,-735.967957
7817,P,-735.967957
7818,P,-436.472046
7819,P,-436.472046
7820,P,-432.497498
7821,P,-432.497498
7822,P,-731.895691
7823,P,-731.895691
7824,P,-261.331512
7825,P,-261.331512
7826,P,-269.884308
7827,P,-269.884308
7828,P,-276.605927
7829,P,-276.605927
7830,P,-272.454041
7831,P,-272.454041
7832,P,1506.88147
7833,P,1506.88147
7834,P,1499.66028
7835,P,1499.66028
7836,P,1299.97974
7837,P,1299.97974
7838,P,1293.4104
7839,P,1293.4104
7840,P,1426.18481
7841,P,1426.18481
7842,P,1438.85962
7843,P,1438.85962
7844,P,1225.60046
7845,P,1225.60046
7846,P,1237.09827
7847,P,1237.09827
7848,P,-676.1828
7849,P,-676.1828
7850,P,-386.67984
7851,P,-386.67984
7852,P,-369.623627
7853,P,-369.623627
7854,P,-181.875916
7855,P,-181.875916
7856,P,-203.970703
7857,P,-203.970703
7858,P,-226.958221
7859,P,-226.958221
7860,P,-210.709991
7861,P,-210.709991
7862,P,1318.23303
7863,P,1318.23303
7864,P,1295.37915
7865,P,1295.37915
7866,P,1126.6189
7867,P,1126.6189
7868,P,1107.17151
7869,P,1107.17151
7870,P,496.743805
7871,P,496.743805
7872,P,552.465454
7873,P,552.465454
7874,P,949.966187
7875,P,949.966187
7876,P,995.855957
7877,P,995.855957
7878,P,-938.19928
7879,P,-938.19928
7880,P,-86.183136
7881,P,-86.183136
7882,P,-51.0394402
7883,P,-51.0394402
7884,P,-763.711609
7885,P,-763.711609
7886,P,217.384384
7887,P,217.384384
7888,P,122.283592
7889,P,122.283592
7890,P,67.6264725
7891,P,67.6264725
7892,P,100.116119
7893,P,100.116119
7894,P,-369.020874
7895,P,-369.020874
7896,P,13.1083899
7897,P,13.1083899
7898,P,1563.48206
7899,P,1563.48206
7900,P,670.105896
7901,P,670.105896
7902,P,-1028.90894
7903,P,-1028.90894
7904,P,1443.31055
7905,P,1443.31055
7906,P,760.246094
7907,P,760.246094
7908,P,-1058.41223
7909,P,-1058.41223
7910,P,2306.26074
7911,P,2306.26074
7912,P,1414.8418
7913,P,1414.8418
7914,P,-1077.70764
7915,P,-1077.70764
7916,P,-953.043518
7917,P,-953.043518
7918,P,-941.40741
7919,P,-941.40741
7920,P,2335.45361
7921,P,2335.45361
7922,P,1388.08606
7923,P,1388.08606
7924,P,-1079.97058
7925,P,-1079.97058
7926,P,623.608887
7927,P,623.608887
7928,P,579.292542
7929,P,579.292542
7930,P,2393.0708
7931,P,2393.0708
7932,P,1445.90723
7933,P,1445.90723
7934,P,-1075.39209
7935,P,-1075.39209
7936,P,2368.13623
7937,P,2368.13623
7938,P,1468.72046
7939,P,1468.72046
7940,P,-1074.45227
7941,P,-1074.45227
7942,P,2626.30615
7943,P,2626.30615
7944,P,1694.37061
7945,P,1694.37061
7946,P,-1064.92957
7947,P,-1064.92957
7948,P,-1068.31421
7949,P,-1068.31421
7950,P,-1065.40576
7951,P,-1065.40576
7952,P,2636.23877
7953,P,2636.23877
7954,P,1683.42578
7955,P,1683.42578
7956,P,-1066.13525
7957,P,-1066.13525
7958,P,584.568787
7959,P,584.568787
7960,P,623.32782
7961,P,623.32782
7962,P,2654.00854
7963,P,2654.00854
7964,P,1708.15771
7965,P,1708.15771
7966,P,-1062.09216
7967,P,-1062.09216
7968,P,2648.18359
7969,P,2648.18359
7970,P,1713.81897
7971,P,1713.81897
7972,P,-1059.30798
7973,P,-1059.30798
7974,P,2700.62939
7975,P,2700.62939
7976,P,1757.85791
7977,P,1757.85791
7978,P,-984.635376
7979,P,-984.635376
7980,P,-1087.27966
7981,P,-1087.27966
7982,P,-1087.81702
7983,P,-1087.81702
7984,P,2701.14331
7985,P,2701.14331
7986,P,1757.23413
7987,P,1757.23413
7988,P,-985.049316
7989,P,-985.049316
7990,P,628.779724
7991,P,628.779724
7992,P,639.638
7993,P,639.638
7994,P,2700.60645
7995,P,2700.60645
7996,P,1757.84729
7997,P,1757.84729
7998,P,-984.637573
7999,P,-984.637573
8000,P,2701.13599
8001,P,2701.13599
8002,P,1757.20728
8003,P,1757.20728
8004,P,-985.054138
8005,P,-985.054138
8006,P,2653.75513
8007,P,2653.75513
8008,P,1707.9375
8009,P,1707.9375
8010,P,-1062.12488
8011,P,-1062.12488
8012,P,-1070.62292
8013,P,-1070.62292
8014,P,-1074.72473
8015,P,-1074.72473
8016,P,2647.90479
8017,P,2647.90479
8018,P,1713.59473
8019,P,1713.59473
8020,P,-1059.34558
8021,P,-1059.34558
8022,P,639.619019
8023,P,639.619019
8024,P,628.469177
8025,P,628.469177
8026,P,2626.0144
8027,P,2626.0144
8028,P,1694.09656
8029,P,1694.09656
8030,P,-1064.97498
8031,P,-1064.97498
8032,P,2635.92358
8033,P,2635.92358
8034,P,1683.1803
8035,P,1683.1803
8036,P,-1066.17566
8037,P,-1066.17566
8038,P,2392.58691
8039,P,2392.58691
8040,P,1445.4967
8041,P,1445.4967
8042,P,-1075.44519
8043,P,-1075.44519
8044,P,-964.246948
8045,P,-964.246948
8046,P,-975.970215
8047,P,-975.970215
8048,P,2367.61523
8049,P,2367.61523
8050,P,1468.31702
8051,P,1468.31702
8052,P,-1074.505
8053,P,-1074.505
8054,P,622.938232
8055,P,622.938232
8056,P,583.577942
8057,P,583.577942
8058,P,2305.70288
8059,P,2305.70288
8060,P,1414.44434
8061,P,1414.44434
8062,P,-1077.75671
8063,P,-1077.75671
8064,P,2334.96216
8065,P,2334.96216
8066,P,1387.64429
8067,P,1387.64429
8068,P,-1080.02783
8069,P,-1080.02783
8070,P,1563.11475
8071,P,1563.11475
8072,P,669.830811
8073,P,669.830811
8074,P,-1028.92041
8075,P,-1028.92041
8076,P,-636.000244
8077,P,-636.000244
8078,P,-693.612061
8079,P,-693.612061
8080,P,759.949097
8081,P,759.949097
8082,P,-1058.43115
8083,P,-1058.43115
8084,P,1442.9917
8085,P,1442.9917
8086,P,578.01239
8087,P,578.01239
8088,P,619.048645
8089,P,619.048645
8090,P,-368.876373
8091,P,-368.876373
8092,P,13.3204594
8093,P,13.3204594
8094,P,-165.739807
8095,P,-165.739807
8096,P,137.601807
8097,P,137.601807
8098,P,188.844391
8099,P,188.844391
8100,P,159.429108
8101,P,159.429108
8102,P,174.436615
8103,P,174.436615
8104,P,21.7673512
8105,P,21.7673512
8106,P,168.918976
8107,P,168.918976
8108,P,83.8652115
8109,P,83.8652115
8110,P,93.5524216
8111,P,93.5524216
8112,P,12.0011034
8113,P,12.0011034
8114,P,-47.5081558
8115,P,-47.5081558
8116,P,-78.19487
8117,P,-78.19487
8118,P,-11.2708349
8119,P,-11.2708349
8120,P,-39.9592934
8121,P,-39.9592934
8122,P,-71.4305954
8123,P,-71.4305954
8124,P,-17.7782669
8125,P,-17.7782669
8126,P,-107.273743
8127,P,-107.273743
8128,P,-51.8801575
8129,P,-51.8801575
8130,P,-47.8953056
8131,P,-47.8953056
8132,P,-111.507072
8133,P,-111.507072
8134,P,-119.406677
8135,P,-119.406677
8136,P,-143.298904
8137,P,-143.298904
8138,P,-79.8289337
8139,P,-79.8289337
8140,P,-140.962784
8141,P,-140.962784
8142,P,-82.0547791
8143,P,-82.0547791
8144,P,-152.375839
8145,P,-152.375839
8146,P,-131.207306
8147,P,-131.207306
8148,P,-92.1210709
8149,P,-92.1210709
8150,P,-91.1721725
8151,P,-91.1721725
8152,P,-153.372803
8153,P,-153.372803
8154,P,-137.488373
8155,P,-137.488373
8156,P,-158.23732
8157,P,-158.23732
8158,P,-96.8264008
8159,P,-96.8264008
8160,P,-137.449234
8161,P,-137.449234
8162,P,-158.307938
8163,P,-158.307938
8164,P,-96.7687149
8165,P,-96.7687149
8166,P,-155.52713
8167,P,-155.52713
8168,P,-93.3626404
8169,P,-93.3626404
8170,P,-94.2006149
8171,P,-94.2006149
8172,P,-154.63501
8173,P,-154.63501
8174,P,-135.842407
8175,P,-135.842407
8176,P,-77.2395782
8177,P,-77.2395782
8178,P,-138.401917
8179,P,-138.401917
8180,P,-74.8401337
8181,P,-74.8401337
8182,P,-119.716148
8183,P,-119.716148
8184,P,-56.1666832
8185,P,-56.1666832
8186,P,-59.6122856
8187,P,-59.6122856
8188,P,-115.988625
8189,P,-115.988625
8190,P,-21.0105209
8191,P,-21.0105209
8192,P,-57.0569305
8193,P,-57.0569305
8194,P,-4.70490742
8195,P,-4.70490742
8196,P,-30.4357853
8197,P,-30.4357853
8198,P,-64.1182022
8199,P,-64.1182022
8200,P,1.32136774
8201,P,1.32136774
8202,P,-10.0354872
8203,P,-10.0354872
8204,P,70.222374
8205,P,70.222374
8206,P,53.2529526
8207,P,53.2529526
8208,P,1.43698263
8209,P,1.43698263
8210,P,531.160522
8211,P,531.160522
8212,P,1963.79504
8213,P,1963.79504
8214,P,1132.80261
8215,P,1132.80261
8216,P,-1088.94226
8217,P,-1088.94226
8218,P,1086.69531
8219,P,1086.69531
8220,P,-1089.32581
8221,P,-1089.32581
8222,P,2016.88647
8223,P,2016.88647
8224,P,1044.58142
8225,P,1044.58142
8226,P,1557.9845
8227,P,1557.9845
8228,P,878.753906
8229,P,878.753906
8230,P,859.436096
8231,P,859.436096
8232,P,1017.47186
8233,P,1017.47186
8234,P,973.543701
8235,P,973.543701
8236,P,1160.89282
8237,P,1160.89282
8238,P,1131.79407
8239,P,1131.79407
8240,P,2116.46265
8241,P,2116.46265
8242,P,1183.00916
8243,P,1183.00916
8244,P,-1086.88306
8245,P,-1086.88306
8246,P,-683.311157
8247,P,-683.311157
8248,P,1221.18494
8249,P,1221.18494
8250,P,-1086.62134
8251,P,-1086.62134
8252,P,2072.60059
8253,P,2072.60059
8254,P,-700.25061
8255,P,-700.25061
8256,P,1752.61487
8257,P,1752.61487
8258,P,1356.22937
8259,P,1356.22937
8260,P,1596.49524
8261,P,1596.49524
8262,P,1243.81543
8263,P,1243.81543
8264,P,1058.6582
8265,P,1058.6582
8266,P,955.10907
8267,P,955.10907
8268,P,1161.03064
8269,P,1161.03064
8270,P,943.920227
8271,P,943.920227
8272,P,978.685852
8273,P,978.685852
8274,P,1068.66052
8275,P,1068.66052
8276,P,1016.09149
8277,P,1016.09149
8278,P,290.580963
8279,P,290.580963
8280,P,186.320267
8281,P,186.320267
8282,P,264.78125
8283,P,264.78125
8284,P,179.470917
8285,P,179.470917
8286,P,397.993256
8287,P,397.993256
8288,P,151.137711
8289,P,151.137711
8290,P,156.570526
8291,P,156.570526
8292,P,410.394348
8293,P,410.394348
8294,P,-20.9598427
8295,P,-20.9598427
8296,P,-56.9864082
8297,P,-56.9864082
8298,P,-4.63599157
8299,P,-4.63599157
8300,P,-64.0587616
8301,P,-64.0587616
8302,P,1.40162218
8303,P,1.40162218
8304,P,-9.92869282
8305,P,-9.92869282
8306,P,70.3564148
8307,P,70.3564148
8308,P,1.55156898
8309,P,1.55156898
8310,P,53.3780746
8311,P,53.3780746
8312,P,82.7488022
8313,P,82.7488022
8314,P,42.5106659
8315,P,42.5106659
8316,P,47.8997879
8317,P,47.8997879
8318,P,79.2904968
8319,P,79.2904968
8320,P,157.50528
8321,P,157.50528
8322,P,134.391785
8323,P,134.391785
8324,P,332.005096
8325,P,332.005096
8326,P,103.800781
8327,P,103.800781
8328,P,1774.44812
8329,P,1774.44812
8330,P,1400.86365
8331,P,1400.86365
8332,P,2504.77026
8333,P,2504.77026
8334,P,1585.40649
8335,P,1585.40649
8336,P,-1068.4021
8337,P,-1068.4021
8338,P,1569.00171
8339,P,1569.00171
8340,P,-1069.63599
8341,P,-1069.63599
8342,P,2522.31299
8343,P,2522.31299
8344,P,1460.25781
8345,P,1460.25781
8346,P,1858.56934
8347,P,1858.56934
8348,P,1072.71594
8349,P,1072.71594
8350,P,1202.26172
8351,P,1202.26172
8352,P,1256.97034
8353,P,1256.97034
8354,P,1141.85461
8355,P,1141.85461
8356,P,1024.80774
8357,P,1024.80774
8358,P,1019.18549
8359,P,1019.18549
8360,P,2557.37646
8361,P,2557.37646
8362,P,1604.25232
8363,P,1604.25232
8364,P,-1067.70862
8365,P,-1067.70862
8366,P,-1032.88477
8367,P,-1032.88477
8368,P,1618.49707
8369,P,1618.49707
8370,P,-1067.59924
8371,P,-1067.59924
8372,P,2542.08423
8373,P,2542.08423
8374,P,-1040.07458
8375,P,-1040.07458
8376,P,1917.76648
8377,P,1917.76648
8378,P,1518.82104
8379,P,1518.82104
8380,P,1871.46399
8381,P,1871.46399
8382,P,1485.43652
8383,P,1485.43652
8384,P,1188.63745
8385,P,1188.63745
8386,P,1311.12964
8387,P,1311.12964
8388,P,1060.81958
8389,P,1060.81958
8390,P,1149.9082
8391,P,1149.9082
8392,P,1032.64746
8393,P,1032.64746
8394,P,1280.26196
8395,P,1280.26196
8396,P,72.2695312
8397,P,72.2695312
8398,P,36.2116394
8399,P,36.2116394
8400,P,28.4766502
8401,P,28.4766502
8402,P,76.3803406
8403,P,76.3803406
8404,P,601.619751
8405,P,601.619751
8406,P,15.8806105
8407,P,15.8806105
8408,P,-13.4130297
8409,P,-13.4130297
8410,P,-9.65257835
8411,P,-9.65257835
8412,P,12.432951
8413,P,12.432951
8414,P,-135.865082
8415,P,-135.865082
8416,P,-77.26651
8417,P,-77.26651
8418,P,-113.689262
8419,P,-113.689262
8420,P,-138.426788
8421,P,-138.426788
8422,P,-74.8637772
8423,P,-74.8637772
8424,P,-119.716576
8425,P,-119.716576
8426,P,-56.1626091
8427,P,-56.1626091
8428,P,-115.984474
8429,P,-115.984474
8430,P,-59.6129456
8431,P,-59.6129456
8432,P,-7.85140848
8433,P,-7.85140848
8434,P,-37.2792587
8435,P,-37.2792587
8436,P,-35.0169067
8437,P,-35.0169067
8438,P,-9.97027302
8439,P,-9.97027302
8440,P,5.82762861
8441,P,5.82762861
8442,P,-17.438345
8443,P,-17.438345
8444,P,8.6935215
8445,P,8.6935215
8446,P,-20.6013622
8447,P,-20.6013622
8448,P,1925.37952
8449,P,1925.37952
8450,P,1532.19958
8451,P,1532.19958
8452,P,2675.84961
8453,P,2675.84961
8454,P,1738.07654
8455,P,1738.07654
8456,P,-987.714478
8457,P,-987.714478
8458,P,1732.65369
8459,P,1732.65369
8460,P,-988.818115
8461,P,-988.818115
8462,P,2680.81274
8463,P,2680.81274
8464,P,1550.03845
8465,P,1550.03845
8466,P,1193.18994
8467,P,1193.18994
8468,P,1323.49878
8469,P,1323.49878
8470,P,1339.56238
8471,P,1339.56238
8472,P,1212.93457
8473,P,1212.93457
8474,P,1085.07764
8475,P,1085.07764
8476,P,1083.67981
8477,P,1083.67981
8478,P,2689.71143
8479,P,2689.71143
8480,P,1743.38354
8481,P,1743.38354
8482,P,-986.858398
8483,P,-986.858398
8484,P,-1081.50085
8485,P,-1081.50085
8486,P,1746.97302
8487,P,1746.97302
8488,P,-986.633911
8489,P,-986.633911
8490,P,2686.00049
8491,P,2686.00049
8492,P,-1083.61633
8493,P,-1083.61633
8494,P,1561.69775
8495,P,1561.69775
8496,P,1953.73865
8497,P,1953.73865
8498,P,1556.27014
8499,P,1556.27014
8500,P,1220.8429
8501,P,1220.8429
8502,P,1092.01965
8503,P,1092.01965
8504,P,1350.09985
8505,P,1350.09985
8506,P,1091.90002
8507,P,1091.90002
8508,P,1214.85156
8509,P,1214.85156
8510,P,1345.24719
8511,P,1345.24719
8512,P,1088.25708
8513,P,1088.25708
8514,P,-14.2133522
8515,P,-14.2133522
8516,P,-39.7721024
8517,P,-39.7721024
8518,P,-41.8079262
8519,P,-41.8079262
8520,P,-12.3818502
8521,P,-12.3818502
8522,P,-22.0782375
8523,P,-22.0782375
8524,P,-51.2269669
8525,P,-51.2269669
8526,P,-50.3322983
8527,P,-50.3322983
8528,P,-22.902874
8529,P,-22.902874
8530,P,-137.490799
8531,P,-137.490799
8532,P,-158.239624
8533,P,-158.239624
8534,P,-96.8285828
8535,P,-96.8285828
8536,P,-158.309097
8537,P,-158.309097
8538,P,-96.7724762
8539,P,-96.7724762
8540,P,-155.546692
8541,P,-155.546692
8542,P,-93.3873901
8543,P,-93.3873901
8544,P,-154.657501
8545,P,-154.657501
8546,P,-94.2237473
8547,P,-94.2237473
8548,P,-26.9761372
8549,P,-26.9761372
8550,P,-55.6650276
8551,P,-55.6650276
8552,P,-55.6091881
8553,P,-55.6091881
8554,P,-27.0412445
8555,P,-27.0412445
8556,P,-24.7164764
8557,P,-24.7164764
8558,P,-52.4360085
8559,P,-52.4360085
8560,P,-24.0507889
8561,P,-24.0507889
8562,P,-53.1977692
8563,P,-53.1977692
8564,P,1960.95947
8565,P,1960.95947
8566,P,1561.66895
8567,P,1561.66895
8568,P,2689.59985
8569,P,2689.59985
8570,P,1743.27124
8571,P,1743.27124
8572,P,-986.875305
8573,P,-986.875305
8574,P,1746.87219
8575,P,1746.87219
8576,P,-986.648804
8577,P,-986.648804
8578,P,2685.87109
8579,P,2685.87109
8580,P,1556.14893
8581,P,1556.14893
8582,P,1953.60291
8583,P,1953.60291
8584,P,1220.83362
8585,P,1220.83362
8586,P,1350.07373
8587,P,1350.07373
8588,P,1345.13
8589,P,1345.13
8590,P,1214.71802
8591,P,1214.71802
8592,P,1087.01746
8593,P,1087.01746
8594,P,1088.14221
8595,P,1088.14221
8596,P,2675.68408
8597,P,2675.68408
8598,P,1737.94751
8599,P,1737.94751
8600,P,-987.736206
8601,P,-987.736206
8602,P,-1079.62207
8603,P,-1079.62207
8604,P,1732.51196
8605,P,1732.51196
8606,P,-988.842529
8607,P,-988.842529
8608,P,2680.66406
8609,P,2680.66406
8610,P,-1078.56982
8611,P,-1078.56982
8612,P,1925.07861
8613,P,1925.07861
8614,P,1531.91602
8615,P,1531.91602
8616,P,1950.2345
8617,P,1950.2345
8618,P,1549.86035
8619,P,1549.86035
8620,P,1192.89172
8621,P,1192.89172
8622,P,1323.21692
8623,P,1323.21692
8624,P,1070.58569
8625,P,1070.58569
8626,P,1212.77856
8627,P,1212.77856
8628,P,1084.91968
8629,P,1084.91968
8630,P,1339.38684
8631,P,1339.38684
8632,P,-26.9706478
8633,P,-26.9706478
8634,P,-55.6622467
8635,P,-55.6622467
8636,P,-55.6047401
8637,P,-55.6047401
8638,P,-27.0382996
8639,P,-27.0382996
8640,P,637.900146
8641,P,637.900146
8642,P,-24.6893578
8643,P,-24.6893578
8644,P,-52.4082794
8645,P,-52.4082794
8646,P,-53.1726418
8647,P,-53.1726418
8648,P,-24.0199966
8649,P,-24.0199966
8650,P,-143.266541
8651,P,-143.266541
8652,P,-79.7994537
8653,P,-79.7994537
8654,P,-116.834198
8655,P,-116.834198
8656,P,-140.932388
8657,P,-140.932388
8658,P,-82.0198135
8659,P,-82.0198135
8660,P,-152.349319
8661,P,-152.349319
8662,P,-92.0947418
8663,P,-92.0947418
8664,P,-153.347855
8665,P,-153.347855
8666,P,-91.1450195
8667,P,-91.1450195
8668,P,-14.1716051
8669,P,-14.1716051
8670,P,-39.7378464
8671,P,-39.7378464
8672,P,-41.7694778
8673,P,-41.7694778
8674,P,-12.3410864
8675,P,-12.3410864
8676,P,-22.0436592
8677,P,-22.0436592
8678,P,-51.1988792
8679,P,-51.1988792
8680,P,-22.8711243
8681,P,-22.8711243
8682,P,-50.3019562
8683,P,-50.3019562
8684,P,1917.41394
8685,P,1917.41394
8686,P,1518.47229
8687,P,1518.47229
8688,P,2556.96704
8689,P,2556.96704
8690,P,1603.9137
8691,P,1603.9137
8692,P,-1067.75378
8693,P,-1067.75378
8694,P,1618.15198
8695,P,1618.15198
8696,P,-1067.65027
8697,P,-1067.65027
8698,P,2541.6748
8699,P,2541.6748
8700,P,1484.96179
8701,P,1484.96179
8702,P,1188.30408
8703,P,1188.30408
8704,P,1310.78101
8705,P,1310.78101
8706,P,1279.78357
8707,P,1279.78357
8708,P,1149.39563
8709,P,1149.39563
8710,P,1032.11853
8711,P,1032.11853
8712,P,1037.10999
8713,P,1037.10999
8714,P,2504.30688
8715,P,2504.30688
8716,P,1585.05945
8717,P,1585.05945
8718,P,-1068.44995
8719,P,-1068.44995
8720,P,-1025.68018
8721,P,-1025.68018
8722,P,1568.61804
8723,P,1568.61804
8724,P,-1069.68616
8725,P,-1069.68616
8726,P,2521.88501
8727,P,2521.88501
8728,P,-1019.46692
8729,P,-1019.46692
8730,P,1400.19849
8731,P,1400.19849
8732,P,1858.06567
8733,P,1858.06567
8734,P,1459.7113
8735,P,1459.7113
8736,P,1071.94641
8737,P,1071.94641
8738,P,967.707214
8739,P,967.707214
8740,P,1201.56274
8741,P,1201.56274
8742,P,976.999634
8743,P,976.999634
8744,P,1141.30762
8745,P,1141.30762
8746,P,1256.41479
8747,P,1256.41479
8748,P,1018.58466
8749,P,1018.58466
8750,P,-7.81892824
8751,P,-7.81892824
8752,P,-37.246727
8753,P,-37.246727
8754,P,-34.9885521
8755,P,-34.9885521
8756,P,-9.93220043
8757,P,-9.93220043
8758,P,5.83177948
8759,P,5.83177948
8760,P,-17.4415588
8761,P,-17.4415588
8762,P,-20.6007462
8763,P,-20.6007462
8764,P,8.69250584
8765,P,8.69250584
8766,P,-47.5338287
8767,P,-47.5338287
8768,P,-78.2350082
8769,P,-78.2350082
8770,P,-11.3290033
8771,P,-11.3290033
8772,P,-71.4796982
8773,P,-71.4796982
8774,P,-17.8251629
8775,P,-17.8251629
8776,P,-107.283737
8777,P,-107.283737
8778,P,-51.8896751
8779,P,-51.8896751
8780,P,-111.515213
8781,P,-111.515213
8782,P,-47.9092941
8783,P,-47.9092941
8784,P,72.2024918
8785,P,72.2024918
8786,P,36.1471939
8787,P,36.1471939
8788,P,28.421917
8789,P,28.421917
8790,P,76.3116455
8791,P,76.3116455
8792,P,15.8666821
8793,P,15.8666821
8794,P,-13.4250927
8795,P,-13.4250927
8796,P,12.4221497
8797,P,12.4221497
8798,P,-9.6684761
8799,P,-9.6684761
8800,P,1751.95996
8801,P,1751.95996
8802,P,1355.49268
8803,P,1355.49268
8804,P,2115.96191
8805,P,2115.96191
8806,P,1182.62634
8807,P,1182.62634
8808,P,-1086.93115
8809,P,-1086.93115
8810,P,1220.79272
8811,P,1220.79272
8812,P,-1086.67285
8813,P,-1086.67285
8814,P,2072.11157
8815,P,2072.11157
8816,P,1243.01294
8817,P,1243.01294
8818,P,1595.771
8819,P,1595.771
8820,P,1057.85034
8821,P,1057.85034
8822,P,1160.25208
8823,P,1160.25208
8824,P,1067.76379
8825,P,1067.76379
8826,P,977.632324
8827,P,977.632324
8828,P,1169.599
8829,P,1169.599
8830,P,1014.76532
8831,P,1014.76532
8832,P,1963.31848
8833,P,1963.31848
8834,P,1132.43103
8835,P,1132.43103
8836,P,-1088.98865
8837,P,-1088.98865
8838,P,-671.135803
8839,P,-671.135803
8840,P,1086.33154
8841,P,1086.33154
8842,P,-1089.37061
8843,P,-1089.37061
8844,P,2016.41882
8845,P,2016.41882
8846,P,-660.983826
8847,P,-660.983826
8848,P,1496.94568
8849,P,1496.94568
8850,P,530.765198
8851,P,530.765198
8852,P,1557.27051
8853,P,1557.27051
8854,P,1043.83325
8855,P,1043.83325
8856,P,877.900269
8857,P,877.900269
8858,P,858.764221
8859,P,858.764221
8860,P,1021.1452
8861,P,1021.1452
8862,P,972.466797
8863,P,972.466797
8864,P,1159.40955
8865,P,1159.40955
8866,P,1016.55133
8867,P,1016.55133
8868,P,82.6461716
8869,P,82.6461716
8870,P,42.4344521
8871,P,42.4344521
8872,P,47.8087273
8873,P,47.8087273
8874,P,79.2109833
8875,P,79.2109833
8876,P,578.391907
8877,P,578.391907
8878,P,157.331512
8879,P,157.331512
8880,P,134.234665
8881,P,134.234665
8882,P,103.654343
8883,P,103.654343
8884,P,331.805573
8885,P,331.805573
8886,P,137.414413
8887,P,137.414413
8888,P,188.613373
8889,P,188.613373
8890,P,-127.976341
8891,P,-127.976341
8892,P,159.212723
8893,P,159.212723
8894,P,174.236511
8895,P,174.236511
8896,P,21.6406555
8897,P,21.6406555
8898,P,83.7248383
8899,P,83.7248383
8900,P,11.8811731
8901,P,11.8811731
8902,P,93.4037933
8903,P,93.4037933
8904,P,580.518738
8905,P,580.518738
8906,P,290.352142
8907,P,290.352142
8908,P,186.094666
8909,P,186.094666
8910,P,264.563965
8911,P,264.563965
8912,P,179.265213
8913,P,179.265213
8914,P,397.752411
8915,P,397.752411
8916,P,150.972107
8917,P,150.972107
8918,P,410.18045
8919,P,410.18045
8920,P,156.392075
8921,P,156.392075
8922,P,-518.952393
8923,P,-518.952393
8924,P,3.76623058
8925,P,3.76623058
8926,P,-8.01032925
8927,P,-8.01032925
8928,P,-620.832825
8929,P,-620.832825
8930,P,-348.877991
8931,P,-348.877991
8932,P,-631.916199
8933,P,-631.916199
8934,P,-356.185669
8935,P,-356.185669
8936,P,-425.476318
8937,P,-425.476318
8938,P,-427.960602
8939,P,-427.960602
8940,P,-744.656189
8941,P,-744.656189
8942,P,-441.998932
8943,P,-441.998932
8944,P,-744.404602
8945,P,-744.404602
8946,P,-441.731323
8947,P,-441.731323
8948,P,-416.420135
8949,P,-416.420135
8950,P,-715.875366
8951,P,-715.875366
8952,P,-413.225525
8953,P,-413.225525
8954,P,-587.362183
8955,P,-587.362183
8956,P,-323.29718
8957,P,-323.29718
8958,P,-578.953735
8959,P,-578.953735
8960,P,-312.241943
8961,P,-312.241943
8962,P,186.474319
8963,P,186.474319
8964,P,1702.31116
8965,P,1702.31116
8966,P,1411.32178
8967,P,1411.32178
8968,P,1594.74036
8969,P,1594.74036
8970,P,1499.55835
8971,P,1499.55835
8972,P,1668.87085
8973,P,1668.87085
8974,P,910.147217
8975,P,910.147217
8976,P,-1081.57874
8977,P,-1081.57874
8978,P,841.540283
8979,P,841.540283
8980,P,-1072.56958
8981,P,-1072.56958
8982,P,1754.22253
8983,P,1754.22253
8984,P,2272.4248
8985,P,2272.4248
8986,P,1329.69434
8987,P,1329.69434
8988,P,-1082.30005
8989,P,-1082.30005
8990,P,-905.168152
8991,P,-905.168152
8992,P,-926.693481
8993,P,-926.693481
8994,P,1358.57312
8995,P,1358.57312
8996,P,-1081.51416
8997,P,-1081.51416
8998,P,2239.63916
8999,P,2239.63916
9000,P,2358.32275
9001,P,2358.32275
9002,P,-597.438538
9003,P,-597.438538
9004,P,2083.12109
9005,P,2083.12109
9006,P,2382.34082
9007,P,2382.34082
9008,P,2062.83594
9009,P,2062.83594
9010,P,-578.76886
9011,P,-578.76886
9012,P,259.08606
9013,P,259.08606
9014,P,-404.016785
9015,P,-404.016785
9016,P,-319.960968
9017,P,-319.960968
9018,P,194.913391
9019,P,194.913391
9020,P,241.020584
9021,P,241.020584
9022,P,-133.336945
9023,P,-133.336945
9024,P,202.560623
9025,P,202.560623
9026,P,-587.402771
9027,P,-587.402771
9028,P,-323.285126
9029,P,-323.285126
9030,P,-578.989807
9031,P,-578.989807
9032,P,-312.223572
9033,P,-312.223572
9034,P,324.625061
9035,P,324.625061
9036,P,-942.371704
9037,P,-942.371704
9038,P,193.63092
9039,P,193.63092
9040,P,201.987396
9041,P,201.987396
9042,P,317.930359
9043,P,317.930359
9044,P,2429.96875
9045,P,2429.96875
9046,P,2105.72266
9047,P,2105.72266
9048,P,2409.30151
9049,P,2409.30151
9050,P,2123.12207
9051,P,2123.12207
9052,P,2418.95874
9053,P,2418.95874
9054,P,1511.7655
9055,P,1511.7655
9056,P,-1071.69788
9057,P,-1071.69788
9058,P,1491.4834
9059,P,1491.4834
9060,P,-1073.33154
9061,P,-1073.33154
9062,P,2441.21118
9063,P,2441.21118
9064,P,2613.83252
9065,P,2613.83252
9066,P,1659.80347
9067,P,1659.80347
9068,P,-1066.47473
9069,P,-1066.47473
9070,P,-1056.41345
9071,P,-1056.41345
9072,P,-1061.5061
9073,P,-1061.5061
9074,P,1671.31104
9075,P,1671.31104
9076,P,-1066.5708
9077,P,-1066.5708
9078,P,2601.82031
9079,P,2601.82031
9080,P,2624.47998
9081,P,2624.47998
9082,P,-723.482239
9083,P,-723.482239
9084,P,2293.55957
9085,P,2293.55957
9086,P,2631.7395
9087,P,2631.7395
9088,P,2287.52441
9089,P,2287.52441
9090,P,127.042801
9091,P,127.042801
9092,P,22.9341812
9093,P,22.9341812
9094,P,136.959076
9095,P,136.959076
9096,P,102.714798
9097,P,102.714798
9098,P,202.140244
9099,P,202.140244
9100,P,-720.124023
9101,P,-720.124023
9102,P,-416.450989
9103,P,-416.450989
9104,P,-715.914307
9105,P,-715.914307
9106,P,-413.249084
9107,P,-413.249084
9108,P,-4.15137386
9109,P,-4.15137386
9110,P,-7.65310144
9111,P,-7.65310144
9112,P,-4.85515642
9113,P,-4.85515642
9114,P,-6.73629332
9115,P,-6.73629332
9116,P,44.6032257
9117,P,44.6032257
9118,P,46.4451942
9119,P,46.4451942
9120,P,2646.44873
9121,P,2646.44873
9122,P,2301.22534
9123,P,2301.22534
9124,P,2640.97363
9125,P,2640.97363
9126,P,2306.10669
9127,P,2306.10669
9128,P,2658.10889
9129,P,2658.10889
9130,P,1715.57202
9131,P,1715.57202
9132,P,-994.591919
9133,P,-994.591919
9134,P,1715.53601
9135,P,1715.53601
9136,P,-1027.86511
9137,P,-1027.86511
9138,P,2660.20483
9139,P,2660.20483
9140,P,2699.5896
9141,P,2699.5896
9142,P,1754.95996
9143,P,1754.95996
9144,P,-985.13562
9145,P,-985.13562
9146,P,-1086.60229
9147,P,-1086.60229
9148,P,-1087.61914
9149,P,-1087.61914
9150,P,1756.22559
9151,P,1756.22559
9152,P,-985.202881
9153,P,-985.202881
9154,P,2698.14771
9155,P,2698.14771
9156,P,2691.10278
9157,P,2691.10278
9158,P,-744.379211
9159,P,-744.379211
9160,P,2346.92163
9161,P,2346.92163
9162,P,2691.48511
9163,P,2691.48511
9164,P,2346.56738
9165,P,2346.56738
9166,P,-743.434875
9167,P,-743.434875
9168,P,-14.0836744
9169,P,-14.0836744
9170,P,37.0728073
9171,P,37.0728073
9172,P,38.3997192
9173,P,38.3997192
9174,P,-13.2679567
9175,P,-13.2679567
9176,P,-14.610877
9177,P,-14.610877
9178,P,-12.5368052
9179,P,-12.5368052
9180,P,42.0330353
9181,P,42.0330353
9182,P,-744.654846
9183,P,-744.654846
9184,P,-442.000549
9185,P,-442.000549
9186,P,-744.405823
9187,P,-744.405823
9188,P,-441.735901
9189,P,-441.735901
9190,P,-21.2743473
9191,P,-21.2743473
9192,P,29.9082203
9193,P,29.9082203
9194,P,-22.0866184
9195,P,-22.0866184
9196,P,-21.7099781
9197,P,-21.7099781
9198,P,-21.519989
9199,P,-21.519989
9200,P,2691.07739
9201,P,2691.07739
9202,P,2346.91138
9203,P,2346.91138
9204,P,2691.47607
9205,P,2691.47607
9206,P,2346.54053
9207,P,2346.54053
9208,P,2699.54761
9209,P,2699.54761
9210,P,1754.90088
9211,P,1754.90088
9212,P,-985.145081
9213,P,-985.145081
9214,P,1756.18152
9215,P,1756.18152
9216,P,-985.210022
9217,P,-985.210022
9218,P,2698.08887
9219,P,2698.08887
9220,P,2657.88281
9221,P,2657.88281
9222,P,1715.37231
9223,P,1715.37231
9224,P,-994.635193
9225,P,-994.635193
9226,P,-1072.45239
9227,P,-1072.45239
9228,P,-1074.06873
9229,P,-1074.06873
9230,P,1715.35242
9231,P,1715.35242
9232,P,-1027.87927
9233,P,-1027.87927
9234,P,2659.9917
9235,P,2659.9917
9236,P,2646.18335
9237,P,2646.18335
9238,P,-726.089539
9239,P,-726.089539
9240,P,2300.96582
9241,P,2300.96582
9242,P,2640.68945
9243,P,2640.68945
9244,P,2305.84692
9245,P,2305.84692
9246,P,-21.2543068
9247,P,-21.2543068
9248,P,29.9284725
9249,P,29.9284725
9250,P,-22.0739479
9251,P,-22.0739479
9252,P,-21.6892796
9253,P,-21.6892796
9254,P,-21.5075397
9255,P,-21.5075397
9256,P,-729.435913
9257,P,-729.435913
9258,P,-425.436249
9259,P,-425.436249
9260,P,-729.935974
9261,P,-729.935974
9262,P,-427.921326
9263,P,-427.921326
9264,P,-14.0230923
9265,P,-14.0230923
9266,P,-13.2085934
9267,P,-13.2085934
9268,P,-14.5502214
9269,P,-14.5502214
9270,P,-12.4759426
9271,P,-12.4759426
9272,P,42.086937
9273,P,42.086937
9274,P,40.6515541
9275,P,40.6515541
9276,P,2624.1582
9277,P,2624.1582
9278,P,2293.26733
9279,P,2293.26733
9280,P,2631.44312
9281,P,2631.44312
9282,P,2287.21533
9283,P,2287.21533
9284,P,2613.4856
9285,P,2613.4856
9286,P,1659.50989
9287,P,1659.50989
9288,P,-1066.51575
9289,P,-1066.51575
9290,P,1671.01428
9291,P,1671.01428
9292,P,-1066.61743
9293,P,-1066.61743
9294,P,2601.47485
9295,P,2601.47485
9296,P,2418.45532
9297,P,2418.45532
9298,P,1511.37268
9299,P,1511.37268
9300,P,-1071.75012
9301,P,-1071.75012
9302,P,-994.153442
9303,P,-994.153442
9304,P,-985.97821
9305,P,-985.97821
9306,P,1491.08069
9307,P,1491.08069
9308,P,-1073.3844
9309,P,-1073.3844
9310,P,2440.74658
9311,P,2440.74658
9312,P,2429.45508
9313,P,2429.45508
9314,P,-609.143127
9315,P,-609.143127
9316,P,2105.2124
9317,P,2105.2124
9318,P,2408.76685
9319,P,2408.76685
9320,P,2122.60986
9321,P,2122.60986
9322,P,-640.888489
9323,P,-640.888489
9324,P,-4.10007763
9325,P,-4.10007763
9326,P,51.0243835
9327,P,51.0243835
9328,P,48.7862892
9329,P,48.7862892
9330,P,-7.60094595
9331,P,-7.60094595
9332,P,-4.80696535
9333,P,-4.80696535
9334,P,-6.68111706
9335,P,-6.68111706
9336,P,44.6559181
9337,P,44.6559181
9338,P,-620.762024
9339,P,-620.762024
9340,P,-348.86853
9341,P,-348.86853
9342,P,-631.832458
9343,P,-631.832458
9344,P,-356.171143
9345,P,-356.171143
9346,P,126.986626
9347,P,126.986626
9348,P,22.9057331
9349,P,22.9057331
9350,P,136.881088
9351,P,136.881088
9352,P,102.657761
9353,P,102.657761
9354,P,202.064163
9355,P,202.064163
9356,P,2357.77393
9357,P,2357.77393
9358,P,2082.59326
9359,P,2082.59326
9360,P,2381.82593
9361,P,2381.82593
9362,P,2062.31104
9363,P,2062.31104
9364,P,2271.87231
9365,P,2271.87231
9366,P,1329.28833
9367,P,1329.28833
9368,P,-1082.35767
9369,P,-1082.35767
9370,P,1358.13831
9371,P,1358.13831
9372,P,-1081.57227
9373,P,-1081.57227
9374,P,2239.1355
9375,P,2239.1355
9376,P,1668.4939
9377,P,1668.4939
9378,P,909.831665
9379,P,909.831665
9380,P,-1081.60901
9381,P,-1081.60901
9382,P,-692.61499
9383,P,-692.61499
9384,P,-729.212463
9385,P,-729.212463
9386,P,841.238403
9387,P,841.238403
9388,P,-1072.59436
9389,P,-1072.59436
9390,P,1753.82507
9391,P,1753.82507
9392,P,1701.95581
9393,P,1701.95581
9394,P,-437.794525
9395,P,-437.794525
9396,P,1411.02722
9397,P,1411.02722
9398,P,1594.43286
9399,P,1594.43286
9400,P,1499.22815
9401,P,1499.22815
9402,P,324.404358
9403,P,324.404358
9404,P,-942.459473
9405,P,-942.459473
9406,P,193.446472
9407,P,193.446472
9408,P,201.758423
9409,P,201.758423
9410,P,317.745789
9411,P,317.745789
9412,P,-518.988525
9413,P,-518.988525
9414,P,3.64566755
9415,P,3.64566755
9416,P,-604.264832
9417,P,-604.264832
9418,P,-8.10626888
9419,P,-8.10626888
9420,P,258.673553
9421,P,258.673553
9422,P,194.612411
9423,P,194.612411
9424,P,202.527054
9425,P,202.527054
9426,P,240.495865
9427,P,240.495865
9428,P,-133.578384
9429,P,-133.578384
9430,P,-227.766235
9431,P,-227.766235
9432,P,186.733658
9433,P,186.733658
9434,P,-127.810814
9435,P,-127.810814
9436,P,241.135925
9437,P,241.135925
9438,P,-15.3055315
9439,P,-15.3055315
9440,P,97.0032806
9441,P,97.0032806
9442,P,126.920662
9443,P,126.920662
9444,P,127.552177
9445,P,127.552177
9446,P,62.0241966
9447,P,62.0241966
9448,P,149.453323
9449,P,149.453323
9450,P,213.00061
9451,P,213.00061
9452,P,-75.0061874
9453,P,-75.0061874
9454,P,-887.646423
9455,P,-887.646423
9456,P,-65.7009201
9457,P,-65.7009201
9458,P,-832.50769
9459,P,-832.50769
9460,P,171.183777
9461,P,171.183777
9462,P,30.9972477
9463,P,30.9972477
9464,P,112.690178
9465,P,112.690178
9466,P,43.1025352
9467,P,43.1025352
9468,P,102.161079
9469,P,102.161079
9470,P,161.638092
9471,P,161.638092
9472,P,79.4158554
9473,P,79.4158554
9474,P,165.662903
9475,P,165.662903
9476,P,87.7923965
9477,P,87.7923965
9478,P,-190.014435
9479,P,-190.014435
9480,P,-55.2137756
9481,P,-55.2137756
9482,P,-85.0592957
9483,P,-85.0592957
9484,P,-31.739254
9485,P,-31.739254
9486,P,-61.1387711
9487,P,-61.1387711
9488,P,-91.105423
9489,P,-91.105423
9490,P,-25.2676392
9491,P,-25.2676392
9492,P,-197.532669
9493,P,-197.532669
9494,P,-381.630737
9495,P,-381.630737
9496,P,-669.151917
9497,P,-669.151917
9498,P,-375.852417
9499,P,-375.852417
9500,P,-102.260635
9501,P,-102.260635
9502,P,-38.0217056
9503,P,-38.0217056
9504,P,-97.1569901
9505,P,-97.1569901
9506,P,-43.0590477
9507,P,-43.0590477
9508,P,-83.3250275
9509,P,-83.3250275
9510,P,-222.147964
9511,P,-222.147964
9512,P,-68.1490097
9513,P,-68.1490097
9514,P,-216.504349
9515,P,-216.504349
9516,P,-116.865227
9517,P,-116.865227
9518,P,-264.466187
9519,P,-264.466187
9520,P,-123.097565
9521,P,-123.097565
9522,P,-145.604568
9523,P,-145.604568
9524,P,-86.3921738
9525,P,-86.3921738
9526,P,-125.660919
9527,P,-125.660919
9528,P,-147.473373
9529,P,-147.473373
9530,P,-84.4782104
9531,P,-84.4782104
9532,P,-267.494751
9533,P,-267.494751
9534,P,-435.558014
9535,P,-435.558014
9536,P,-734.94165
9537,P,-734.94165
9538,P,-433.847412
9539,P,-433.847412
9540,P,-733.085938
9541,P,-733.085938
9542,P,-129.572067
9543,P,-129.572067
9544,P,-150.782013
9545,P,-150.782013
9546,P,-88.3733139
9547,P,-88.3733139
9548,P,-149.486664
9549,P,-149.486664
9550,P,-89.681839
9551,P,-89.681839
9552,P,-132.03212
9553,P,-132.03212
9554,P,-275.679138
9555,P,-275.679138
9556,P,-128.101974
9557,P,-128.101974
9558,P,-273.938538
9559,P,-273.938538
9560,P,-281.984375
9561,P,-281.984375
9562,P,-137.314926
9563,P,-137.314926
9564,P,-157.959732
9565,P,-157.959732
9566,P,-96.1775284
9567,P,-96.1775284
9568,P,-136.853333
9569,P,-136.853333
9570,P,-157.576279
9571,P,-157.576279
9572,P,-96.5309525
9573,P,-96.5309525
9574,P,-281.759064
9575,P,-281.759064
9576,P,-439.028625
9577,P,-439.028625
9578,P,-439.968201
9579,P,-439.968201
9580,P,-135.695251
9581,P,-135.695251
9582,P,-156.399399
9583,P,-156.399399
9584,P,-95.6169281
9585,P,-95.6169281
9586,P,-156.996292
9587,P,-156.996292
9588,P,-95.0646133
9589,P,-95.0646133
9590,P,-133.657379
9591,P,-133.657379
9592,P,-279.116028
9593,P,-279.116028
9594,P,-136.17688
9595,P,-136.17688
9596,P,-280.093445
9597,P,-280.093445
9598,P,-113.658485
9599,P,-113.658485
9600,P,-255.536484
9601,P,-255.536484
9602,P,-107.916878
9603,P,-107.916878
9604,P,-133.008499
9605,P,-133.008499
9606,P,-69.4466553
9607,P,-69.4466553
9608,P,-104.807892
9609,P,-104.807892
9610,P,-130.113342
9611,P,-130.113342
9612,P,-72.1437149
9613,P,-72.1437149
9614,P,-252.39476
9615,P,-252.39476
9616,P,-397.051422
9617,P,-397.051422
9618,P,-691.981445
9619,P,-691.981445
9620,P,-401.556213
9621,P,-401.556213
9622,P,-698.959656
9623,P,-698.959656
9624,P,-123.502754
9625,P,-123.502754
9626,P,-66.1851273
9627,P,-66.1851273
9628,P,-126.71312
9629,P,-126.71312
9630,P,-63.1987534
9631,P,-63.1987534
9632,P,-88.8310699
9633,P,-88.8310699
9634,P,-236.790344
9635,P,-236.790344
9636,P,-100.619019
9637,P,-100.619019
9638,P,-241.229309
9639,P,-241.229309
9640,P,-161.338715
9641,P,-161.338715
9642,P,-8.44149208
9643,P,-8.44149208
9644,P,-49.4901695
9645,P,-49.4901695
9646,P,15.1621923
9647,P,15.1621923
9648,P,6.93908978
9649,P,6.93908978
9650,P,-41.8672485
9651,P,-41.8672485
9652,P,8.01871681
9653,P,8.01871681
9654,P,-146.338943
9655,P,-146.338943
9656,P,-136.460281
9657,P,-136.460281
9658,P,-984.018677
9659,P,-984.018677
9660,P,-200.889618
9661,P,-200.889618
9662,P,-809.313904
9663,P,-809.313904
9664,P,76.2247696
9665,P,76.2247696
9666,P,-22.4046268
9667,P,-22.4046268
9668,P,24.5515862
9669,P,24.5515862
9670,P,-33.1144295
9671,P,-33.1144295
9672,P,37.2622299
9673,P,37.2622299
9674,P,149.059296
9675,P,149.059296
9676,P,18.7443085
9677,P,18.7443085
9678,P,30.8100395
9679,P,30.8100395
9680,P,-37.1141701
9681,P,-37.1141701
9682,P,668.238098
9683,P,668.238098
9684,P,668.238098
9685,P,668.238098
9686,P,373.956665
9687,P,373.956665
9688,P,373.956665
9689,P,519.946228
9690,P,519.946228
9691,P,520.897339
9692,P,520.897339
9693,P,520.897339
9694,P,1094.16785
9695,P,1094.16785
9696,P,1094.16785
9697,P,1139.61438
9698,P,1139.61438
9699,P,1215.20886
9700,P,1215.20886
9701,P,1288.79749
9702,P,1288.79749
9703,P,1077.16003
9704,P,1077.16003
9705,P,506.839355
9706,P,506.839355
9707,P,1900.5575
9708,P,1900.5575
9709,P,979.278503
9710,P,979.278503
9711,P,-1085.00208
9712,P,-1085.00208
9713,P,1835.72803
9714,P,1835.72803
9715,P,1033.4281
9716,P,1033.4281
9717,P,-1088.80176
9718,P,-1088.80176
9719,P,2062.34009
9720,P,2062.34009
9721,P,1846.97449
9722,P,1846.97449
9723,P,1808.2655
9724,P,1808.2655
9725,P,2108.10815
9726,P,2108.10815
9727,P,754.680054
9728,P,754.680054
9729,P,1750.15625
9730,P,1750.15625
9731,P,1368.0697
9732,P,1368.0697
9733,P,1592.36499
9734,P,1592.36499
9735,P,1558.47388
9736,P,1558.47388
9737,P,1397.73401
9738,P,1397.73401
9739,P,906.341492
9740,P,906.341492
9741,P,1004.19928
9742,P,1004.19928
9743,P,1018.89972
9744,P,1018.89972
9745,P,1027.35535
9746,P,1027.35535
9747,P,1056.62109
9748,P,1056.62109
9749,P,1092.56482
9750,P,1092.56482
9751,P,2161.04712
9752,P,2161.04712
9753,P,1293.35413
9754,P,1293.35413
9755,P,-1083.75293
9756,P,-1083.75293
9757,P,-871.945374
9758,P,-871.945374
9759,P,2199.26611
9760,P,2199.26611
9761,P,1259.474
9762,P,1259.474
9763,P,-1085.4314
9764,P,-1085.4314
9765,P,-763.618103
9766,P,-763.618103
9767,P,2193.79468
9768,P,2193.79468
9769,P,1888.09778
9770,P,1888.09778
9771,P,2156.17749
9772,P,2156.17749
9773,P,1920.17224
9774,P,1920.17224
9775,P,-617.889771
9776,P,-617.889771
9777,P,1582.27673
9778,P,1582.27673
9779,P,1808.45801
9780,P,1808.45801
9781,P,1789.96289
9782,P,1789.96289
9783,P,1599.55334
9784,P,1599.55334
9785,P,1336.83765
9786,P,1336.83765
9787,P,1459.06897
9788,P,1459.06897
9789,P,1629.63074
9790,P,1629.63074
9791,P,1432.07336
9792,P,1432.07336
9793,P,1658.65686
9794,P,1658.65686
9795,P,1273.84058
9796,P,1273.84058
9797,P,1672.50427
9798,P,1672.50427
9799,P,1143.56226
9800,P,1143.56226
9801,P,1015.48901
9802,P,1015.48901
9803,P,915.65332
9804,P,915.65332
9805,P,929.665771
9806,P,929.665771
9807,P,1089.98975
9808,P,1089.98975
9809,P,999.555969
9810,P,999.555969
9811,P,-114.225021
9812,P,-114.225021
9813,P,-227.519684
9814,P,-227.519684
9815,P,-58.3643036
9816,P,-58.3643036
9817,P,313.448151
9818,P,313.448151
9819,P,165.618759
9820,P,165.618759
9821,P,171.336578
9822,P,171.336578
9823,P,335.940948
9824,P,335.940948
9825,P,306.02774
9826,P,306.02774
9827,P,-542.065735
9828,P,-542.065735
9829,P,584.925537
9830,P,584.925537
9831,P,226.427292
9832,P,226.427292
9833,P,222.68338
9834,P,222.68338
9835,P,317.645294
9836,P,317.645294
9837,P,379.542877
9838,P,379.542877
9839,P,162.681808
9840,P,162.681808
9841,P,159.844543
9842,P,159.844543
9843,P,358.310242
9844,P,358.310242
9845,P,-312.444061
9846,P,-312.444061
9847,P,-685.927368
9848,P,-685.927368
9849,P,-604.962463
9850,P,-604.962463
9851,P,-270.383362
9852,P,-270.383362
9853,P,-984.064331
9854,P,-984.064331
9855,P,-136.42569
9856,P,-136.42569
9857,P,-809.364929
9858,P,-809.364929
9859,P,-200.862152
9860,P,-200.862152
9861,P,-30.3979282
9862,P,-30.3979282
9863,P,-161.309143
9864,P,-161.309143
9865,P,-8.37847424
9866,P,-8.37847424
9867,P,-49.4102402
9868,P,-49.4102402
9869,P,15.2604303
9870,P,15.2604303
9871,P,7.00174665
9872,P,7.00174665
9873,P,-41.7798805
9874,P,-41.7798805
9875,P,8.11009884
9876,P,8.11009884
9877,P,-146.300858
9878,P,-146.300858
9879,P,149.145401
9880,P,149.145401
9881,P,18.8045044
9882,P,18.8045044
9883,P,-22.3040009
9884,P,-22.3040009
9885,P,24.6598854
9886,P,24.6598854
9887,P,30.8833771
9888,P,30.8833771
9889,P,-33.0191612
9890,P,-33.0191612
9891,P,37.3789024
9892,P,37.3789024
9893,P,-37.0660629
9894,P,-37.0660629
9895,P,323.548767
9896,P,323.548767
9897,P,-912.025818
9898,P,-912.025818
9899,P,-876.269958
9900,P,-876.269958
9901,P,585.539124
9902,P,585.539124
9903,P,216.051788
9904,P,216.051788
9905,P,212.856537
9906,P,212.856537
9907,P,323.202301
9908,P,323.202301
9909,P,397.666565
9910,P,397.666565
9911,P,-1011.26013
9912,P,-1011.26013
9913,P,-995.521301
9914,P,-995.521301
9915,P,402.501617
9916,P,402.501617
9917,P,86.983078
9918,P,86.983078
9919,P,60.8364487
9920,P,60.8364487
9921,P,54.0787773
9922,P,54.0787773
9923,P,91.5920181
9924,P,91.5920181
9925,P,213.414658
9926,P,213.414658
9927,P,-771.261658
9928,P,-771.261658
9929,P,-36.3236237
9930,P,-36.3236237
9931,P,-827.84198
9932,P,-827.84198
9933,P,115.866882
9934,P,115.866882
9935,P,70.1930313
9936,P,70.1930313
9937,P,83.6248016
9938,P,83.6248016
9939,P,99.3310471
9940,P,99.3310471
9941,P,1633.55725
9942,P,1633.55725
9943,P,1829.14441
9944,P,1829.14441
9945,P,1844.92896
9946,P,1844.92896
9947,P,1618.93481
9948,P,1618.93481
9949,P,1415.43079
9950,P,1415.43079
9951,P,2484.56323
9952,P,2484.56323
9953,P,1533.61169
9954,P,1533.61169
9955,P,-1070.85571
9956,P,-1070.85571
9957,P,2465.18164
9958,P,2465.18164
9959,P,1551.06274
9960,P,1551.06274
9961,P,-1070.37671
9962,P,-1070.37671
9963,P,2525.36304
9964,P,2525.36304
9965,P,2216.64233
9966,P,2216.64233
9967,P,2204.81543
9968,P,2204.81543
9969,P,2539.57471
9970,P,2539.57471
9971,P,1449.22375
9972,P,1449.22375
9973,P,1829.39282
9974,P,1829.39282
9975,P,1702.63062
9976,P,1702.63062
9977,P,1930.00281
9978,P,1930.00281
9979,P,1919.35022
9980,P,1919.35022
9981,P,1712.4469
9982,P,1712.4469
9983,P,1215.56958
9984,P,1215.56958
9985,P,1106.06567
9986,P,1106.06567
9987,P,995.41687
9988,P,995.41687
9989,P,1246.87476
9990,P,1246.87476
9991,P,1116.72095
9992,P,1116.72095
9993,P,1011.75732
9994,P,1011.75732
9995,P,2573.27002
9996,P,2573.27002
9997,P,1645.80481
9998,P,1645.80481
9999,P,-1066.66113
10000,P,-1066.66113
10001,P,-1051.03064
10002,P,-1051.03064
10003,P,2587.0354
10004,P,2587.0354
10005,P,1632.83899
10006,P,1632.83899
10007,P,-1067.34399
10008,P,-1067.34399
10009,P,-1046.23511
10010,P,-1046.23511
10011,P,2568.18506
10012,P,2568.18506
10013,P,2230.0376
10014,P,2230.0376
10015,P,2555.76782
10016,P,2555.76782
10017,P,2240.2832
10018,P,2240.2832
10019,P,1771.58142
10020,P,1771.58142
10021,P,1999.59546
10022,P,1999.59546
10023,P,1994.07935
10024,P,1994.07935
10025,P,1776.65173
10026,P,1776.65173
10027,P,1512.55347
10028,P,1512.55347
10029,P,1732.06641
10030,P,1732.06641
10031,P,1942.09961
10032,P,1942.09961
10033,P,1723.6626
10034,P,1723.6626
10035,P,1951.2489
10036,P,1951.2489
10037,P,1493.79138
10038,P,1493.79138
10039,P,1893.27307
10040,P,1893.27307
10041,P,1305.36743
10042,P,1305.36743
10043,P,1174.79968
10044,P,1174.79968
10045,P,1053.1095
10046,P,1053.1095
10047,P,1056.65491
10048,P,1056.65491
10049,P,1287.90808
10050,P,1287.90808
10051,P,1168.69434
10052,P,1168.69434
10053,P,1047.43701
10054,P,1047.43701
10055,P,1043.3064
10056,P,1043.3064
10057,P,335.340149
10058,P,335.340149
10059,P,-989.866577
10060,P,-989.866577
10061,P,-639.673279
10062,P,-639.673279
10063,P,401.81076
10064,P,401.81076
10065,P,48.8536835
10066,P,48.8536835
10067,P,7.74883032
10068,P,7.74883032
10069,P,16.5242424
10070,P,16.5242424
10071,P,35.3947601
10072,P,35.3947601
10073,P,41.5880356
10074,P,41.5880356
10075,P,54.3198662
10076,P,54.3198662
10077,P,598.141296
10078,P,598.141296
10079,P,41.788868
10080,P,41.788868
10081,P,51.7775345
10082,P,51.7775345
10083,P,31.5451279
10084,P,31.5451279
10085,P,20.5214539
10086,P,20.5214539
10087,P,0.428274572
10088,P,0.428274572
10089,P,-4.86651611
10090,P,-4.86651611
10091,P,26.166954
10092,P,26.166954
10093,P,33.9091606
10094,P,33.9091606
10095,P,64.8239594
10096,P,64.8239594
10097,P,65.6992493
10098,P,65.6992493
10099,P,31.027359
10100,P,31.027359
10101,P,-692.035339
10102,P,-692.035339
10103,P,-397.069397
10104,P,-397.069397
10105,P,-699.030945
10106,P,-699.030945
10107,P,-401.5784
10108,P,-401.5784
10109,P,-255.568329
10110,P,-255.568329
10111,P,-107.931694
10112,P,-107.931694
10113,P,-133.024811
10114,P,-133.024811
10115,P,-69.461731
10116,P,-69.461731
10117,P,-130.125992
10118,P,-130.125992
10119,P,-72.1622696
10120,P,-72.1622696
10121,P,-252.417328
10122,P,-252.417328
10123,P,-104.827942
10124,P,-104.827942
10125,P,-88.8383408
10126,P,-88.8383408
10127,P,-236.802643
10128,P,-236.802643
10129,P,-97.3545685
10130,P,-97.3545685
10131,P,-123.507683
10132,P,-123.507683
10133,P,-66.1952362
10134,P,-66.1952362
10135,P,-126.721443
10136,P,-126.721443
10137,P,-63.2049026
10138,P,-63.2049026
10139,P,-241.248947
10140,P,-241.248947
10141,P,-100.629845
10142,P,-100.629845
10143,P,6.86535263
10144,P,6.86535263
10145,P,54.1311531
10146,P,54.1311531
10147,P,15.7841291
10148,P,15.7841291
10149,P,8.70265388
10150,P,8.70265388
10151,P,11.9052782
10152,P,11.9052782
10153,P,61.9260406
10154,P,61.9260406
10155,P,59.5281601
10156,P,59.5281601
10157,P,11.9521132
10158,P,11.9521132
10159,P,9.95529079
10160,P,9.95529079
10161,P,-5.30448866
10162,P,-5.30448866
10163,P,-29.8733959
10164,P,-29.8733959
10165,P,-32.3996925
10166,P,-32.3996925
10167,P,-2.94361353
10168,P,-2.94361353
10169,P,25.0987015
10170,P,25.0987015
10171,P,27.6661148
10172,P,27.6661148
10173,P,2.61956573
10174,P,2.61956573
10175,P,-26.7717209
10176,P,-26.7717209
10177,P,-24.006382
10178,P,-24.006382
10179,P,0.0400140658
10180,P,0.0400140658
10181,P,1787.17444
10182,P,1787.17444
10183,P,2006.52722
10184,P,2006.52722
10185,P,2010.96973
10186,P,2010.96973
10187,P,1783.06055
10188,P,1783.06055
10189,P,1537.04468
10190,P,1537.04468
10191,P,2670.6687
10192,P,2670.6687
10193,P,1719.6908
10194,P,1719.6908
10195,P,-991.799133
10196,P,-991.799133
10197,P,2664.93799
10198,P,2664.93799
10199,P,1726.7887
10200,P,1726.7887
10201,P,-989.755371
10202,P,-989.755371
10203,P,2671.30957
10204,P,2671.30957
10205,P,2333.31274
10206,P,2333.31274
10207,P,2330.09863
10208,P,2330.09863
10209,P,2675.09253
10210,P,2675.09253
10211,P,1547.1167
10212,P,1547.1167
10213,P,1942.84277
10214,P,1942.84277
10215,P,1807.27502
10216,P,1807.27502
10217,P,2035.80249
10218,P,2035.80249
10219,P,2032.89001
10220,P,2032.89001
10221,P,1809.94421
10222,P,1809.94421
10223,P,1327.77747
10224,P,1327.77747
10225,P,1202.99084
10226,P,1202.99084
10227,P,1336.88525
10228,P,1336.88525
10229,P,1206.10071
10230,P,1206.10071
10231,P,1079.99438
10232,P,1079.99438
10233,P,1081.75281
10234,P,1081.75281
10235,P,2693.20337
10236,P,2693.20337
10237,P,1752.77185
10238,P,1752.77185
10239,P,-985.512634
10240,P,-985.512634
10241,P,-1085.75586
10242,P,-1085.75586
10243,P,2695.82642
10244,P,2695.82642
10245,P,1750.20142
10246,P,1750.20142
10247,P,-986.160583
10248,P,-986.160583
10249,P,-1085.14148
10250,P,-1085.14148
10251,P,2682.05127
10252,P,2682.05127
10253,P,2336.57959
10254,P,2336.57959
10255,P,2679.13428
10256,P,2679.13428
10257,P,2338.93091
10258,P,2338.93091
10259,P,-742.43634
10260,P,-742.43634
10261,P,1820.78455
10262,P,1820.78455
10263,P,2047.9541
10264,P,2047.9541
10265,P,2047.65906
10266,P,2047.65906
10267,P,1821.04187
10268,P,1821.04187
10269,P,1561.12854
10270,P,1561.12854
10271,P,1814.56238
10272,P,1814.56238
10273,P,2038.7196
10274,P,2038.7196
10275,P,1812.61865
10276,P,1812.61865
10277,P,2040.83496
10278,P,2040.83496
10279,P,1558.06628
10280,P,1558.06628
10281,P,1958.29431
10282,P,1958.29431
10283,P,1349.59851
10284,P,1349.59851
10285,P,1219.64673
10286,P,1219.64673
10287,P,1091.09937
10288,P,1091.09937
10289,P,1091.55042
10290,P,1091.55042
10291,P,1346.849
10292,P,1346.849
10293,P,1218.70496
10294,P,1218.70496
10295,P,5.95138693
10296,P,5.95138693
10297,P,40.5942535
10298,P,40.5942535
10299,P,7.58972454
10300,P,7.58972454
10301,P,-16.3165054
10302,P,-16.3165054
10303,P,-45.7865105
10304,P,-45.7865105
10305,P,-44.0778618
10306,P,-44.0778618
10307,P,-17.8438416
10308,P,-17.8438416
10309,P,-16.8895035
10310,P,-16.8895035
10311,P,34.6213226
10312,P,34.6213226
10313,P,634.771179
10314,P,634.771179
10315,P,-17.0899963
10316,P,-17.0899963
10317,P,-16.6849117
10318,P,-16.6849117
10319,P,-17.5430202
10320,P,-17.5430202
10321,P,-20.7198391
10322,P,-20.7198391
10323,P,-47.6498146
10324,P,-47.6498146
10325,P,-48.9037933
10326,P,-48.9037933
10327,P,-19.5831146
10328,P,-19.5831146
10329,P,-1.3267473
10330,P,-1.3267473
10331,P,33.1248894
10332,P,33.1248894
10333,P,33.6900826
10334,P,33.6900826
10335,P,-2.06652617
10336,P,-2.06652617
10337,P,-739.971558
10338,P,-739.971558
10339,P,-439.048737
10340,P,-439.048737
10341,P,-741.668762
10342,P,-741.668762
10343,P,-439.983368
10344,P,-439.983368
10345,P,-137.453201
10346,P,-137.453201
10347,P,-281.989502
10348,P,-281.989502
10349,P,-137.320038
10350,P,-137.320038
10351,P,-157.964828
10352,P,-157.964828
10353,P,-96.188736
10354,P,-96.188736
10355,P,-136.862488
10356,P,-136.862488
10357,P,-157.584732
10358,P,-157.584732
10359,P,-96.5383148
10360,P,-96.5383148
10361,P,-281.767548
10362,P,-281.767548
10363,P,-133.681839
10364,P,-133.681839
10365,P,-279.139832
10366,P,-279.139832
10367,P,-156.415894
10368,P,-156.415894
10369,P,-95.6328659
10370,P,-95.6328659
10371,P,-136.19104
10372,P,-136.19104
10373,P,-157.009476
10374,P,-157.009476
10375,P,-95.0841446
10376,P,-95.0841446
10377,P,-280.112793
10378,P,-280.112793
10379,P,-19.7724533
10380,P,-19.7724533
10381,P,30.4214363
10382,P,30.4214363
10383,P,30.7181492
10384,P,30.7181492
10385,P,638.586121
10386,P,638.586121
10387,P,-18.292345
10388,P,-18.292345
10389,P,-19.207943
10390,P,-19.207943
10391,P,-19.1084404
10392,P,-19.1084404
10393,P,-5.81129026
10394,P,-5.81129026
10395,P,29.4740448
10396,P,29.4740448
10397,P,29.4705849
10398,P,29.4705849
10399,P,-5.88495541
10400,P,-5.88495541
10401,P,-26.7465916
10402,P,-26.7465916
10403,P,-55.0585289
10404,P,-55.0585289
10405,P,-55.3867493
10406,P,-55.3867493
10407,P,-26.4572315
10408,P,-26.4572315
10409,P,-3.72012615
10410,P,-3.72012615
10411,P,31.9486942
10412,P,31.9486942
10413,P,-3.16312385
10414,P,-3.16312385
10415,P,31.4232349
10416,P,31.4232349
10417,P,-25.4941444
10418,P,-25.4941444
10419,P,-54.5247841
10420,P,-54.5247841
10421,P,-54.0302582
10422,P,-54.0302582
10423,P,-25.944931
10424,P,-25.944931
10425,P,1820.76001
10426,P,1820.76001
10427,P,2047.94434
10428,P,2047.94434
10429,P,2047.63342
10430,P,2047.63342
10431,P,1821.03271
10432,P,1821.03271
10433,P,1561.07898
10434,P,1561.07898
10435,P,2693.11011
10436,P,2693.11011
10437,P,1752.69714
10438,P,1752.69714
10439,P,-985.524963
10440,P,-985.524963
10441,P,2695.74854
10442,P,2695.74854
10443,P,1750.1145
10444,P,1750.1145
10445,P,-986.174194
10446,P,-986.174194
10447,P,2681.93848
10448,P,2681.93848
10449,P,2336.45312
10450,P,2336.45312
10451,P,2338.81958
10452,P,2338.81958
10453,P,2679.00488
10454,P,2679.00488
10455,P,1557.96497
10456,P,1557.96497
10457,P,1958.20752
10458,P,1958.20752
10459,P,1814.4502
10460,P,1814.4502
10461,P,2038.59412
10462,P,2038.59412
10463,P,2040.724
10464,P,2040.724
10465,P,1812.4917
10466,P,1812.4917
10467,P,1349.55286
10468,P,1349.55286
10469,P,1219.58643
10470,P,1219.58643
10471,P,1091.04138
10472,P,1091.04138
10473,P,1346.75134
10474,P,1346.75134
10475,P,1218.62598
10476,P,1218.62598
10477,P,1089.37292
10478,P,1089.37292
10479,P,2670.4834
10480,P,2670.4834
10481,P,1719.52539
10482,P,1719.52539
10483,P,-991.826355
10484,P,-991.826355
10485,P,-1075.18994
10486,P,-1075.18994
10487,P,2664.74316
10488,P,2664.74316
10489,P,1726.63147
10490,P,1726.63147
10491,P,-989.782715
10492,P,-989.782715
10493,P,-1076.66504
10494,P,-1076.66504
10495,P,2671.14453
10496,P,2671.14453
10497,P,2333.16602
10498,P,2333.16602
10499,P,2674.94336
10500,P,2674.94336
10501,P,2329.93701
10502,P,2329.93701
10503,P,1786.91309
10504,P,1786.91309
10505,P,2006.25781
10506,P,2006.25781
10507,P,2010.71387
10508,P,2010.71387
10509,P,1782.79163
10510,P,1782.79163
10511,P,1536.79077
10512,P,1536.79077
10513,P,1807.11377
10514,P,1807.11377
10515,P,2035.65698
10516,P,2035.65698
10517,P,1809.79773
10518,P,1809.79773
10519,P,2032.72986
10520,P,2032.72986
10521,P,1546.91736
10522,P,1546.91736
10523,P,1942.62585
10524,P,1942.62585
10525,P,1327.52271
10526,P,1327.52271
10527,P,1202.74963
10528,P,1202.74963
10529,P,1076.51184
10530,P,1076.51184
10531,P,1074.10608
10532,P,1074.10608
10533,P,1336.6886
10534,P,1336.6886
10535,P,1205.8866
10536,P,1205.8866
10537,P,1079.77649
10538,P,1079.77649
10539,P,1081.55396
10540,P,1081.55396
10541,P,-5.80407524
10542,P,-5.80407524
10543,P,29.4796238
10544,P,29.4796238
10545,P,29.4796181
10546,P,29.4796181
10547,P,-5.88150883
10548,P,-5.88150883
10549,P,-26.7365952
10550,P,-26.7365952
10551,P,-55.0457382
10552,P,-55.0457382
10553,P,-55.3781776
10554,P,-55.3781776
10555,P,-26.4426327
10556,P,-26.4426327
10557,P,-19.7358971
10558,P,-19.7358971
10559,P,30.4482765
10560,P,30.4482765
10561,P,638.491272
10562,P,638.491272
10563,P,-18.2482319
10564,P,-18.2482319
10565,P,-19.1684666
10566,P,-19.1684666
10567,P,-19.0679131
10568,P,-19.0679131
10569,P,-25.4703217
10570,P,-25.4703217
10571,P,-54.5070763
10572,P,-54.5070763
10573,P,-54.0092392
10574,P,-54.0092392
10575,P,-25.9245872
10576,P,-25.9245872
10577,P,-3.68936062
10578,P,-3.68936062
10579,P,31.9864349
10580,P,31.9864349
10581,P,31.4574013
10582,P,31.4574013
10583,P,-3.12899733
10584,P,-3.12899733
10585,P,-734.902588
10586,P,-734.902588
10587,P,-435.526398
10588,P,-435.526398
10589,P,-733.041992
10590,P,-733.041992
10591,P,-433.812042
10592,P,-433.812042
10593,P,-264.430878
10594,P,-264.430878
10595,P,-123.058067
10596,P,-123.058067
10597,P,-145.569748
10598,P,-145.569748
10599,P,-86.3599396
10600,P,-86.3599396
10601,P,-147.440826
10602,P,-147.440826
10603,P,-84.4426575
10604,P,-84.4426575
10605,P,-267.459015
10606,P,-267.459015
10607,P,-125.628204
10608,P,-125.628204
10609,P,-132.006897
10610,P,-132.006897
10611,P,-275.652344
10612,P,-275.652344
10613,P,-129.540619
10614,P,-129.540619
10615,P,-150.753189
10616,P,-150.753189
10617,P,-88.3420105
10618,P,-88.3420105
10619,P,-149.455994
10620,P,-149.455994
10621,P,-89.652359
10622,P,-89.652359
10623,P,-273.908508
10624,P,-273.908508
10625,P,-128.069794
10626,P,-128.069794
10627,P,-16.8351212
10628,P,-16.8351212
10629,P,35.6236153
10630,P,35.6236153
10631,P,-17.036644
10632,P,-17.036644
10633,P,-16.6284599
10634,P,-16.6284599
10635,P,-17.4925594
10636,P,-17.4925594
10637,P,33.1651115
10638,P,33.1651115
10639,P,33.7340622
10640,P,33.7340622
10641,P,5.99974823
10642,P,5.99974823
10643,P,7.63717794
10644,P,7.63717794
10645,P,-16.2722416
10646,P,-16.2722416
10647,P,-45.7509155
10648,P,-45.7509155
10649,P,-44.0376015
10650,P,-44.0376015
10651,P,-17.8026085
10652,P,-17.8026085
10653,P,-1.28766406
10654,P,-1.28766406
10655,P,-2.03041816
10656,P,-2.03041816
10657,P,-20.6826267
10658,P,-20.6826267
10659,P,-47.614666
10660,P,-47.614666
10661,P,-48.8704643
10662,P,-48.8704643
10663,P,-19.5434341
10664,P,-19.5434341
10665,P,1771.25989
10666,P,1771.25989
10667,P,1999.29431
10668,P,1999.29431
10669,P,1993.78125
10670,P,1993.78125
10671,P,1776.36096
10672,P,1776.36096
10673,P,1512.17419
10674,P,1512.17419
10675,P,2572.90381
10676,P,2572.90381
10677,P,1645.47852
10678,P,1645.47852
10679,P,-1066.71216
10680,P,-1066.71216
10681,P,2586.63647
10682,P,2586.63647
10683,P,1632.52319
10684,P,1632.52319
10685,P,-1067.38818
10686,P,-1067.38818
10687,P,2567.77686
10688,P,2567.77686
10689,P,2229.61572
10690,P,2229.61572
10691,P,2239.88281
10692,P,2239.88281
10693,P,2555.354
10694,P,2555.354
10695,P,1493.34827
10696,P,1493.34827
10697,P,1892.83398
10698,P,1892.83398
10699,P,1731.64685
10700,P,1731.64685
10701,P,1941.66199
10702,P,1941.66199
10703,P,1950.85144
10704,P,1950.85144
10705,P,1723.22424
10706,P,1723.22424
10707,P,1304.98816
10708,P,1304.98816
10709,P,1174.39612
10710,P,1174.39612
10711,P,1287.45691
10712,P,1287.45691
10713,P,1168.26086
10714,P,1168.26086
10715,P,1046.99561
10716,P,1046.99561
10717,P,1042.83911
10718,P,1042.83911
10719,P,2484.10767
10720,P,2484.10767
10721,P,1533.21106
10722,P,1533.21106
10723,P,-1070.90662
10724,P,-1070.90662
10725,P,-1003.27521
10726,P,-1003.27521
10727,P,2464.69653
10728,P,2464.69653
10729,P,1550.69373
10730,P,1550.69373
10731,P,-1070.42725
10732,P,-1070.42725
10733,P,-1011.95514
10734,P,-1011.95514
10735,P,2524.91626
10736,P,2524.91626
10737,P,2216.20312
10738,P,2216.20312
10739,P,2539.13965
10740,P,2539.13965
10741,P,2204.36377
10742,P,2204.36377
10743,P,-651.524048
10744,P,-651.524048
10745,P,1632.99731
10746,P,1632.99731
10747,P,1828.59265
10748,P,1828.59265
10749,P,1844.4126
10750,P,1844.4126
10751,P,1618.35791
10752,P,1618.35791
10753,P,1414.79199
10754,P,1414.79199
10755,P,1702.15527
10756,P,1702.15527
10757,P,1929.55811
10758,P,1929.55811
10759,P,1711.99561
10760,P,1711.99561
10761,P,1918.88782
10762,P,1918.88782
10763,P,1448.65637
10764,P,1448.65637
10765,P,1828.81177
10766,P,1828.81177
10767,P,1214.89844
10768,P,1214.89844
10769,P,1105.39465
10770,P,1105.39465
10771,P,994.709473
10772,P,994.709473
10773,P,987.005188
10774,P,987.005188
10775,P,1246.28845
10776,P,1246.28845
10777,P,1116.08398
10778,P,1116.08398
10779,P,11.9931536
10780,P,11.9931536
10781,P,46.4966393
10782,P,46.4966393
10783,P,9.99830818
10784,P,9.99830818
10785,P,-5.2777462
10786,P,-5.2777462
10787,P,-29.8552551
10788,P,-29.8552551
10789,P,-32.3777466
10790,P,-32.3777466
10791,P,-2.92109227
10792,P,-2.92109227
10793,P,6.89851284
10794,P,6.89851284
10795,P,56.6173325
10796,P,56.6173325
10797,P,613.393127
10798,P,613.393127
10799,P,15.8093576
10800,P,15.8093576
10801,P,8.73417187
10802,P,8.73417187
10803,P,11.9313269
10804,P,11.9313269
10805,P,2.63015914
10806,P,2.63015914
10807,P,-26.7589722
10808,P,-26.7589722
10809,P,-23.9987888
10810,P,-23.9987888
10811,P,0.0573987253
10812,P,0.0573987253
10813,P,25.1094284
10814,P,25.1094284
10815,P,61.9384232
10816,P,61.9384232
10817,P,59.5466232
10818,P,59.5466232
10819,P,27.6707325
10820,P,27.6707325
10821,P,-669.081726
10822,P,-669.081726
10823,P,-381.607361
10824,P,-381.607361
10825,P,-660.558899
10826,P,-660.558899
10827,P,-375.831787
10828,P,-375.831787
10829,P,-39.9924622
10830,P,-39.9924622
10831,P,-190.026199
10832,P,-190.026199
10833,P,-55.2292747
10834,P,-55.2292747
10835,P,-85.092308
10836,P,-85.092308
10837,P,-31.7717323
10838,P,-31.7717323
10839,P,-61.1560783
10840,P,-61.1560783
10841,P,-91.1321487
10842,P,-91.1321487
10843,P,-25.3056831
10844,P,-25.3056831
10845,P,-197.537827
10846,P,-197.537827
10847,P,-83.3228607
10848,P,-83.3228607
10849,P,-222.143158
10850,P,-222.143158
10851,P,-102.277451
10852,P,-102.277451
10853,P,-38.0485954
10854,P,-38.0485954
10855,P,-68.1520615
10856,P,-68.1520615
10857,P,-97.1773911
10858,P,-97.1773911
10859,P,-43.0795479
10860,P,-43.0795479
10861,P,-216.504623
10862,P,-216.504623
10863,P,41.5816422
10864,P,41.5816422
10865,P,54.3018875
10866,P,54.3018875
10867,P,64.0572357
10868,P,64.0572357
10869,P,597.388977
10870,P,597.388977
10871,P,41.7892036
10872,P,41.7892036
10873,P,51.7681427
10874,P,51.7681427
10875,P,31.5481434
10876,P,31.5481434
10877,P,335.212372
10878,P,335.212372
10879,P,-989.858337
10880,P,-989.858337
10881,P,-639.696655
10882,P,-639.696655
10883,P,401.710205
10884,P,401.710205
10885,P,48.8024559
10886,P,48.8024559
10887,P,7.71206093
10888,P,7.71206093
10889,P,16.4808884
10890,P,16.4808884
10891,P,35.3553886
10892,P,35.3553886
10893,P,33.8993187
10894,P,33.8993187
10895,P,64.8290176
10896,P,64.8290176
10897,P,31.023283
10898,P,31.023283
10899,P,65.6987305
10900,P,65.6987305
10901,P,20.4976501
10902,P,20.4976501
10903,P,0.400607556
10904,P,0.400607556
10905,P,-4.88893127
10906,P,-4.88893127
10907,P,26.1387405
10908,P,26.1387405
10909,P,1581.67407
10910,P,1581.67407
10911,P,1807.90149
10912,P,1807.90149
10913,P,1789.41357
10914,P,1789.41357
10915,P,1598.96326
10916,P,1598.96326
10917,P,1336.08337
10918,P,1336.08337
10919,P,2160.56787
10920,P,2160.56787
10921,P,1292.92542
10922,P,1292.92542
10923,P,-1083.8158
10924,P,-1083.8158
10925,P,2198.71973
10926,P,2198.71973
10927,P,1259.09204
10928,P,1259.09204
10929,P,-1085.48657
10930,P,-1085.48657
10931,P,2193.26074
10932,P,2193.26074
10933,P,1887.59021
10934,P,1887.59021
10935,P,1919.62537
10936,P,1919.62537
10937,P,2155.67798
10938,P,2155.67798
10939,P,1273.04602
10940,P,1273.04602
10941,P,1671.74939
10942,P,1671.74939
10943,P,1458.45215
10944,P,1458.45215
10945,P,1629.06543
10946,P,1629.06543
10947,P,1658.09656
10948,P,1658.09656
10949,P,1431.45691
10950,P,1431.45691
10951,P,1142.755
10952,P,1142.755
10953,P,1014.57166
10954,P,1014.57166
10955,P,914.619446
10956,P,914.619446
10957,P,1089.11292
10958,P,1089.11292
10959,P,998.601929
10960,P,998.601929
10961,P,885.542542
10962,P,885.542542
10963,P,1900.10522
10964,P,1900.10522
10965,P,978.94751
10966,P,978.94751
10967,P,-1085.03723
10968,P,-1085.03723
10969,P,-651.795349
10970,P,-651.795349
10971,P,1835.3219
10972,P,1835.3219
10973,P,1033.07837
10974,P,1033.07837
10975,P,-1088.84253
10976,P,-1088.84253
10977,P,-655.276794
10978,P,-655.276794
10979,P,2061.84448
10980,P,2061.84448
10981,P,1846.474
10982,P,1846.474
10983,P,2107.62134
10984,P,2107.62134
10985,P,1807.77905
10986,P,1807.77905
10987,P,1139.22888
10988,P,1139.22888
10989,P,1214.91296
10990,P,1214.91296
10991,P,1288.45459
10992,P,1288.45459
10993,P,1076.8313
10994,P,1076.8313
10995,P,506.394745
10996,P,506.394745
10997,P,1367.48889
10998,P,1367.48889
10999,P,1591.82922
11000,P,1591.82922
11001,P,1397.14197
11002,P,1397.14197
11003,P,1557.94397
11004,P,1557.94397
11005,P,754.068298
11006,P,754.068298
11007,P,1749.47095
11008,P,1749.47095
11009,P,905.577332
11010,P,905.577332
11011,P,1003.14001
11012,P,1003.14001
11013,P,1032.16003
11014,P,1032.16003
11015,P,1019.24548
11016,P,1019.24548
11017,P,1017.97614
11018,P,1017.97614
11019,P,1026.25781
11020,P,1026.25781
11021,P,1055.078
11022,P,1055.078
11023,P,1091.00574
11024,P,1091.00574
11025,P,397.511841
11026,P,397.511841
11027,P,-1011.30524
11028,P,-1011.30524
11029,P,-995.556213
11030,P,-995.556213
11031,P,402.39978
11032,P,402.39978
11033,P,86.8674011
11034,P,86.8674011
11035,P,60.7246895
11036,P,60.7246895
11037,P,53.9748535
11038,P,53.9748535
11039,P,91.4723434
11040,P,91.4723434
11041,P,323.210693
11042,P,323.210693
11043,P,-912.134644
11044,P,-912.134644
11045,P,583.613586
11046,P,583.613586
11047,P,215.627029
11048,P,215.627029
11049,P,212.479095
11050,P,212.479095
11051,P,322.815033
11052,P,322.815033
11053,P,115.712448
11054,P,115.712448
11055,P,70.0685654
11056,P,70.0685654
11057,P,83.4898529
11058,P,83.4898529
11059,P,99.1916656
11060,P,99.1916656
11061,P,213.18222
11062,P,213.18222
11063,P,-771.401306
11064,P,-771.401306
11065,P,-827.959717
11066,P,-827.959717
11067,P,-36.5254631
11068,P,-36.5254631
11069,P,-887.614807
11070,P,-887.614807
11071,P,-75.0520859
11072,P,-75.0520859
11073,P,-832.481445
11074,P,-832.481445
11075,P,-65.7501755
11076,P,-65.7501755
11077,P,240.969696
11078,P,240.969696
11079,P,-15.433075
11080,P,-15.433075
11081,P,96.8399353
11082,P,96.8399353
11083,P,126.751724
11084,P,126.751724
11085,P,61.8744392
11086,P,61.8744392
11087,P,149.272522
11088,P,149.272522
11089,P,212.86879
11090,P,212.86879
11091,P,127.435287
11092,P,127.435287
11093,P,161.546677
11094,P,161.546677
11095,P,79.3421173
11096,P,79.3421173
11097,P,171.079758
11098,P,171.079758
11099,P,30.863903
11100,P,30.863903
11101,P,112.527664
11102,P,112.527664
11103,P,42.9611435
11104,P,42.9611435
11105,P,102.005745
11106,P,102.005745
11107,P,87.7116547
11108,P,87.7116547
11109,P,165.548553
11110,P,165.548553
11111,P,305.620331
11112,P,305.620331
11113,P,-476.660309
11114,P,-476.660309
11115,P,226.009567
11116,P,226.009567
11117,P,222.361649
11118,P,222.361649
11119,P,317.224579
11120,P,317.224579
11121,P,-686.092712
11122,P,-686.092712
11123,P,-605.136047
11124,P,-605.136047
11125,P,-114.423828
11126,P,-114.423828
11127,P,-58.5497932
11128,P,-58.5497932
11129,P,313.212769
11130,P,313.212769
11131,P,165.428299
11132,P,165.428299
11133,P,171.140182
11134,P,171.140182
11135,P,335.702484
11136,P,335.702484
11137,P,-312.622162
11138,P,-312.622162
11139,P,-270.567719
11140,P,-270.567719
11141,P,379.313049
11142,P,379.313049
11143,P,162.4935
11144,P,162.4935
11145,P,159.664642
11146,P,159.664642
11147,P,358.063629
11148,P,358.063629
11149,P,550.035889
11150,P,550.035889
11151,P,326.300537
11152,P,326.300537
11153,P,341.217896
11154,P,341.217896
11155,P,341.713989
11156,P,341.713989
11157,P,343.560211
11158,P,343.560211
11159,P,343.635193
11160,P,343.635193
11161,P,339.176971
11162,P,339.176971
11163,P,549.533875
11164,P,549.533875
11165,P,-966.068787
11166,P,-966.068787
11167,P,-580.898499
11168,P,-580.898499
11169,P,1283.28687
11170,P,1283.28687
11171,P,1083.01392
11172,P,1083.01392
11173,P,-508.466309
11174,P,-508.466309
11175,P,417.973999
11176,P,417.973999
11177,P,-852.210876
11178,P,-852.210876
11179,P,1129.74707
11180,P,1129.74707
11181,P,325.682556
11182,P,325.682556
11183,P,340.104828
11184,P,340.104828
11185,P,343.57431
11186,P,343.57431
11187,P,343.656555
11188,P,343.656555
11189,P,341.421539
11190,P,341.421539
11191,P,325.292816
11192,P,325.292816
11193,P,325.894562
11194,P,325.894562
11195,P,496.310272
11196,P,496.310272
11197,P,549.263794
11198,P,549.263794
11199,P,-966.072693
11200,P,-966.072693
11201,P,1282.96899
11202,P,1282.96899
11203,P,1082.68103
11204,P,1082.68103
11205,P,417.684082
11206,P,417.684082
11207,P,-852.221375
11208,P,-852.221375
11209,P,1124.20166
11210,P,1124.20166
11211,P,331.542084
11212,P,331.542084
11213,P,332.437988
11214,P,332.437988
11215,P,344.035797
11216,P,344.035797
11217,P,344.048798
11218,P,344.048798
11219,P,344.177124
11220,P,344.177124
11221,P,344.109497
11222,P,344.109497
11223,P,334.35611
11224,P,334.35611
11225,P,196.090851
11226,P,196.090851
11227,P,-60.786335
11228,P,-60.786335
11229,P,163.796097
11230,P,163.796097
11231,P,22.7366676
11232,P,22.7366676
11233,P,174.000076
11234,P,174.000076
11235,P,218.73761
11236,P,218.73761
11237,P,686.138916
11238,P,686.138916
11239,P,806.920349
11240,P,806.920349
11241,P,627.662415
11242,P,627.662415
11243,P,627.662415
11244,P,637.942261
11245,P,637.942261
11246,P,196.381561
11247,P,196.381561
11248,P,164.056702
11249,P,164.056702
11250,P,23.068409
11251,P,23.068409
11252,P,174.337952
11253,P,174.337952
11254,P,909.459595
11255,P,909.459595
11256,P,219.156036
11257,P,219.156036
11258,P,195.055359
11259,P,195.055359
11260,P,231.642242
11261,P,231.642242
11262,P,193.932648
11263,P,193.932648
11264,P,229.38533
11265,P,229.38533
11266,P,326.647461
11267,P,326.647461
11268,P,344.29657
11269,P,344.29657
11270,P,343.895264
11271,P,343.895264
11272,P,331.779449
11273,P,331.779449
11274,P,330.910919
11275,P,330.910919
11276,P,328.238556
11277,P,328.238556
11278,P,331.889923
11279,P,331.889923
11280,P,686.056641
11281,P,686.056641
11282,P,806.179688
11283,P,806.179688
11284,P,1167.40576
11285,P,1167.40576
11286,P,626.221619
11287,P,626.221619
11288,P,626.221619
11289,P,637.698181
11290,P,637.698181
11291,P,1103.73438
11292,P,1103.73438
11293,P,1103.73438
11294,P,194.794479
11295,P,194.794479
11296,P,231.445236
11297,P,231.445236
11298,P,193.769073
11299,P,193.769073
11300,P,229.044968
11301,P,229.044968
11302,P,-20.841053
11303,P,-20.841053
11304,P,486.164307
11305,P,486.164307
11306,P,494.81839
11307,P,494.81839
11308,P,-53.4586716
11309,P,-53.4586716
11310,P,-71.4759216
11311,P,-71.4759216
11312,P,119.119164
11313,P,119.119164
11314,P,247.285858
11315,P,247.285858
11316,P,247.285858
11317,P,225.78978
11318,P,225.78978
11319,P,241.381592
11320,P,241.381592
11321,P,63.4164658
11322,P,63.4164658
11323,P,277.629181
11324,P,277.629181
11325,P,277.629181
11326,P,249.089325
11327,P,249.089325
11328,P,-35.3384323
11329,P,-35.3384323
11330,P,388.726379
11331,P,388.726379
11332,P,302.683228
11333,P,302.683228
11334,P,310.74939
11335,P,310.74939
11336,P,328.257904
11337,P,328.257904
11338,P,327.570587
11339,P,327.570587
11340,P,324.305695
11341,P,324.305695
11342,P,-527.614014
11343,P,-527.614014
11344,P,221.587006
11345,P,221.587006
11346,P,133.909637
11347,P,133.909637
11348,P,133.909637
11349,P,112.123726
11350,P,112.123726
11351,P,113.184891
11352,P,113.184891
11353,P,222.108337
11354,P,222.108337
11355,P,134.049835
11356,P,134.049835
11357,P,134.049835
11358,P,114.061043
11359,P,114.061043
11360,P,-488.965485
11361,P,-488.965485
11362,P,116.99025
11363,P,116.99025
11364,P,114.748741
11365,P,114.748741
11366,P,-13.6490946
11367,P,-13.6490946
11368,P,342.502167
11369,P,342.502167
11370,P,-13.8855028
11371,P,-13.8855028
11372,P,209.188568
11373,P,209.188568
11374,P,231.63765
11375,P,231.63765
11376,P,136.309006
11377,P,136.309006
11378,P,136.309006
11379,P,231.966934
11380,P,231.966934
11381,P,136.251648
11382,P,136.251648
11383,P,136.251648
11384,P,104.285492
11385,P,104.285492
11386,P,105.337532
11387,P,105.337532
11388,P,207.131821
11389,P,207.131821
11390,P,-45.7533226
11391,P,-45.7533226
11392,P,343.863037
11393,P,343.863037
11394,P,-45.3989639
11395,P,-45.3989639
11396,P,-64.5745544
11397,P,-64.5745544
11398,P,230.662598
11399,P,230.662598
11400,P,132.244141
11401,P,132.244141
11402,P,132.244141
11403,P,97.399147
11404,P,97.399147
11405,P,230.924713
11406,P,230.924713
11407,P,131.725433
11408,P,131.725433
11409,P,131.725433
11410,P,96.9671936
11411,P,96.9671936
11412,P,-61.6993217
11413,P,-61.6993217
11414,P,95.2925644
11415,P,95.2925644
11416,P,96.0371475
11417,P,96.0371475
11418,P,-11.839695
11419,P,-11.839695
11420,P,-10.9372292
11421,P,-10.9372292
11422,P,192.192276
11423,P,192.192276
11424,P,228.507233
11425,P,228.507233
11426,P,134.46875
11427,P,134.46875
11428,P,134.46875
11429,P,105.504143
11430,P,105.504143
11431,P,106.285561
11432,P,106.285561
11433,P,227.9021
11434,P,227.9021
11435,P,134.680115
11436,P,134.680115
11437,P,134.680115
11438,P,105.093964
11439,P,105.093964
11440,P,105.96386
11441,P,105.96386
11442,P,198.197327
11443,P,198.197327
11444,P,104.302574
11445,P,104.302574
11446,P,104.631981
11447,P,104.631981
11448,P,105.493385
11449,P,105.493385
11450,P,262.86969
11451,P,262.86969
11452,P,258.970978
11453,P,258.970978
11454,P,-344.856415
11455,P,-344.856415
11456,P,220.779724
11457,P,220.779724
11458,P,139.025375
11459,P,139.025375
11460,P,139.025375
11461,P,126.0653
11462,P,126.0653
11463,P,221.701141
11464,P,221.701141
11465,P,137.128082
11466,P,137.128082
11467,P,137.128082
11468,P,124.46405
11469,P,124.46405
11470,P,-371.612244
11471,P,-371.612244
11472,P,117.340141
11473,P,117.340141
11474,P,34.9320297
11475,P,34.9320297
11476,P,-207.592056
11477,P,-207.592056
11478,P,-207.592056
11479,P,73.2031937
11480,P,73.2031937
11481,P,639.068726
11482,P,639.068726
11483,P,639.068726
11484,P,522.136353
11485,P,522.136353
11486,P,1297.64978
11487,P,1297.64978
11488,P,1452.04089
11489,P,1452.04089
11490,P,1273.33862
11491,P,1273.33862
11492,P,1169.93701
11493,P,1169.93701
11494,P,816.044128
11495,P,816.044128
11496,P,-393.75528
11497,P,-393.75528
11498,P,289.291504
11499,P,289.291504
11500,P,-648.152588
11501,P,-648.152588
11502,P,-207.137436
11503,P,-207.137436
11504,P,-207.137436
11505,P,-280.530426
11506,P,-280.530426
11507,P,35.2503204
11508,P,35.2503204
11509,P,73.6873322
11510,P,73.6873322
11511,P,197.905945
11512,P,197.905945
11513,P,215.594177
11514,P,215.594177
11515,P,236.185822
11516,P,236.185822
11517,P,1536.07629
11518,P,1536.07629
11519,P,1536.07629
11520,P,215.081375
11521,P,215.081375
11522,P,328.285797
11523,P,328.285797
11524,P,327.017609
11525,P,327.017609
11526,P,263.074951
11527,P,263.074951
11528,P,259.259003
11529,P,259.259003
11530,P,-344.726532
11531,P,-344.726532
11532,P,222.161118
11533,P,222.161118
11534,P,140.422714
11535,P,140.422714
11536,P,140.422714
11537,P,127.180595
11538,P,127.180595
11539,P,223.27652
11540,P,223.27652
11541,P,138.354584
11542,P,138.354584
11543,P,138.354584
11544,P,123.416344
11545,P,123.416344
11546,P,125.388664
11547,P,125.388664
11548,P,-371.537872
11549,P,-371.537872
11550,P,118.068146
11551,P,118.068146
11552,P,121.439857
11553,P,121.439857
11554,P,338.765808
11555,P,338.765808
11556,P,-11.8822517
11557,P,-11.8822517
11558,P,-10.9762077
11559,P,-10.9762077
11560,P,192.144211
11561,P,192.144211
11562,P,228.917877
11563,P,228.917877
11564,P,134.864548
11565,P,134.864548
11566,P,134.864548
11567,P,228.346802
11568,P,228.346802
11569,P,135.04483
11570,P,135.04483
11571,P,135.04483
11572,P,105.353287
11573,P,105.353287
11574,P,106.237419
11575,P,106.237419
11576,P,198.145065
11577,P,198.145065
11578,P,105.735764
11579,P,105.735764
11580,P,343.914703
11581,P,343.914703
11582,P,-45.763916
11583,P,-45.763916
11584,P,-45.417511
11585,P,-45.417511
11586,P,-64.5967712
11587,P,-64.5967712
11588,P,230.695999
11589,P,230.695999
11590,P,132.276245
11591,P,132.276245
11592,P,132.276245
11593,P,96.9109955
11594,P,96.9109955
11595,P,97.405983
11596,P,97.405983
11597,P,230.968124
11598,P,230.968124
11599,P,131.74823
11600,P,131.74823
11601,P,131.74823
11602,P,96.9719543
11603,P,96.9719543
11604,P,-61.7120056
11605,P,-61.7120056
11606,P,95.8607025
11607,P,95.8607025
11608,P,96.0359726
11609,P,96.0359726
11610,P,-13.5962305
11611,P,-13.5962305
11612,P,-13.8292723
11613,P,-13.8292723
11614,P,209.236084
11615,P,209.236084
11616,P,231.387207
11617,P,231.387207
11618,P,136.104996
11619,P,136.104996
11620,P,136.104996
11621,P,104.138702
11622,P,104.138702
11623,P,105.021927
11624,P,105.021927
11625,P,231.739502
11626,P,231.739502
11627,P,136.024643
11628,P,136.024643
11629,P,136.024643
11630,P,104.090668
11631,P,104.090668
11632,P,105.152664
11633,P,105.152664
11634,P,207.18222
11635,P,207.18222
11636,P,104.359634
11637,P,104.359634
11638,P,104.199226
11639,P,104.199226
11640,P,310.657959
11641,P,310.657959
11642,P,324.25766
11643,P,324.25766
11644,P,-527.608765
11645,P,-527.608765
11646,P,220.744324
11647,P,220.744324
11648,P,133.205826
11649,P,133.205826
11650,P,133.205826
11651,P,221.318024
11652,P,221.318024
11653,P,133.295624
11654,P,133.295624
11655,P,133.295624
11656,P,113.024857
11657,P,113.024857
11658,P,113.476311
11659,P,113.476311
11660,P,-488.963745
11661,P,-488.963745
11662,P,484.516266
11663,P,484.516266
11664,P,10.253643
11665,P,10.253643
11666,P,-22.5434151
11667,P,-22.5434151
11668,P,-34.2957382
11669,P,-34.2957382
11670,P,106.331184
11671,P,106.331184
11672,P,240.487198
11673,P,240.487198
11674,P,240.487198
11675,P,225.426682
11676,P,225.426682
11677,P,54.8093529
11678,P,54.8093529
11679,P,269.079407
11680,P,269.079407
11681,P,269.079407
11682,P,252.357071
11683,P,252.357071
11684,P,-34.9469833
11685,P,-34.9469833
11686,P,1297.40845
11687,P,1297.40845
11688,P,1451.75623
11689,P,1451.75623
11690,P,1273.09302
11691,P,1273.09302
11692,P,1169.78137
11693,P,1169.78137
11694,P,815.734619
11695,P,815.734619
11696,P,288.98587
11697,P,288.98587
11698,P,-648.154663
11699,P,-648.154663
11700,P,196.836502
11701,P,196.836502
11702,P,214.844269
11703,P,214.844269
11704,P,235.657181
11705,P,235.657181
11706,P,110.766319
11707,P,110.766319
11708,P,110.766319
11709,P,214.8228
11710,P,214.8228
11711,P,471.148041
11712,P,471.148041
11713,P,-83.2452087
11714,P,-83.2452087
11715,P,-107.132088
11716,P,-107.132088
11717,P,-154.514587
11718,P,-154.514587
11719,P,113.222412
11720,P,113.222412
11721,P,225.826401
11722,P,225.826401
11723,P,225.826401
11724,P,48.3704758
11725,P,48.3704758
11726,P,207.005722
11727,P,207.005722
11728,P,207.005722
11729,P,186.890274
11730,P,186.890274
11731,P,200.942871
11732,P,200.942871
11733,P,-187.786621
11734,P,-187.786621
11735,P,150.10524
11736,P,150.10524
11737,P,329.597992
11738,P,329.597992
11739,P,330.563904
11740,P,330.563904
11741,P,349.293488
11742,P,349.293488
11743,P,344.768463
11744,P,344.768463
11745,P,-581.641785
11746,P,-581.641785
11747,P,223.382996
11748,P,223.382996
11749,P,133.858398
11750,P,133.858398
11751,P,133.858398
11752,P,112.166542
11753,P,112.166542
11754,P,222.763046
11755,P,222.763046
11756,P,133.870529
11757,P,133.870529
11758,P,133.870529
11759,P,110.541618
11760,P,110.541618
11761,P,111.569534
11762,P,111.569534
11763,P,-575.770081
11764,P,-575.770081
11765,P,109.709885
11766,P,109.709885
11767,P,110.324196
11768,P,110.324196
11769,P,-8.30012321
11770,P,-8.30012321
11771,P,-10.8124514
11772,P,-10.8124514
11773,P,219.708664
11774,P,219.708664
11775,P,232.369461
11776,P,232.369461
11777,P,136.314194
11778,P,136.314194
11779,P,136.314194
11780,P,104.324913
11781,P,104.324913
11782,P,105.163094
11783,P,105.163094
11784,P,232.280777
11785,P,232.280777
11786,P,136.140244
11787,P,136.140244
11788,P,136.140244
11789,P,104.832703
11790,P,104.832703
11791,P,226.566895
11792,P,226.566895
11793,P,101.812164
11794,P,101.812164
11795,P,103.095345
11796,P,103.095345
11797,P,103.694061
11798,P,103.694061
11799,P,343.893311
11800,P,343.893311
11801,P,344.055634
11802,P,344.055634
11803,P,-2.12058759
11804,P,-2.12058759
11805,P,-10.1407843
11806,P,-10.1407843
11807,P,177.418671
11808,P,177.418671
11809,P,231.501968
11810,P,231.501968
11811,P,132.851471
11812,P,132.851471
11813,P,132.851471
11814,P,97.3979874
11815,P,97.3979874
11816,P,98.8529968
11817,P,98.8529968
11818,P,231.192108
11819,P,231.192108
11820,P,133.527496
11821,P,133.527496
11822,P,133.527496
11823,P,99.4795532
11824,P,99.4795532
11825,P,266.852814
11826,P,266.852814
11827,P,101.363487
11828,P,101.363487
11829,P,99.7856369
11830,P,99.7856369
11831,P,49.8566284
11832,P,49.8566284
11833,P,8.85852909
11834,P,8.85852909
11835,P,122.582092
11836,P,122.582092
11837,P,226.443741
11838,P,226.443741
11839,P,134.218216
11840,P,134.218216
11841,P,134.218216
11842,P,227.133362
11843,P,227.133362
11844,P,134.036301
11845,P,134.036301
11846,P,134.036301
11847,P,106.476326
11848,P,106.476326
11849,P,107.112877
11850,P,107.112877
11851,P,15.3237152
11852,P,15.3237152
11853,P,326.897278
11854,P,326.897278
11855,P,325.943085
11856,P,325.943085
11857,P,215.89827
11858,P,215.89827
11859,P,237.024612
11860,P,237.024612
11861,P,-291.70105
11862,P,-291.70105
11863,P,224.513031
11864,P,224.513031
11865,P,141.506989
11866,P,141.506989
11867,P,141.506989
11868,P,128.631821
11869,P,128.631821
11870,P,222.85347
11871,P,222.85347
11872,P,144.977386
11873,P,144.977386
11874,P,144.977386
11875,P,129.675842
11876,P,129.675842
11877,P,-275.926147
11878,P,-275.926147
11879,P,142.969162
11880,P,142.969162
11881,P,131.167068
11882,P,131.167068
11883,P,134.717773
11884,P,134.717773
11885,P,165.974426
11886,P,165.974426
11887,P,102.456032
11888,P,102.456032
11889,P,102.456032
11890,P,181.910522
11891,P,181.910522
11892,P,259.327179
11893,P,259.327179
11894,P,157.512924
11895,P,157.512924
11896,P,1123.16895
11897,P,1123.16895
11898,P,1000.51636
11899,P,1000.51636
11900,P,933.560913
11901,P,933.560913
11902,P,1033.20471
11903,P,1033.20471
11904,P,758.027832
11905,P,758.027832
11906,P,-60.5569496
11907,P,-60.5569496
11908,P,166.353409
11909,P,166.353409
11910,P,103.009102
11911,P,103.009102
11912,P,103.009102
11913,P,182.350082
11914,P,182.350082
11915,P,1023.60107
11916,P,1023.60107
11917,P,1023.60107
11918,P,260.022095
11919,P,260.022095
11920,P,158.086304
11921,P,158.086304
11922,P,-46.8954773
11923,P,-46.8954773
11924,P,-3.24831557
11925,P,-3.24831557
11926,P,61.6423264
11927,P,61.6423264
11928,P,45.0957565
11929,P,45.0957565
11930,P,393.329102
11931,P,393.329102
11932,P,393.329102
11933,P,393.329102
11934,P,171.575958
11935,P,171.575958
11936,P,244.169479
11937,P,244.169479
11938,P,328.734558
11939,P,328.734558
11940,P,216.810059
11941,P,216.810059
11942,P,237.713898
11943,P,237.713898
11944,P,-291.145233
11945,P,-291.145233
11946,P,226.602478
11947,P,226.602478
11948,P,143.108185
11949,P,143.108185
11950,P,143.108185
11951,P,128.374969
11952,P,128.374969
11953,P,129.777817
11954,P,129.777817
11955,P,224.662827
11956,P,224.662827
11957,P,146.82251
11958,P,146.82251
11959,P,146.82251
11960,P,130.872177
11961,P,130.872177
11962,P,-275.023926
11963,P,-275.023926
11964,P,144.487106
11965,P,144.487106
11966,P,132.462463
11967,P,132.462463
11968,P,49.836998
11969,P,49.836998
11970,P,8.8309679
11971,P,8.8309679
11972,P,122.539642
11973,P,122.539642
11974,P,226.960175
11975,P,226.960175
11976,P,134.645203
11977,P,134.645203
11978,P,134.645203
11979,P,227.614014
11980,P,227.614014
11981,P,134.492325
11982,P,134.492325
11983,P,134.492325
11984,P,106.812782
11985,P,106.812782
11986,P,107.434814
11987,P,107.434814
11988,P,15.2819653
11989,P,15.2819653
11990,P,108.376862
11991,P,108.376862
11992,P,343.963013
11993,P,343.963013
11994,P,344.138794
11995,P,344.138794
11996,P,-2.17222357
11997,P,-2.17222357
11998,P,-10.1844788
11999,P,-10.1844788
12000,P,177.372009
12001,P,177.372009
12002,P,231.57547
12003,P,231.57547
12004,P,132.895355
12005,P,132.895355
12006,P,132.895355
12007,P,98.8799667
12008,P,98.8799667
12009,P,231.249725
12010,P,231.249725
12011,P,133.584991
12012,P,133.584991
12013,P,133.584991
12014,P,99.1569824
12015,P,99.1569824
12016,P,99.5128326
12017,P,99.5128326
12018,P,266.797852
12019,P,266.797852
12020,P,99.8338013
12021,P,99.8338013
12022,P,101.296707
12023,P,101.296707
12024,P,343.524994
12025,P,343.524994
12026,P,343.733826
12027,P,343.733826
12028,P,-8.2396946
12029,P,-8.2396946
12030,P,-10.7515001
12031,P,-10.7515001
12032,P,219.758942
12033,P,219.758942
12034,P,232.189255
12035,P,232.189255
12036,P,136.131699
12037,P,136.131699
12038,P,136.131699
12039,P,104.163857
12040,P,104.163857
12041,P,105.010246
12042,P,105.010246
12043,P,232.077271
12044,P,232.077271
12045,P,135.978409
12046,P,135.978409
12047,P,135.978409
12048,P,104.689026
12049,P,104.689026
12050,P,226.616638
12051,P,226.616638
12052,P,101.722305
12053,P,101.722305
12054,P,103.057404
12055,P,103.057404
12056,P,102.97541
12057,P,102.97541
12058,P,103.582253
12059,P,103.582253
12060,P,349.282104
12061,P,349.282104
12062,P,344.736938
12063,P,344.736938
12064,P,-581.608826
12065,P,-581.608826
12066,P,222.680893
12067,P,222.680893
12068,P,133.198975
12069,P,133.198975
12070,P,133.198975
12071,P,111.036919
12072,P,111.036919
12073,P,111.665451
12074,P,111.665451
12075,P,222.018036
12076,P,222.018036
12077,P,133.247849
12078,P,133.247849
12079,P,133.247849
12080,P,111.082474
12081,P,111.082474
12082,P,-575.732849
12083,P,-575.732849
12084,P,108.251045
12085,P,108.251045
12086,P,464.875702
12087,P,464.875702
12088,P,-84.0002823
12089,P,-84.0002823
12090,P,-106.329155
12091,P,-106.329155
12092,P,-157.47728
12093,P,-157.47728
12094,P,108.260033
12095,P,108.260033
12096,P,220.569855
12097,P,220.569855
12098,P,220.569855
12099,P,42.1680222
12100,P,42.1680222
12101,P,202.877426
12102,P,202.877426
12103,P,202.877426
12104,P,185.278183
12105,P,185.278183
12106,P,199.301071
12107,P,199.301071
12108,P,-190.879562
12109,P,-190.879562
12110,P,156.835083
12111,P,156.835083
12112,P,1122.93384
12113,P,1122.93384
12114,P,1000.24518
12115,P,1000.24518
12116,P,933.354126
12117,P,933.354126
12118,P,1033.04297
12119,P,1033.04297
12120,P,758.324707
12121,P,758.324707
12122,P,-47.1254311
12123,P,-47.1254311
12124,P,-3.40509343
12125,P,-3.40509343
12126,P,61.5628929
12127,P,61.5628929
12128,P,44.9581833
12129,P,44.9581833
12130,P,388.759277
12131,P,388.759277
12132,P,388.759277
12133,P,388.759277
12134,P,171.392426
12135,P,171.392426
12136,P,243.657333
12137,P,243.657333
12138,P,630.188721
12139,P,630.188721
12140,P,888.43689
12141,P,888.43689
12142,P,56.9657822
12143,P,56.9657822
12144,P,-181.04808
12145,P,-181.04808
12146,P,31.6138706
12147,P,31.6138706
12148,P,-315.61673
12149,P,-315.61673
12150,P,217.933624
12151,P,217.933624
12152,P,-350.430664
12153,P,-350.430664
12154,P,267.598053
12155,P,267.598053
12156,P,-322.649384
12157,P,-322.649384
12158,P,94.7393341
12159,P,94.7393341
12160,P,-374.653748
12161,P,-374.653748
12162,P,84.6326752
12163,P,84.6326752
12164,P,-382.260071
12165,P,-382.260071
12166,P,12.7341795
12167,P,12.7341795
12168,P,-386.007507
12169,P,-386.007507
12170,P,39.2126732
12171,P,39.2126732
12172,P,-382.36734
12173,P,-382.36734
12174,P,-148.586044
12175,P,-148.586044
12176,P,-410.227539
12177,P,-410.227539
12178,P,-166.771317
12179,P,-166.771317
12180,P,-406.772339
12181,P,-406.772339
12182,P,-184.148209
12183,P,-184.148209
12184,P,-408.784332
12185,P,-408.784332
12186,P,-176.806259
12187,P,-176.806259
12188,P,-406.463654
12189,P,-406.463654
12190,P,-160.081802
12191,P,-160.081802
12192,P,-458.392334
12193,P,-458.392334
12194,P,-155.880554
12195,P,-155.880554
12196,P,-448.627747
12197,P,-448.627747
12198,P,-184.300919
12199,P,-184.300919
12200,P,-410.80603
12201,P,-410.80603
12202,P,-165.158829
12203,P,-165.158829
12204,P,-444.228821
12205,P,-444.228821
12206,P,-137.61937
12207,P,-137.61937
12208,P,-411.139404
12209,P,-411.139404
12210,P,-120.155914
12211,P,-120.155914
12212,P,-413.052948
12213,P,-413.052948
12214,P,2.74321914
12215,P,2.74321914
12216,P,-387.949768
12217,P,-387.949768
12218,P,-110.927071
12219,P,-110.927071
12220,P,-412.173279
12221,P,-412.173279
12222,P,76.9128342
12223,P,76.9128342
12224,P,-372.808289
12225,P,-372.808289
12226,P,107.457901
12227,P,107.457901
12228,P,-363.769928
12229,P,-363.769928
12230,P,186.081116
12231,P,186.081116
12232,P,-351.971558
12233,P,-351.971558
12234,P,136.427338
12235,P,136.427338
12236,P,-362.858063
12237,P,-362.858063
12238,P,76.794899
12239,P,76.794899
12240,P,-372.523682
12241,P,-372.523682
12242,P,106.943237
12243,P,106.943237
12244,P,-363.548615
12245,P,-363.548615
12246,P,183.608261
12247,P,183.608261
12248,P,-352.383789
12249,P,-352.383789
12250,P,135.508743
12251,P,135.508743
12252,P,-362.672028
12253,P,-362.672028
12254,P,-137.517609
12255,P,-137.517609
12256,P,-411.009888
12257,P,-411.009888
12258,P,-120.035599
12259,P,-120.035599
12260,P,-412.934509
12261,P,-412.934509
12262,P,2.8749125
12263,P,2.8749125
12264,P,-387.803986
12265,P,-387.803986
12266,P,-110.793289
12267,P,-110.793289
12268,P,-412.051483
12269,P,-412.051483
12270,P,-160.067947
12271,P,-160.067947
12272,P,-458.389221
12273,P,-458.389221
12274,P,-155.820221
12275,P,-155.820221
12276,P,-448.556366
12277,P,-448.556366
12278,P,-184.247406
12279,P,-184.247406
12280,P,-410.704865
12281,P,-410.704865
12282,P,-165.097229
12283,P,-165.097229
12284,P,-444.14798
12285,P,-444.14798
12286,P,-148.669617
12287,P,-148.669617
12288,P,-410.359222
12289,P,-410.359222
12290,P,-166.825272
12291,P,-166.825272
12292,P,-406.882965
12293,P,-406.882965
12294,P,-184.196945
12295,P,-184.196945
12296,P,-408.881653
12297,P,-408.881653
12298,P,-176.847275
12299,P,-176.847275
12300,P,-406.57016
12301,P,-406.57016
12302,P,94.744812
12303,P,94.744812
12304,P,-374.938843
12305,P,-374.938843
12306,P,84.5566254
12307,P,84.5566254
12308,P,-382.477112
12309,P,-382.477112
12310,P,12.6133165
12311,P,12.6133165
12312,P,-386.158325
12313,P,-386.158325
12314,P,39.1251183
12315,P,39.1251183
12316,P,-382.573517
12317,P,-382.573517
12318,P,54.5962601
12319,P,54.5962601
12320,P,-162.545441
12321,P,-162.545441
12322,P,37.8653107
12323,P,37.8653107
12324,P,-311.363251
12325,P,-311.363251
12326,P,222.276016
12327,P,222.276016
12328,P,-349.862671
12329,P,-349.862671
12330,P,276.563354
12331,P,276.563354
12332,P,-319.576508
12333,P,-319.576508
12334,P,189.380524
12335,P,189.380524
12336,P,1165.03687
12337,P,1165.03687
12338,P,1165.03687
12339,P,529.604187
12340,P,529.604187
12341,P,529.604187
12342,P,-3.30365825
12343,P,-3.30365825
12344,P,850.882019
12345,P,850.882019
12346,P,850.882019
12347,P,520.185242
12348,P,520.185242
12349,P,130.344879
12350,P,130.344879
12351,P,377.224274
12352,P,377.224274
12353,P,656.351196
12354,P,656.351196
12355,P,1256.2196
12356,P,1256.2196
12357,P,1256.2196
12358,P,1256.2196
12359,P,1256.2196
12360,P,1256.2196
12361,P,216.007339
12362,P,216.007339
12363,P,991.199402
12364,P,991.199402
12365,P,991.199402
12366,P,485.794678
12367,P,485.794678
12368,P,356.922424
12369,P,356.922424
12370,P,841.46875
12371,P,841.46875
12372,P,499.859009
12373,P,499.859009
12374,P,184.65892
12375,P,184.65892
12376,P,825.01886
12377,P,825.01886
12378,P,719.507812
12379,P,719.507812
12380,P,719.507812
12381,P,719.507812
12382,P,1510.54321
12383,P,1510.54321
12384,P,1016.76129
12385,P,1016.76129
12386,P,1798.62659
12387,P,1798.62659
12388,P,1798.62659
12389,P,416.253174
12390,P,416.253174
12391,P,416.253174
12392,P,461.548065
12393,P,461.548065
12394,P,425.833313
12395,P,425.833313
12396,P,266.365845
12397,P,266.365845
12398,P,266.365845
12399,P,266.365845
12400,P,518.273926
12401,P,518.273926
12402,P,684.26062
12403,P,684.26062
12404,P,479.121643
12405,P,479.121643
12406,P,97.1262283
12407,P,97.1262283
12408,P,87.6365128
12409,P,87.6365128
12410,P,1.18475783
12411,P,1.18475783
12412,P,18.1244125
12413,P,18.1244125
12414,P,71.9985428
12415,P,71.9985428
12416,P,78.5868149
12417,P,78.5868149
12418,P,103.901062
12419,P,103.901062
12420,P,57.1025848
12421,P,57.1025848
12422,P,122.975784
12423,P,122.975784
12424,P,36.1839066
12425,P,36.1839066
12426,P,416.195099
12427,P,416.195099
12428,P,-27.0631428
12429,P,-27.0631428
12430,P,107.02951
12431,P,107.02951
12432,P,73.4050369
12433,P,73.4050369
12434,P,39.897522
12435,P,39.897522
12436,P,-259.802246
12437,P,-259.802246
12438,P,391.376923
12439,P,391.376923
12440,P,-102.331825
12441,P,-102.331825
12442,P,113.611961
12443,P,113.611961
12444,P,182.091202
12445,P,182.091202
12446,P,243.274033
12447,P,243.274033
12448,P,147.308868
12449,P,147.308868
12450,P,98.4082108
12451,P,98.4082108
12452,P,82.4400406
12453,P,82.4400406
12454,P,110.530342
12455,P,110.530342
12456,P,295.674316
12457,P,295.674316
12458,P,-160.506607
12459,P,-160.506607
12460,P,-67.6817093
12461,P,-67.6817093
12462,P,-51.6263275
12463,P,-51.6263275
12464,P,10.2819681
12465,P,10.2819681
12466,P,-278.849396
12467,P,-278.849396
12468,P,319.405396
12469,P,319.405396
12470,P,-121.509163
12471,P,-121.509163
12472,P,281.793243
12473,P,281.793243
12474,P,-12.1964741
12475,P,-12.1964741
12476,P,-24.5574932
12477,P,-24.5574932
12478,P,296.263275
12479,P,296.263275
12480,P,39.1046257
12481,P,39.1046257
12482,P,-44.7875061
12483,P,-44.7875061
12484,P,-34.5222435
12485,P,-34.5222435
12486,P,29.7474918
12487,P,29.7474918
12488,P,230.723831
12489,P,230.723831
12490,P,-341.943024
12491,P,-341.943024
12492,P,160.697662
12493,P,160.697662
12494,P,-206.28743
12495,P,-206.28743
12496,P,-137.041183
12497,P,-137.041183
12498,P,-131.414642
12499,P,-131.414642
12500,P,162.563263
12501,P,162.563263
12502,P,-194.296371
12503,P,-194.296371
12504,P,166.853119
12505,P,166.853119
12506,P,-169.541031
12507,P,-169.541031
12508,P,-80.4821091
12509,P,-80.4821091
12510,P,-92.2942047
12511,P,-92.2942047
12512,P,263.981018
12513,P,263.981018
12514,P,-338.621338
12515,P,-338.621338
12516,P,168.82579
12517,P,168.82579
12518,P,-189.775391
12519,P,-189.775391
12520,P,291.780762
12521,P,291.780762
12522,P,-72.6389236
12523,P,-72.6389236
12524,P,-66.4650192
12525,P,-66.4650192
12526,P,303.218658
12527,P,303.218658
12528,P,-52.5391312
12529,P,-52.5391312
12530,P,22.3047256
12531,P,22.3047256
12532,P,-60.1846848
12533,P,-60.1846848
12534,P,432.284454
12535,P,432.284454
12536,P,-41.4529839
12537,P,-41.4529839
12538,P,-120.339195
12539,P,-120.339195
12540,P,-119.477448
12541,P,-119.477448
12542,P,-42.2887573
12543,P,-42.2887573
12544,P,426.684204
12545,P,426.684204
12546,P,-40.5530968
12547,P,-40.5530968
12548,P,-117.956413
12549,P,-117.956413
12550,P,-39.9763908
12551,P,-39.9763908
12552,P,-118.697853
12553,P,-118.697853
12554,P,199.387253
12555,P,199.387253
12556,P,-235.323822
12557,P,-235.323822
12558,P,-176.659225
12559,P,-176.659225
12560,P,-178.013947
12561,P,-178.013947
12562,P,101.078148
12563,P,101.078148
12564,P,-380.020905
12565,P,-380.020905
12566,P,211.54628
12567,P,211.54628
12568,P,-240.018921
12569,P,-240.018921
12570,P,363.32724
12571,P,363.32724
12572,P,-113.606239
12573,P,-113.606239
12574,P,-114.780731
12575,P,-114.780731
12576,P,-35.7499847
12577,P,-35.7499847
12578,P,382.877228
12579,P,382.877228
12580,P,-117.051346
12581,P,-117.051346
12582,P,-115.870094
12583,P,-115.870094
12584,P,199.381271
12585,P,199.381271
12586,P,-243.534668
12587,P,-243.534668
12588,P,-183.827072
12589,P,-183.827072
12590,P,-182.988266
12591,P,-182.988266
12592,P,95.0069275
12593,P,95.0069275
12594,P,-380.965637
12595,P,-380.965637
12596,P,217.362946
12597,P,217.362946
12598,P,-241.169785
12599,P,-241.169785
12600,P,233.173843
12601,P,233.173843
12602,P,-120.967224
12603,P,-120.967224
12604,P,-121.535072
12605,P,-121.535072
12606,P,231.823883
12607,P,231.823883
12608,P,-44.063549
12609,P,-44.063549
12610,P,-122.936996
12611,P,-122.936996
12612,P,-122.173386
12613,P,-122.173386
12614,P,-44.7744179
12615,P,-44.7744179
12616,P,15.0938082
12617,P,15.0938082
12618,P,-383.365906
12619,P,-383.365906
12620,P,112.764656
12621,P,112.764656
12622,P,-249.787781
12623,P,-249.787781
12624,P,-190.106262
12625,P,-190.106262
12626,P,-188.905563
12627,P,-188.905563
12628,P,107.660522
12629,P,107.660522
12630,P,-246.592682
12631,P,-246.592682
12632,P,109.435043
12633,P,109.435043
12634,P,-244.0784
12635,P,-244.0784
12636,P,-184.487579
12637,P,-184.487579
12638,P,-185.117599
12639,P,-185.117599
12640,P,30.4055901
12641,P,30.4055901
12642,P,-383.022095
12643,P,-383.022095
12644,P,104.818672
12645,P,104.818672
12646,P,-245.828796
12647,P,-245.828796
12648,P,247.708786
12649,P,247.708786
12650,P,-126.112442
12651,P,-126.112442
12652,P,-125.057297
12653,P,-125.057297
12654,P,243.060349
12655,P,243.060349
12656,P,-123.629974
12657,P,-123.629974
12658,P,-45.6006622
12659,P,-45.6006622
12660,P,-124.225273
12661,P,-124.225273
12662,P,283.712982
12663,P,283.712982
12664,P,-56.6098595
12665,P,-56.6098595
12666,P,-136.721863
12667,P,-136.721863
12668,P,-136.47171
12669,P,-136.47171
12670,P,-56.9081688
12671,P,-56.9081688
12672,P,279.670105
12673,P,279.670105
12674,P,-56.5135612
12675,P,-56.5135612
12676,P,-136.589005
12677,P,-136.589005
12678,P,-56.714077
12679,P,-56.714077
12680,P,-136.433777
12681,P,-136.433777
12682,P,171.110947
12683,P,171.110947
12684,P,-268.437836
12685,P,-268.437836
12686,P,-203.336044
12687,P,-203.336044
12688,P,-203.197418
12689,P,-203.197418
12690,P,-152.292801
12691,P,-152.292801
12692,P,-408.376923
12693,P,-408.376923
12694,P,171.978851
12695,P,171.978851
12696,P,-267.69931
12697,P,-267.69931
12698,P,265.14917
12699,P,265.14917
12700,P,-136.658768
12701,P,-136.658768
12702,P,-136.553513
12703,P,-136.553513
12704,P,-56.4623833
12705,P,-56.4623833
12706,P,269.539917
12707,P,269.539917
12708,P,-136.612732
12709,P,-136.612732
12710,P,-136.511047
12711,P,-136.511047
12712,P,173.617004
12713,P,173.617004
12714,P,-266.935883
12715,P,-266.935883
12716,P,-202.94696
12717,P,-202.94696
12718,P,-202.790939
12719,P,-202.790939
12720,P,-163.216782
12721,P,-163.216782
12722,P,-407.873871
12723,P,-407.873871
12724,P,173.388321
12725,P,173.388321
12726,P,-267.430176
12727,P,-267.430176
12728,P,292.947784
12729,P,292.947784
12730,P,-136.854614
12731,P,-136.854614
12732,P,-136.953354
12733,P,-136.953354
12734,P,296.266174
12735,P,296.266174
12736,P,-57.4121361
12737,P,-57.4121361
12738,P,-137.799988
12739,P,-137.799988
12740,P,-137.270401
12741,P,-137.270401
12742,P,-57.948349
12743,P,-57.948349
12744,P,-182.218124
12745,P,-182.218124
12746,P,-406.457825
12747,P,-406.457825
12748,P,161.731583
12749,P,161.731583
12750,P,-270.828491
12751,P,-270.828491
12752,P,-207.337173
12753,P,-207.337173
12754,P,-206.092499
12755,P,-206.092499
12756,P,165.248306
12757,P,165.248306
12758,P,-267.99292
12759,P,-267.99292
12760,P,173.471359
12761,P,173.471359
12762,P,-266.851959
12763,P,-266.851959
12764,P,-203.060501
12765,P,-203.060501
12766,P,-203.1978
12767,P,-203.1978
12768,P,-179.518646
12769,P,-179.518646
12770,P,-406.325439
12771,P,-406.325439
12772,P,172.018555
12773,P,172.018555
12774,P,-267.451294
12775,P,-267.451294
12776,P,299.496094
12777,P,299.496094
12778,P,-140.827942
12779,P,-140.827942
12780,P,-139.70076
12781,P,-139.70076
12782,P,301.557129
12783,P,301.557129
12784,P,-138.362747
12785,P,-138.362747
12786,P,-58.6026993
12787,P,-58.6026993
12788,P,-138.848465
12789,P,-138.848465
12790,P,11.5103569
12791,P,11.5103569
12792,P,-72.0525055
12793,P,-72.0525055
12794,P,-154.782608
12795,P,-154.782608
12796,P,-155.930832
12797,P,-155.930832
12798,P,-71.3140564
12799,P,-71.3140564
12800,P,-8.58894825
12801,P,-8.58894825
12802,P,-73.0070953
12803,P,-73.0070953
12804,P,-158.173233
12805,P,-158.173233
12806,P,-73.8835449
12807,P,-73.8835449
12808,P,-157.108719
12809,P,-157.108719
12810,P,260.180939
12811,P,260.180939
12812,P,-306.161407
12813,P,-306.161407
12814,P,-232.139893
12815,P,-232.139893
12816,P,-231.825272
12817,P,-231.825272
12818,P,-159.259247
12819,P,-159.259247
12820,P,-456.965515
12821,P,-456.965515
12822,P,261.888184
12823,P,261.888184
12824,P,-304.74295
12825,P,-304.74295
12826,P,-31.2084751
12827,P,-31.2084751
12828,P,-160.081558
12829,P,-160.081558
12830,P,-159.737549
12831,P,-159.737549
12832,P,-75.4613724
12833,P,-75.4613724
12834,P,-28.1859322
12835,P,-28.1859322
12836,P,-158.958038
12837,P,-158.958038
12838,P,-159.344604
12839,P,-159.344604
12840,P,268.652191
12841,P,268.652191
12842,P,-297.960938
12843,P,-297.960938
12844,P,-225.560043
12845,P,-225.560043
12846,P,-227.161911
12847,P,-227.161911
12848,P,-157.761093
12849,P,-157.761093
12850,P,-455.775269
12851,P,-455.775269
12852,P,265.577637
12853,P,265.577637
12854,P,-303.6138
12855,P,-303.6138
12856,P,103.726997
12857,P,103.726997
12858,P,-153.237564
12859,P,-153.237564
12860,P,-151.490036
12861,P,-151.490036
12862,P,153.924698
12863,P,153.924698
12864,P,-67.4140167
12865,P,-67.4140167
12866,P,-148.17337
12867,P,-148.17337
12868,P,-149.714905
12869,P,-149.714905
12870,P,-66.426445
12871,P,-66.426445
12872,P,-184.524124
12873,P,-184.524124
12874,P,-421.772736
12875,P,-421.772736
12876,P,163.379013
12877,P,163.379013
12878,P,-272.625366
12879,P,-272.625366
12880,P,-208.838333
12881,P,-208.838333
12882,P,-210.392151
12883,P,-210.392151
12884,P,168.106964
12885,P,168.106964
12886,P,-280.60434
12887,P,-280.60434
12888,P,246.404282
12889,P,246.404282
12890,P,-294.957672
12891,P,-294.957672
12892,P,-223.545593
12893,P,-223.545593
12894,P,-221.306686
12895,P,-221.306686
12896,P,-173.773346
12897,P,-173.773346
12898,P,-427.423187
12899,P,-427.423187
12900,P,227.888275
12901,P,227.888275
12902,P,-284.25943
12903,P,-284.25943
12904,P,277.299713
12905,P,277.299713
12906,P,-142.077179
12907,P,-142.077179
12908,P,-143.230118
12909,P,-143.230118
12910,P,252.544769
12911,P,252.544769
12912,P,-146.428986
12913,P,-146.428986
12914,P,-65.0358276
12915,P,-65.0358276
12916,P,-144.731934
12917,P,-144.731934
12918,P,233.606659
12919,P,233.606659
12920,P,-55.0585518
12921,P,-55.0585518
12922,P,-135.218643
12923,P,-135.218643
12924,P,-135.627731
12925,P,-135.627731
12926,P,-54.8310661
12927,P,-54.8310661
12928,P,238.018478
12929,P,238.018478
12930,P,-55.4668579
12931,P,-55.4668579
12932,P,-136.39592
12933,P,-136.39592
12934,P,-55.8452225
12935,P,-55.8452225
12936,P,-136.018448
12937,P,-136.018448
12938,P,168.119461
12939,P,168.119461
12940,P,-268.880371
12941,P,-268.880371
12942,P,-203.542953
12943,P,-203.542953
12944,P,-203.479446
12945,P,-203.479446
12946,P,-133.821548
12947,P,-133.821548
12948,P,-412.893921
12949,P,-412.893921
12950,P,166.669678
12951,P,166.669678
12952,P,-269.436249
12953,P,-269.436249
12954,P,254.360352
12955,P,254.360352
12956,P,-136.823685
12957,P,-136.823685
12958,P,-136.629593
12959,P,-136.629593
12960,P,-56.6274834
12961,P,-56.6274834
12962,P,249.670624
12963,P,249.670624
12964,P,-136.597794
12965,P,-136.597794
12966,P,-136.554947
12967,P,-136.554947
12968,P,156.466339
12969,P,156.466339
12970,P,-268.308868
12971,P,-268.308868
12972,P,-202.105148
12973,P,-202.105148
12974,P,-202.649292
12975,P,-202.649292
12976,P,-123.544594
12977,P,-123.544594
12978,P,-413.301025
12979,P,-413.301025
12980,P,160.072479
12981,P,160.072479
12982,P,-269.375061
12983,P,-269.375061
12984,P,225.696716
12985,P,225.696716
12986,P,-134.583969
12987,P,-134.583969
12988,P,-133.662628
12989,P,-133.662628
12990,P,226.833435
12991,P,226.833435
12992,P,-52.7638588
12993,P,-52.7638588
12994,P,-131.79985
12995,P,-131.79985
12996,P,-132.701935
12997,P,-132.701935
12998,P,-52.2389412
12999,P,-52.2389412
13000,P,-17.0084572
13001,P,-17.0084572
13002,P,-399.395905
13003,P,-399.395905
13004,P,139.512589
13005,P,139.512589
13006,P,-251.499924
13007,P,-251.499924
13008,P,-191.500214
13009,P,-191.500214
13010,P,-192.881119
13011,P,-192.881119
13012,P,137.345078
13013,P,137.345078
13014,P,-258.919159
13015,P,-258.919159
13016,P,133.509613
13017,P,133.509613
13018,P,-267.396088
13019,P,-267.396088
13020,P,-201.303116
13021,P,-201.303116
13022,P,-200.201172
13023,P,-200.201172
13024,P,-104.219589
13025,P,-104.219589
13026,P,-404.33609
13027,P,-404.33609
13028,P,121.063683
13029,P,121.063683
13030,P,-261.818298
13031,P,-261.818298
13032,P,252.705307
13033,P,252.705307
13034,P,-127.261284
13035,P,-127.261284
13036,P,-128.269852
13037,P,-128.269852
13038,P,252.596848
13039,P,252.596848
13040,P,-130.65831
13041,P,-130.65831
13042,P,-51.2588768
13043,P,-51.2588768
13044,P,-129.400925
13045,P,-129.400925
13046,P,330.91748
13047,P,330.91748
13048,P,-26.4774742
13049,P,-26.4774742
13050,P,-102.651535
13051,P,-102.651535
13052,P,-104.244484
13053,P,-104.244484
13054,P,-25.2284031
13055,P,-25.2284031
13056,P,318.413055
13057,P,318.413055
13058,P,-28.1343594
13059,P,-28.1343594
13060,P,-107.475365
13061,P,-107.475365
13062,P,-29.598774
13063,P,-29.598774
13064,P,-105.880203
13065,P,-105.880203
13066,P,157.207245
13067,P,157.207245
13068,P,-233.92778
13069,P,-233.92778
13070,P,-175.774582
13071,P,-175.774582
13072,P,-174.2164
13073,P,-174.2164
13074,P,75.8297577
13075,P,75.8297577
13076,P,-367.194031
13077,P,-367.194031
13078,P,147.068008
13079,P,147.068008
13080,P,-228.780899
13081,P,-228.780899
13082,P,307.458466
13083,P,307.458466
13084,P,-112.983025
13085,P,-112.983025
13086,P,-111.526352
13087,P,-111.526352
13088,P,-35.1578026
13089,P,-35.1578026
13090,P,293.763336
13091,P,293.763336
13092,P,-108.927818
13093,P,-108.927818
13094,P,-110.167458
13095,P,-110.167458
13096,P,144.98703
13097,P,144.98703
13098,P,-223.787811
13099,P,-223.787811
13100,P,-165.14566
13101,P,-165.14566
13102,P,-166.782425
13103,P,-166.782425
13104,P,96.5148849
13105,P,96.5148849
13106,P,-366.122955
13107,P,-366.122955
13108,P,142.288422
13109,P,142.288422
13110,P,-227.316849
13111,P,-227.316849
13112,P,323.192657
13113,P,323.192657
13114,P,-100.754868
13115,P,-100.754868
13116,P,-98.6203384
13117,P,-98.6203384
13118,P,318.217865
13119,P,318.217865
13120,P,-19.703413
13121,P,-19.703413
13122,P,-93.6750183
13123,P,-93.6750183
13124,P,-96.1934586
13125,P,-96.1934586
13126,P,-17.7144623
13127,P,-17.7144623
13128,P,175.196625
13129,P,175.196625
13130,P,-357.47699
13131,P,-357.47699
13132,P,158.249496
13133,P,158.249496
13134,P,-209.192139
13135,P,-209.192139
13136,P,-142.070526
13137,P,-142.070526
13138,P,-146.349426
13139,P,-146.349426
13140,P,156.575851
13141,P,156.575851
13142,P,-217.038605
13143,P,-217.038605
13144,P,150.611465
13145,P,150.611465
13146,P,-222.701599
13147,P,-222.701599
13148,P,-163.233032
13149,P,-163.233032
13150,P,-161.141724
13151,P,-161.141724
13152,P,145.944275
13153,P,145.944275
13154,P,-359.081696
13155,P,-359.081696
13156,P,151.850006
13157,P,151.850006
13158,P,-218.718826
13159,P,-218.718826
13160,P,298.527679
13161,P,298.527679
13162,P,-78.4070969
13163,P,-78.4070969
13164,P,-83.0077667
13165,P,-83.0077667
13166,P,302.884216
13167,P,302.884216
13168,P,-90.6240845
13169,P,-90.6240845
13170,P,-15.1311073
13171,P,-15.1311073
13172,P,-86.9665833
13173,P,-86.9665833
13174,P,330.219391
13175,P,330.219391
13176,P,-25.7115669
13177,P,-25.7115669
13178,P,-101.938828
13179,P,-101.938828
13180,P,-103.547493
13181,P,-103.547493
13182,P,-24.4316292
13183,P,-24.4316292
13184,P,317.830261
13185,P,317.830261
13186,P,-27.3888359
13187,P,-27.3888359
13188,P,-106.817444
13189,P,-106.817444
13190,P,-28.8820114
13191,P,-28.8820114
13192,P,-105.204865
13193,P,-105.204865
13194,P,156.998169
13195,P,156.998169
13196,P,-233.566879
13197,P,-233.566879
13198,P,-175.28212
13199,P,-175.28212
13200,P,-173.705246
13201,P,-173.705246
13202,P,75.6478806
13203,P,75.6478806
13204,P,-366.912933
13205,P,-366.912933
13206,P,146.788681
13207,P,146.788681
13208,P,-228.398407
13209,P,-228.398407
13210,P,307.196075
13211,P,307.196075
13212,P,-112.414162
13213,P,-112.414162
13214,P,-34.5423813
13215,P,-34.5423813
13216,P,-110.932053
13217,P,-110.932053
13218,P,293.441406
13219,P,293.441406
13220,P,-108.287842
13221,P,-108.287842
13222,P,-109.551147
13223,P,-109.551147
13224,P,144.318481
13225,P,144.318481
13226,P,-223.419647
13227,P,-223.419647
13228,P,-164.567657
13229,P,-164.567657
13230,P,-166.210098
13231,P,-166.210098
13232,P,96.0988159
13233,P,96.0988159
13234,P,-365.850861
13235,P,-365.850861
13236,P,141.750427
13237,P,141.750427
13238,P,-226.932541
13239,P,-226.932541
13240,P,322.017365
13241,P,322.017365
13242,P,-100.029648
13243,P,-100.029648
13244,P,-97.8731995
13245,P,-97.8731995
13246,P,316.745483
13247,P,316.745483
13248,P,-18.8254356
13249,P,-18.8254356
13250,P,-92.8998718
13251,P,-92.8998718
13252,P,-16.8043747
13253,P,-16.8043747
13254,P,-95.4379654
13255,P,-95.4379654
13256,P,155.221649
13257,P,155.221649
13258,P,-209.308273
13259,P,-209.308273
13260,P,-141.600372
13261,P,-141.600372
13262,P,-145.847977
13263,P,-145.847977
13264,P,173.170868
13265,P,173.170868
13266,P,-357.542053
13267,P,-357.542053
13268,P,154.110275
13269,P,154.110275
13270,P,-216.887527
13271,P,-216.887527
13272,P,294.909851
13273,P,294.909851
13274,P,-77.5894165
13275,P,-77.5894165
13276,P,-2.19446158
13277,P,-2.19446158
13278,P,-82.2025528
13279,P,-82.2025528
13280,P,300.10376
13281,P,300.10376
13282,P,-10.6781206
13283,P,-10.6781206
13284,P,-89.8414993
13285,P,-89.8414993
13286,P,-86.1692505
13287,P,-86.1692505
13288,P,149.451828
13289,P,149.451828
13290,P,-222.357437
13291,P,-222.357437
13292,P,-162.657257
13293,P,-162.657257
13294,P,-160.563843
13295,P,-160.563843
13296,P,144.810959
13297,P,144.810959
13298,P,-359.060974
13299,P,-359.060974
13300,P,150.44838
13301,P,150.44838
13302,P,-218.494354
13303,P,-218.494354
13304,P,233.508011
13305,P,233.508011
13306,P,-54.90028
13307,P,-54.90028
13308,P,-135.092529
13309,P,-135.092529
13310,P,-135.504974
13311,P,-135.504974
13312,P,-54.6674461
13313,P,-54.6674461
13314,P,237.926514
13315,P,237.926514
13316,P,-55.3134155
13317,P,-55.3134155
13318,P,-136.276627
13319,P,-136.276627
13320,P,-55.6946297
13321,P,-55.6946297
13322,P,-135.897934
13323,P,-135.897934
13324,P,168.161972
13325,P,168.161972
13326,P,-268.761414
13327,P,-268.761414
13328,P,-203.438583
13329,P,-203.438583
13330,P,-203.380936
13331,P,-203.380936
13332,P,-133.716125
13333,P,-133.716125
13334,P,-412.772217
13335,P,-412.772217
13336,P,166.718201
13337,P,166.718201
13338,P,-269.332153
13339,P,-269.332153
13340,P,254.243881
13341,P,254.243881
13342,P,-136.698898
13343,P,-136.698898
13344,P,-56.4788971
13345,P,-56.4788971
13346,P,-136.50769
13347,P,-136.50769
13348,P,249.560547
13349,P,249.560547
13350,P,-136.480637
13351,P,-136.480637
13352,P,-136.438843
13353,P,-136.438843
13354,P,156.551849
13355,P,156.551849
13356,P,-268.208862
13357,P,-268.208862
13358,P,-202.009735
13359,P,-202.009735
13360,P,-202.555649
13361,P,-202.555649
13362,P,-123.429573
13363,P,-123.429573
13364,P,-413.182983
13365,P,-413.182983
13366,P,160.144211
13367,P,160.144211
13368,P,-269.273651
13369,P,-269.273651
13370,P,225.608322
13371,P,225.608322
13372,P,-134.451675
13373,P,-134.451675
13374,P,-133.524902
13375,P,-133.524902
13376,P,226.766357
13377,P,226.766357
13378,P,-52.5808144
13379,P,-52.5808144
13380,P,-131.64505
13381,P,-131.64505
13382,P,-52.0454407
13383,P,-52.0454407
13384,P,-132.554611
13385,P,-132.554611
13386,P,139.586456
13387,P,139.586456
13388,P,-251.358063
13389,P,-251.358063
13390,P,-191.344299
13391,P,-191.344299
13392,P,-192.735458
13393,P,-192.735458
13394,P,-16.8700199
13395,P,-16.8700199
13396,P,-399.254517
13397,P,-399.254517
13398,P,137.432251
13399,P,137.432251
13400,P,-258.792358
13401,P,-258.792358
13402,P,252.651947
13403,P,252.651947
13404,P,-127.063789
13405,P,-127.063789
13406,P,-48.4925575
13407,P,-48.4925575
13408,P,-128.084549
13409,P,-128.084549
13410,P,252.537003
13411,P,252.537003
13412,P,-50.0820503
13413,P,-50.0820503
13414,P,-130.493393
13415,P,-130.493393
13416,P,-129.228546
13417,P,-129.228546
13418,P,133.617752
13419,P,133.617752
13420,P,-267.291199
13421,P,-267.291199
13422,P,-201.203735
13423,P,-201.203735
13424,P,-200.094315
13425,P,-200.094315
13426,P,-104.087669
13427,P,-104.087669
13428,P,-404.200073
13429,P,-404.200073
13430,P,121.152176
13431,P,121.152176
13432,P,-261.69989
13433,P,-261.69989
13434,P,11.4796629
13435,P,11.4796629
13436,P,-72.0430984
13437,P,-72.0430984
13438,P,-154.759583
13439,P,-154.759583
13440,P,-155.911362
13441,P,-155.911362
13442,P,-71.3018112
13443,P,-71.3018112
13444,P,-8.61862373
13445,P,-8.61862373
13446,P,-73.001091
13447,P,-73.001091
13448,P,-158.162872
13449,P,-158.162872
13450,P,-73.8811493
13451,P,-73.8811493
13452,P,-157.094452
13453,P,-157.094452
13454,P,260.186035
13455,P,260.186035
13456,P,-306.157074
13457,P,-306.157074
13458,P,-232.140823
13459,P,-232.140823
13460,P,-231.824722
13461,P,-231.824722
13462,P,-159.235031
13463,P,-159.235031
13464,P,-456.931763
13465,P,-456.931763
13466,P,261.907501
13467,P,261.907501
13468,P,-304.716156
13469,P,-304.716156
13470,P,-31.2197838
13471,P,-31.2197838
13472,P,-160.082825
13473,P,-160.082825
13474,P,-75.4623871
13475,P,-75.4623871
13476,P,-159.73909
13477,P,-159.73909
13478,P,-28.2016087
13479,P,-28.2016087
13480,P,-158.950851
13481,P,-158.950851
13482,P,-159.342422
13483,P,-159.342422
13484,P,268.706757
13485,P,268.706757
13486,P,-297.896179
13487,P,-297.896179
13488,P,-225.523392
13489,P,-225.523392
13490,P,-227.131485
13491,P,-227.131485
13492,P,-157.71286
13493,P,-157.71286
13494,P,-455.735077
13495,P,-455.735077
13496,P,265.624054
13497,P,265.624054
13498,P,-303.581482
13499,P,-303.581482
13500,P,103.689781
13501,P,103.689781
13502,P,-153.208267
13503,P,-153.208267
13504,P,-151.452805
13505,P,-151.452805
13506,P,153.886993
13507,P,153.886993
13508,P,-67.3802872
13509,P,-67.3802872
13510,P,-148.120987
13511,P,-148.120987
13512,P,-66.3838425
13513,P,-66.3838425
13514,P,-149.669586
13515,P,-149.669586
13516,P,163.41037
13517,P,163.41037
13518,P,-272.530243
13519,P,-272.530243
13520,P,-208.756821
13521,P,-208.756821
13522,P,-210.314316
13523,P,-210.314316
13524,P,-184.467972
13525,P,-184.467972
13526,P,-421.667328
13527,P,-421.667328
13528,P,168.142838
13529,P,168.142838
13530,P,-280.509369
13531,P,-280.509369
13532,P,277.260162
13533,P,277.260162
13534,P,-141.999191
13535,P,-141.999191
13536,P,-61.6447487
13537,P,-61.6447487
13538,P,-143.158188
13539,P,-143.158188
13540,P,252.50264
13541,P,252.50264
13542,P,-63.6636353
13543,P,-63.6636353
13544,P,-146.368973
13545,P,-146.368973
13546,P,-144.665649
13547,P,-144.665649
13548,P,246.456131
13549,P,246.456131
13550,P,-294.88205
13551,P,-294.88205
13552,P,-223.502243
13553,P,-223.502243
13554,P,-221.255249
13555,P,-221.255249
13556,P,-173.713501
13557,P,-173.713501
13558,P,-427.322021
13559,P,-427.322021
13560,P,227.932434
13561,P,227.932434
13562,P,-284.168823
13563,P,-284.168823
13564,P,283.7948
13565,P,283.7948
13566,P,-56.7613792
13567,P,-56.7613792
13568,P,-136.856583
13569,P,-136.856583
13570,P,-136.610703
13571,P,-136.610703
13572,P,-57.0561676
13573,P,-57.0561676
13574,P,279.753815
13575,P,279.753815
13576,P,-56.6753731
13577,P,-56.6753731
13578,P,-136.73201
13579,P,-136.73201
13580,P,-56.8741989
13581,P,-56.8741989
13582,P,-136.576538
13583,P,-136.576538
13584,P,171.075928
13585,P,171.075928
13586,P,-268.560089
13587,P,-268.560089
13588,P,-203.448807
13589,P,-203.448807
13590,P,-203.318588
13591,P,-203.318588
13592,P,-152.373383
13593,P,-152.373383
13594,P,-408.503235
13595,P,-408.503235
13596,P,171.98204
13597,P,171.98204
13598,P,-267.827362
13599,P,-267.827362
13600,P,265.267303
13601,P,265.267303
13602,P,-136.789291
13603,P,-136.789291
13604,P,-56.6171989
13605,P,-56.6171989
13606,P,-136.69165
13607,P,-136.69165
13608,P,269.634003
13609,P,269.634003
13610,P,-136.757217
13611,P,-136.757217
13612,P,-136.655609
13613,P,-136.655609
13614,P,173.618423
13615,P,173.618423
13616,P,-267.051117
13617,P,-267.051117
13618,P,-203.065063
13619,P,-203.065063
13620,P,-202.91481
13621,P,-202.91481
13622,P,-163.274567
13623,P,-163.274567
13624,P,-407.998535
13625,P,-407.998535
13626,P,173.387253
13627,P,173.387253
13628,P,-267.559235
13629,P,-267.559235
13630,P,293.000183
13631,P,293.000183
13632,P,-136.982498
13633,P,-136.982498
13634,P,-137.076523
13635,P,-137.076523
13636,P,296.312744
13637,P,296.312744
13638,P,-57.5385094
13639,P,-57.5385094
13640,P,-137.910172
13641,P,-137.910172
13642,P,-58.0656013
13643,P,-58.0656013
13644,P,-137.387726
13645,P,-137.387726
13646,P,161.703735
13647,P,161.703735
13648,P,-270.925079
13649,P,-270.925079
13650,P,-207.423523
13651,P,-207.423523
13652,P,-206.182358
13653,P,-206.182358
13654,P,-182.266647
13655,P,-182.266647
13656,P,-406.554199
13657,P,-406.554199
13658,P,165.226257
13659,P,165.226257
13660,P,-268.087738
13661,P,-268.087738
13662,P,299.532623
13663,P,299.532623
13664,P,-140.91481
13665,P,-140.91481
13666,P,-60.7949104
13667,P,-60.7949104
13668,P,-139.794342
13669,P,-139.794342
13670,P,301.593079
13671,P,301.593079
13672,P,-59.0337372
13673,P,-59.0337372
13674,P,-138.466034
13675,P,-138.466034
13676,P,-138.947021
13677,P,-138.947021
13678,P,173.466873
13679,P,173.466873
13680,P,-266.959717
13681,P,-266.959717
13682,P,-203.174011
13683,P,-203.174011
13684,P,-203.306976
13685,P,-203.306976
13686,P,-179.561295
13687,P,-179.561295
13688,P,-406.424408
13689,P,-406.424408
13690,P,172.008774
13691,P,172.008774
13692,P,-267.551208
13693,P,-267.551208
13694,P,432.359619
13695,P,432.359619
13696,P,-41.897995
13697,P,-41.897995
13698,P,-120.713173
13699,P,-120.713173
13700,P,-119.877472
13701,P,-119.877472
13702,P,-42.7087631
13703,P,-42.7087631
13704,P,426.774384
13705,P,426.774384
13706,P,-41.0245705
13707,P,-41.0245705
13708,P,-118.409225
13709,P,-118.409225
13710,P,-40.4728394
13711,P,-40.4728394
13712,P,-119.125679
13713,P,-119.125679
13714,P,199.475311
13715,P,199.475311
13716,P,-235.674896
13717,P,-235.674896
13718,P,-177.129425
13719,P,-177.129425
13720,P,-178.46286
13721,P,-178.46286
13722,P,101.056992
13723,P,101.056992
13724,P,-380.276947
13725,P,-380.276947
13726,P,211.613342
13727,P,211.613342
13728,P,-240.326843
13729,P,-240.326843
13730,P,363.485565
13731,P,363.485565
13732,P,-114.152786
13733,P,-114.152786
13734,P,-36.3439713
13735,P,-36.3439713
13736,P,-115.307518
13737,P,-115.307518
13738,P,383.013916
13739,P,383.013916
13740,P,-117.527275
13741,P,-117.527275
13742,P,-116.37043
13743,P,-116.37043
13744,P,199.392944
13745,P,199.392944
13746,P,-243.784378
13747,P,-243.784378
13748,P,-184.141785
13749,P,-184.141785
13750,P,-183.327225
13751,P,-183.327225
13752,P,94.9403076
13753,P,94.9403076
13754,P,-381.216522
13755,P,-381.216522
13756,P,217.369934
13757,P,217.369934
13758,P,-241.465729
13759,P,-241.465729
13760,P,233.231827
13761,P,233.231827
13762,P,-121.317711
13763,P,-121.317711
13764,P,-121.862808
13765,P,-121.862808
13766,P,231.872986
13767,P,231.872986
13768,P,-44.4125519
13769,P,-44.4125519
13770,P,-123.215858
13771,P,-123.215858
13772,P,-45.1017189
13773,P,-45.1017189
13774,P,-122.473816
13775,P,-122.473816
13776,P,112.701668
13777,P,112.701668
13778,P,-249.936417
13779,P,-249.936417
13780,P,-190.271912
13781,P,-190.271912
13782,P,-189.085175
13783,P,-189.085175
13784,P,14.9808207
13785,P,14.9808207
13786,P,-383.532227
13787,P,-383.532227
13788,P,107.606476
13789,P,107.606476
13790,P,-246.764832
13791,P,-246.764832
13792,P,247.756882
13793,P,247.756882
13794,P,-126.323486
13795,P,-126.323486
13796,P,-48.0156822
13797,P,-48.0156822
13798,P,-125.282959
13799,P,-125.282959
13800,P,243.114166
13801,P,243.114166
13802,P,-46.3045311
13803,P,-46.3045311
13804,P,-123.888008
13805,P,-123.888008
13806,P,-124.466248
13807,P,-124.466248
13808,P,109.400047
13809,P,109.400047
13810,P,-244.309509
13811,P,-244.309509
13812,P,-184.779404
13813,P,-184.779404
13814,P,-185.387466
13815,P,-185.387466
13816,P,30.3068333
13817,P,30.3068333
13818,P,-383.195923
13819,P,-383.195923
13820,P,104.781273
13821,P,104.781273
13822,P,-246.014969
13823,P,-246.014969
13824,P,208.412598
13825,P,208.412598
13826,P,81.2800751
13827,P,81.2800751
13828,P,0.0549658835
13829,P,0.0549658835
13830,P,16.6657524
13831,P,16.6657524
13832,P,68.656189
13833,P,68.656189
13834,P,227.532669
13835,P,227.532669
13836,P,90.4023743
13837,P,90.4023743
13838,P,71.083847
13839,P,71.083847
13840,P,70.7079315
13841,P,70.7079315
13842,P,70.7079315
13843,P,38.4979248
13844,P,38.4979248
13845,P,369.540833
13846,P,369.540833
13847,P,-9.18054104
13848,P,-9.18054104
13849,P,128.946793
13850,P,128.946793
13851,P,96.6908417
13852,P,96.6908417
13853,P,29.2671165
13854,P,29.2671165
13855,P,-247.047256
13856,P,-247.047256
13857,P,359.053009
13858,P,359.053009
13859,P,-90.553215
13860,P,-90.553215
13861,P,307.44043
13862,P,307.44043
13863,P,-155.894714
13864,P,-155.894714
13865,P,-65.6577606
13866,P,-65.6577606
13867,P,-48.1369553
13868,P,-48.1369553
13869,P,13.4023933
13870,P,13.4023933
13871,P,-267.43515
13872,P,-267.43515
13873,P,326.608887
13874,P,326.608887
13875,P,-108.555664
13876,P,-108.555664
13877,P,328.052032
13878,P,328.052032
13879,P,46.3445587
13880,P,46.3445587
13881,P,-13.1788855
13882,P,-13.1788855
13883,P,57.042942
13884,P,57.042942
13885,P,-25.4345303
13886,P,-25.4345303
13887,P,327.962891
13888,P,327.962891
13889,P,-45.6035805
13890,P,-45.6035805
13891,P,28.5397911
13892,P,28.5397911
13893,P,-35.3873405
13894,P,-35.3873405
13895,P,165.957077
13896,P,165.957077
13897,P,-206.044647
13898,P,-206.044647
13899,P,-137.458191
13900,P,-137.458191
13901,P,-131.788055
13902,P,-131.788055
13903,P,235.980621
13904,P,235.980621
13905,P,-340.789642
13906,P,-340.789642
13907,P,168.971634
13908,P,168.971634
13909,P,-193.527023
13910,P,-193.527023
13911,P,300.148956
13912,P,300.148956
13913,P,-73.4531403
13914,P,-73.4531403
13915,P,-67.2941895
13916,P,-67.2941895
13917,P,315.060425
13918,P,315.060425
13919,P,14.2332659
13920,P,14.2332659
13921,P,-53.3727493
13922,P,-53.3727493
13923,P,21.1255341
13924,P,21.1255341
13925,P,-61.003418
13926,P,-61.003418
13927,P,178.568375
13928,P,178.568375
13929,P,-166.516617
13930,P,-166.516617
13931,P,-79.5301208
13932,P,-79.5301208
13933,P,-91.8599472
13934,P,-91.8599472
13935,P,272.056335
13936,P,272.056335
13937,P,-337.156342
13938,P,-337.156342
13939,P,178.762207
13940,P,178.762207
13941,P,-188.68602
13942,P,-188.68602
13943,P,-119.378105
13944,P,-119.378105
13945,P,280.961823
13946,P,280.961823
13947,P,-139.626022
13948,P,-139.626022
13949,P,105.92231
13950,P,105.92231
13951,P,40.9689026
13952,P,40.9689026
13953,P,169.81369
13954,P,169.81369
13955,P,274.734314
13956,P,274.734314
13957,P,201.006805
13958,P,201.006805
13959,P,374.685333
13960,P,374.685333
13961,P,26.0858173
13962,P,26.0858173
13963,P,252.440231
13964,P,252.440231
13965,P,262.075775
13966,P,262.075775
13967,P,85.404213
13968,P,85.404213
13969,P,516.752441
13970,P,516.752441
13971,P,516.752441
13972,P,23.6050854
13973,P,23.6050854
13974,P,157.830627
13975,P,157.830627
13976,P,472.636108
13977,P,472.636108
13978,P,199.082062
13979,P,199.082062
13980,P,107.943588
13981,P,107.943588
13982,P,10.2770109
13983,P,10.2770109
13984,P,468.917908
13985,P,468.917908
13986,P,221.322418
13987,P,221.322418
13988,P,239.662643
13989,P,239.662643
13990,P,203.520737
13991,P,203.520737
13992,P,282.483063
13993,P,282.483063
13994,P,253.570374
13995,P,253.570374
13996,P,486.900818
13997,P,486.900818
13998,P,436.737915
13999,P,436.737915
14000,P,366.459747
14001,P,366.459747
14002,P,569.20697
14003,P,569.20697
14004,P,448.232483
14005,P,448.232483
14006,P,501.940704
14007,P,501.940704
14008,P,822.024841
14009,P,822.024841
14010,P,627.198425
14011,P,627.198425
14012,P,69.4589462
14013,P,69.4589462
14014,P,439.667633
14015,P,439.667633
14016,P,439.667633
14017,P,309.820526
14018,P,309.820526
14019,P,272.239777
14020,P,272.239777
14021,P,226.030991
14022,P,226.030991
14023,P,221.482071
14024,P,221.482071
14025,P,431.496643
14026,P,431.496643
14027,P,365.767212
14028,P,365.767212
14029,P,410.22995
14030,P,410.22995
14031,P,423.128601
14032,P,423.128601
14033,P,453.44223
14034,P,453.44223
14035,P,429.475311
14036,P,429.475311
14037,P,465.652039
14038,P,465.652039
14039,P,481.732361
14040,P,481.732361
14041,P,-2.61287308
14042,P,-2.61287308
14043,P,-44.7887001
14044,P,-44.7887001
14045,P,156.090851
14046,P,156.090851
14047,P,467.452576
14048,P,467.452576
14049,P,387.597534
14050,P,387.597534
14051,P,415.014954
14052,P,415.014954
14053,P,377.464203
14054,P,377.464203
14055,P,405.808929
14056,P,405.808929
14057,P,286.166046
14058,P,286.166046
14059,P,306.221222
14060,P,306.221222
14061,P,265.781342
14062,P,265.781342
14063,P,238.165665
14064,P,238.165665
14065,P,285.631989
14066,P,285.631989
14067,P,305.998627
14068,P,305.998627
14069,P,264.940735
14070,P,264.940735
14071,P,235.725571
14072,P,235.725571
14073,P,387.48822
14074,P,387.48822
14075,P,414.896332
14076,P,414.896332
14077,P,377.382019
14078,P,377.382019
14079,P,405.746796
14080,P,405.746796
14081,P,-2.65822721
14082,P,-2.65822721
14083,P,-44.8044968
14084,P,-44.8044968
14085,P,156.033447
14086,P,156.033447
14087,P,467.403137
14088,P,467.403137
14089,P,453.497467
14090,P,453.497467
14091,P,429.573425
14092,P,429.573425
14093,P,465.682037
14094,P,465.682037
14095,P,481.763885
14096,P,481.763885
14097,P,431.563751
14098,P,431.563751
14099,P,365.897217
14100,P,365.897217
14101,P,410.273254
14102,P,410.273254
14103,P,423.183746
14104,P,423.183746
14105,P,485.14563
14106,P,485.14563
14107,P,274.368408
14108,P,274.368408
14109,P,227.210373
14110,P,227.210373
14111,P,347.29245
14112,P,347.29245
14113,P,300.760834
14114,P,300.760834
14115,P,275.114777
14116,P,275.114777
14117,P,228.003281
14118,P,228.003281
14119,P,229.671234
14120,P,229.671234
14121,P,421.64035
14122,P,421.64035
14123,P,380.802643
14124,P,380.802643
14125,P,412.621429
14126,P,412.621429
14127,P,421.685425
14128,P,421.685425
14129,P,448.344513
14130,P,448.344513
14131,P,435.12149
14132,P,435.12149
14133,P,470.075409
14134,P,470.075409
14135,P,480.567841
14136,P,480.567841
14137,P,-25.5998669
14138,P,-25.5998669
14139,P,-42.1870384
14140,P,-42.1870384
14141,P,250.095734
14142,P,250.095734
14143,P,432.306763
14144,P,432.306763
14145,P,393.269104
14146,P,393.269104
14147,P,408.845642
14148,P,408.845642
14149,P,377.937561
14150,P,377.937561
14151,P,399.5849
14152,P,399.5849
14153,P,278.6922
14154,P,278.6922
14155,P,283.834229
14156,P,283.834229
14157,P,257.890533
14158,P,257.890533
14159,P,245.867447
14160,P,245.867447
14161,P,278.23175
14162,P,278.23175
14163,P,283.567993
14164,P,283.567993
14165,P,256.843781
14166,P,256.843781
14167,P,244.02417
14168,P,244.02417
14169,P,393.165558
14170,P,393.165558
14171,P,408.740051
14172,P,408.740051
14173,P,377.859436
14174,P,377.859436
14175,P,399.528992
14176,P,399.528992
14177,P,-25.6420002
14178,P,-25.6420002
14179,P,-42.2087822
14180,P,-42.2087822
14181,P,250.038177
14182,P,250.038177
14183,P,432.252686
14184,P,432.252686
14185,P,448.403412
14186,P,448.403412
14187,P,435.215607
14188,P,435.215607
14189,P,470.102142
14190,P,470.102142
14191,P,480.593811
14192,P,480.593811
14193,P,421.705231
14194,P,421.705231
14195,P,380.912048
14196,P,380.912048
14197,P,412.651947
14198,P,412.651947
14199,P,421.731171
14200,P,421.731171
14201,P,562.212463
14202,P,562.212463
14203,P,86.5813293
14204,P,86.5813293
14205,P,184.229538
14206,P,184.229538
14207,P,155.300247
14208,P,155.300247
14209,P,148.641342
14210,P,148.641342
14211,P,404.807739
14212,P,404.807739
14213,P,256.901886
14214,P,256.901886
14215,P,238.400406
14216,P,238.400406
14217,P,226.652267
14218,P,226.652267
14219,P,228.264847
14220,P,228.264847
14221,P,477.110626
14222,P,477.110626
14223,P,289.362946
14224,P,289.362946
14225,P,257.429474
14226,P,257.429474
14227,P,952.691589
14228,P,952.691589
14229,P,952.691589
14230,P,417.198242
14231,P,417.198242
14232,P,862.307251
14233,P,862.307251
14234,P,162.25563
14235,P,162.25563
14236,P,178.312317
14237,P,178.312317
14238,P,296.155945
14239,P,296.155945
14240,P,256.113892
14241,P,256.113892
14242,P,116.642349
14243,P,116.642349
14244,P,106.342766
14245,P,106.342766
14246,P,63.9255676
14247,P,63.9255676
14248,P,71.6153183
14249,P,71.6153183
14250,P,8.34506321
14251,P,8.34506321
14252,P,8.85505581
14253,P,8.85505581
14254,P,11.7032022
14255,P,11.7032022
14256,P,10.9905605
14257,P,10.9905605
14258,P,6.80270052
14259,P,6.80270052
14260,P,6.4093523
14261,P,6.4093523
14262,P,4.70875359
14263,P,4.70875359
14264,P,5.14192724
14265,P,5.14192724
14266,P,-1.060323
14267,P,-1.060323
14268,P,-1.00601721
14269,P,-1.00601721
14270,P,-0.984909892
14271,P,-0.984909892
14272,P,-0.996735215
14273,P,-0.996735215
14274,P,-1.53401649
14275,P,-1.53401649
14276,P,-1.78339243
14277,P,-1.78339243
14278,P,-3.43224883
14279,P,-3.43224883
14280,P,-2.89139581
14281,P,-2.89139581
14282,P,-12.1374779
14283,P,-12.1374779
14284,P,-12.7713737
14285,P,-12.7713737
14286,P,-14.2400055
14287,P,-14.2400055
14288,P,-14.0188293
14289,P,-14.0188293
14290,P,-9.83456421
14291,P,-9.83456421
14292,P,-8.95315647
14293,P,-8.95315647
14294,P,-5.59830666
14295,P,-5.59830666
14296,P,-6.40054083
14297,P,-6.40054083
14298,P,-0.452049911
14299,P,-0.452049911
14300,P,-0.649316549
14301,P,-0.649316549
14302,P,-0.99298054
14303,P,-0.99298054
14304,P,-0.924778104
14305,P,-0.924778104
14306,P,0.50053376
14307,P,0.50053376
14308,P,0.903768003
14309,P,0.903768003
14310,P,2.75567985
14311,P,2.75567985
14312,P,2.28272104
14313,P,2.28272104
14314,P,20.33218
14315,P,20.33218
14316,P,18.8992271
14317,P,18.8992271
14318,P,14.0471792
14319,P,14.0471792
14320,P,15.0706806
14321,P,15.0706806
14322,P,25.9103737
14323,P,25.9103737
14324,P,28.2454891
14325,P,28.2454891
14326,P,43.0152473
14327,P,43.0152473
14328,P,38.5983849
14329,P,38.5983849
14330,P,21.2814331
14331,P,21.2814331
14332,P,19.8056774
14333,P,19.8056774
14334,P,14.8040686
14335,P,14.8040686
14336,P,15.8546343
14337,P,15.8546343
14338,P,27.0290279
14339,P,27.0290279
14340,P,29.4143257
14341,P,29.4143257
14342,P,44.4734344
14343,P,44.4734344
14344,P,39.9852562
14345,P,39.9852562
14346,P,-0.202366248
14347,P,-0.202366248
14348,P,-0.407833576
14349,P,-0.407833576
14350,P,-0.780236185
14351,P,-0.780236185
14352,P,-0.706750453
14353,P,-0.706750453
14354,P,0.781078517
14355,P,0.781078517
14356,P,1.19643939
14357,P,1.19643939
14358,P,3.09228253
14359,P,3.09228253
14360,P,2.60270023
14361,P,2.60270023
14362,P,-12.1311922
14363,P,-12.1311922
14364,P,-12.7665281
14365,P,-12.7665281
14366,P,-14.2421255
14367,P,-14.2421255
14368,P,-14.0203495
14369,P,-14.0203495
14370,P,-9.81481552
14371,P,-9.81481552
14372,P,-8.92488098
14373,P,-8.92488098
14374,P,-5.53444481
14375,P,-5.53444481
14376,P,-6.34618568
14377,P,-6.34618568
14378,P,-1.23453176
14379,P,-1.23453176
14380,P,-1.18686414
14381,P,-1.18686414
14382,P,-1.18955159
14383,P,-1.18955159
14384,P,-1.19752181
14385,P,-1.19752181
14386,P,-1.68497372
14387,P,-1.68497372
14388,P,-1.92391455
14389,P,-1.92391455
14390,P,-3.53167725
14391,P,-3.53167725
14392,P,-3.00061607
14393,P,-3.00061607
14394,P,7.80545902
14395,P,7.80545902
14396,P,8.28852558
14397,P,8.28852558
14398,P,11.0255804
14399,P,11.0255804
14400,P,10.3386059
14401,P,10.3386059
14402,P,6.32594252
14403,P,6.32594252
14404,P,5.95354557
14405,P,5.95354557
14406,P,4.3217597
14407,P,4.3217597
14408,P,4.74158859
14409,P,4.74158859
14410,P,160.016479
14411,P,160.016479
14412,P,175.496338
14413,P,175.496338
14414,P,114.436111
14415,P,114.436111
14416,P,104.176689
14417,P,104.176689
14418,P,62.1647377
14419,P,62.1647377
14420,P,69.7834473
14421,P,69.7834473
14422,P,471.582397
14423,P,471.582397
14424,P,589.315247
14425,P,589.315247
14426,P,914.473877
14427,P,914.473877
14428,P,791.549988
14429,P,791.549988
14430,P,793.12207
14431,P,793.12207
14432,P,883.506531
14433,P,883.506531
14434,P,884.112671
14435,P,884.112671
14436,P,827.619934
14437,P,827.619934
14438,P,927.366028
14439,P,927.366028
14440,P,749.099609
14441,P,749.099609
14442,P,634.172241
14443,P,634.172241
14444,P,715.308899
14445,P,715.308899
14446,P,586.964539
14447,P,586.964539
14448,P,825.687622
14449,P,825.687622
14450,P,925.286987
14451,P,925.286987
14452,P,752.58429
14453,P,752.58429
14454,P,637.092102
14455,P,637.092102
14456,P,722.373169
14457,P,722.373169
14458,P,588.152222
14459,P,588.152222
14460,P,972.595764
14461,P,972.595764
14462,P,700.512817
14463,P,700.512817
14464,P,516.519958
14465,P,516.519958
14466,P,369.921326
14467,P,369.921326
14468,P,973.486572
14469,P,973.486572
14470,P,700.63208
14471,P,700.63208
14472,P,515.478516
14473,P,515.478516
14474,P,369.676575
14475,P,369.676575
14476,P,523.745117
14477,P,523.745117
14478,P,337.197876
14479,P,337.197876
14480,P,427.870697
14481,P,427.870697
14482,P,264.280548
14483,P,264.280548
14484,P,264.280548
14485,P,610.241943
14486,P,610.241943
14487,P,530.194397
14488,P,530.194397
14489,P,1011.98944
14490,P,1011.98944
14491,P,1122.50732
14492,P,1122.50732
14493,P,871.490662
14494,P,871.490662
14495,P,346.896576
14496,P,346.896576
14497,P,630.833435
14498,P,630.833435
14499,P,436.831787
14500,P,436.831787
14501,P,314.026245
14502,P,314.026245
14503,P,583.105103
14504,P,583.105103
14505,P,382.108887
14506,P,382.108887
14507,P,1042.17334
14508,P,1042.17334
14509,P,752.305298
14510,P,752.305298
14511,P,373.841919
14512,P,373.841919
14513,P,375.186401
14514,P,375.186401
14515,P,538.507812
14516,P,538.507812
14517,P,538.507812
14518,P,538.507812
14519,P,531.482178
14520,P,531.482178
14521,P,531.482178
14522,P,531.482178
14523,P,-311.81012
14524,P,-311.81012
14525,P,-311.81012
14526,P,-311.861511
14527,P,-311.861511
14528,P,-311.861511
14529,P,883.506531
14530,P,883.506531
14531,P,584.776062
14532,P,584.776062
14533,P,537.260254
14534,P,537.260254
14535,P,884.112671
14536,P,884.112671
14537,P,575.68573
14538,P,575.68573
14539,P,538.46405
14540,P,538.46405
14541,P,-120.079659
14542,P,-120.079659
14543,P,-120.079659
14544,P,-120.110016
14545,P,-120.110016
14546,P,-686.964294
14547,P,-686.964294
14548,P,-686.964294
14549,P,-687.018372
14550,P,-687.018372
14551,P,-687.018372
14552,P,791.549988
14553,P,791.549988
14554,P,793.12207
14555,P,793.12207
14556,P,-178.36348
14557,P,-178.36348
14558,P,-178.36348
14559,P,-77.3742218
14560,P,-77.3742218
14561,P,-77.3742218
14562,P,-178.404831
14563,P,-178.404831
14564,P,-178.404831
14565,P,-77.3799896
14566,P,-77.3799896
*BOUNDARY
MOUNT, 1, 6
*END STEP
