*HEADING
Wing shell from CFD pressure
*NODE
1,0.00256032008,-0.0145023,-0.296875
2,0.00256032008,-0.0145023,-0.289063007
3,0.00256032008,-0.0145023,-0.28125
4,0.00256032008,-0.0145023,-0.273438007
5,0.00256032008,-0.0145023,-0.265625
6,0.00256032008,-0.0145023,-0.257813007
7,0.00256032008,-0.0145023,-0.25
8,0.00256032008,-0.0145023,-0.242188007
9,0.00256032008,-0.0145023,-0.234375
10,0.00256032008,-0.0145023,-0.226563007
11,0.00256032008,-0.0145023,-0.21875
12,0.00256032008,-0.0145023,-0.210938007
13,0.00256032008,-0.0145023,-0.203125
14,0.00256032008,-0.0145023,-0.195313007
15,0.00256032008,-0.0145023,-0.1875
16,0.00256032008,-0.0145023,-0.179688007
17,0.00256032008,-0.0145023,-0.171875
18,0.00256032008,-0.0145023,-0.164063007
19,0.00256032008,-0.0145023,-0.15625
20,0.00256032008,-0.0145023,-0.148438007
21,0.00256032008,-0.0145023,-0.140625
22,0.00256032008,-0.0145023,-0.132811993
23,0.00256032008,-0.0145023,-0.125
24,0.00256032008,-0.0145023,-0.117187999
25,0.00256032008,-0.0145023,-0.109375
26,0.00256032008,-0.0145023,-0.101562001
27,0.00256032008,-0.0145023,-0.09375
28,0.00256032008,-0.0145023,-0.0859375
29,0.00256032008,-0.0145023,-0.078125
30,0.00256032008,-0.0145023,-0.0703125
31,0.00256032008,-0.0145023,-0.0625
32,0.00256032008,-0.0145023,-0.0546875
33,0.00256032008,-0.0145023,-0.046875
34,0.00256032008,-0.0145023,-0.0390625
35,0.00256032008,-0.0145023,-0.03125
36,0.00256032008,-0.0145023,-0.0234375
37,0.00256032008,-0.0145023,-0.015625
38,0.00256032008,-0.0145023,-0.0078125
39,0.00256032008,-0.0145023,-0
40,0.00256032008,-0.0145023,0.0078125
41,0.00256032008,-0.0145023,0.015625
42,0.00256032008,-0.0145023,0.0234375
43,0.00256032008,-0.0145023,0.03125
44,0.00256032008,-0.0145023,0.0390625
45,0.00256032008,-0.0145023,0.046875
46,0.00256032008,-0.0145023,0.0546875
47,0.00256032008,-0.0145023,0.0625
48,0.00256032008,-0.0145023,0.0703125
49,0.00256032008,-0.0145023,0.078125
50,0.00256032008,-0.0145023,0.0859375
51,0.00256032008,-0.0145023,0.09375
52,0.00256032008,-0.0145023,0.101562001
53,0.00256032008,-0.0145023,0.109375
54,0.00256032008,-0.0145023,0.117187999
55,0.00256032008,-0.0145023,0.125
56,0.00256032008,-0.0145023,0.132811993
57,0.00256032008,-0.0145023,0.140625
58,0.00256032008,-0.0145023,0.148438007
59,0.00256032008,-0.0145023,0.15625
60,0.00256032008,-0.0145023,0.164063007
61,0.00256032008,-0.0145023,0.171875
62,0.00256032008,-0.0145023,0.179686993
63,0.00256032008,-0.0145023,0.1875
64,0.00256032008,-0.0145023,0.195311993
65,0.00256032008,-0.0145023,0.203125
66,0.00256032008,-0.0145023,0.210938007
67,0.00256032008,-0.0145023,0.21875
68,0.00256032008,-0.0145023,0.226563007
69,0.00256032008,-0.0145023,0.234375
70,0.00256032008,-0.0145023,0.242186993
71,0.00256032008,-0.0145023,0.25
72,0.00256032008,-0.0145023,0.257811993
73,0.00256032008,-0.0145023,0.265625
74,0.00256032008,-0.0145023,0.273436993
75,0.00256032008,-0.0145023,0.28125
76,0.00256032008,-0.0145023,0.289061993
77,0.00256032008,-0.0145023,0.296875
78,0.00259102997,-0.0145931002,-0.390338987
79,0.00259102997,-0.0145931002,0.390338987
80,0.00265184999,-0.0145269996,-0.382811993
81,0.00265184999,-0.0145269996,0.382811993
82,0.00269346009,-0.0145381996,-0.374998987
83,0.00269346009,-0.0145381996,0.374998987
84,0.00273505994,-0.0145493997,-0.367186993
85,0.00273505994,-0.0145493997,0.367186993
86,0.00277666003,-0.0145605998,-0.359375
87,0.00277666003,-0.0145605998,0.359375
88,0.00281826989,-0.0145717999,-0.351561993
89,0.00281826989,-0.0145717999,0.351561993
90,0.00285986997,-0.0145830996,-0.34375
91,0.00285986997,-0.0145830996,0.34375
92,0.00290147006,-0.0145942997,-0.335938007
93,0.00290147006,-0.0145942997,0.335938007
94,0.00294307992,-0.0146054998,-0.328126013
95,0.00294307992,-0.0146054998,0.328126013
96,0.00298468,-0.0146166999,-0.320313007
97,0.00298468,-0.0146166999,0.320313007
98,0.00302628009,-0.0146279,-0.312501013
99,0.00302628009,-0.0146279,0.312501013
100,0.00306788995,-0.0146391997,-0.30468899
101,0.00306788995,-0.0146391997,0.30468899
102,0.0041274,-0.0163633991,0.395981014
103,0.00412946008,-0.0163605008,-0.395981014
104,0.00520423008,-0.0206356999,-0.395951986
105,0.00520423008,-0.0206356999,0.395951986
106,0.00529997004,-0.0207455009,-0.390311003
107,0.00529997004,-0.0207455009,0.390311003
108,0.00532869017,-0.0207784008,-0.382813007
109,0.00532869017,-0.0207784008,-0.375
110,0.00532869017,-0.0207784008,-0.367188007
111,0.00532869017,-0.0207784008,-0.359375
112,0.00532869017,-0.0207784008,-0.351563007
113,0.00532869017,-0.0207784008,-0.34375
114,0.00532869017,-0.0207784008,-0.335938007
115,0.00532869017,-0.0207784008,-0.328125
116,0.00532869017,-0.0207784008,-0.320313007
117,0.00532869017,-0.0207784008,-0.3125
118,0.00532869017,-0.0207784008,-0.304686993
119,0.00532869017,-0.0207784008,-0.296875
120,0.00532869017,-0.0207784008,-0.289061993
121,0.00532869017,-0.0207784008,-0.28125
122,0.00532869017,-0.0207784008,-0.273438007
123,0.00532869017,-0.0207784008,-0.265625
124,0.00532869017,-0.0207784008,-0.257813007
125,0.00532869017,-0.0207784008,-0.25
126,0.00532869017,-0.0207784008,-0.242186993
127,0.00532869017,-0.0207784008,-0.234375
128,0.00532869017,-0.0207784008,-0.226563007
129,0.00532869017,-0.0207784008,-0.21875
130,0.00532869017,-0.0207784008,-0.210938007
131,0.00532869017,-0.0207784008,-0.203125
132,0.00532869017,-0.0207784008,-0.195311993
133,0.00532869017,-0.0207784008,-0.1875
134,0.00532869017,-0.0207784008,-0.179686993
135,0.00532869017,-0.0207784008,-0.171875
136,0.00532869017,-0.0207784008,-0.164061993
137,0.00532869017,-0.0207784008,-0.15625
138,0.00532869017,-0.0207784008,-0.148438007
139,0.00532869017,-0.0207784008,-0.140625
140,0.00532869017,-0.0207784008,-0.132811993
141,0.00532869017,-0.0207784008,-0.125
142,0.00532869017,-0.0207784008,-0.117187999
143,0.00532869017,-0.0207784008,-0.109375
144,0.00532869017,-0.0207784008,-0.101562999
145,0.00532869017,-0.0207784008,-0.09375
146,0.00532869017,-0.0207784008,-0.0859375
147,0.00532869017,-0.0207784008,-0.078125
148,0.00532869017,-0.0207784008,-0.0703125
149,0.00532869017,-0.0207784008,-0.0625
150,0.00532869017,-0.0207784008,-0.0546875
151,0.00532869017,-0.0207784008,-0.046875
152,0.00532869017,-0.0207784008,-0.0390625
153,0.00532869017,-0.0207784008,-0.03125
154,0.00532869017,-0.0207784008,-0.0234375
155,0.00532869017,-0.0207784008,-0.015625
156,0.00532869017,-0.0207784008,-0.0078125
157,0.00532869017,-0.0207784008,0
158,0.00532869017,-0.0207784008,0.0078125
159,0.00532869017,-0.0207784008,0.015625
160,0.00532869017,-0.0207784008,0.0234375
161,0.00532869017,-0.0207784008,0.03125
162,0.00532869017,-0.0207784008,0.0390625
163,0.00532869017,-0.0207784008,0.046875
164,0.00532869017,-0.0207784008,0.0546875
165,0.00532869017,-0.0207784008,0.0625
166,0.00532869017,-0.0207784008,0.0703125
167,0.00532869017,-0.0207784008,0.078125
168,0.00532869017,-0.0207784008,0.0859375
169,0.00532869017,-0.0207784008,0.09375
170,0.00532869017,-0.0207784008,0.101562999
171,0.00532869017,-0.0207784008,0.109375
172,0.00532869017,-0.0207784008,0.117187001
173,0.00532869017,-0.0207784008,0.125
174,0.00532869017,-0.0207784008,0.132811993
175,0.00532869017,-0.0207784008,0.140625
176,0.00532869017,-0.0207784008,0.148438007
177,0.00532869017,-0.0207784008,0.15625
178,0.00532869017,-0.0207784008,0.164061993
179,0.00532869017,-0.0207784008,0.171875
180,0.00532869017,-0.0207784008,0.179688007
181,0.00532869017,-0.0207784008,0.1875
182,0.00532869017,-0.0207784008,0.195313007
183,0.00532869017,-0.0207784008,0.203125
184,0.00532869017,-0.0207784008,0.210936993
185,0.00532869017,-0.0207784008,0.21875
186,0.00532869017,-0.0207784008,0.226563007
187,0.00532869017,-0.0207784008,0.234375
188,0.00532869017,-0.0207784008,0.242186993
189,0.00532869017,-0.0207784008,0.25
190,0.00532869017,-0.0207784008,0.257811993
191,0.00532869017,-0.0207784008,0.265625
192,0.00532869017,-0.0207784008,0.273438007
193,0.00532869017,-0.0207784008,0.28125
194,0.00532869017,-0.0207784008,0.289061993
195,0.00532869017,-0.0207784008,0.296875
196,0.00532869017,-0.0207784008,0.304686993
197,0.00532869017,-0.0207784008,0.3125
198,0.00532869017,-0.0207784008,0.320311993
199,0.00532869017,-0.0207784008,0.328125
200,0.00532869017,-0.0207784008,0.335938007
201,0.00532869017,-0.0207784008,0.34375
202,0.00532869017,-0.0207784008,0.351561993
203,0.00532869017,-0.0207784008,0.359375
204,0.00532869017,-0.0207784008,0.367188007
205,0.00532869017,-0.0207784008,0.375
206,0.00532869017,-0.0207784008,0.382811993
207,0.0128322998,-0.0231020991,-0.396348
208,0.0128322998,-0.0231020991,0.396348
209,0.0132905999,-0.0142333005,-0.39664799
210,0.0132919997,-0.0142598003,0.39664799
211,0.0133047001,-0.0232567005,-0.390347004
212,0.0133047001,-0.0232567005,0.390347004
213,0.0133339996,-0.0232621003,-0.382811993
214,0.0133339996,-0.0232621003,-0.375
215,0.0133339996,-0.0232621003,-0.367188007
216,0.0133339996,-0.0232621003,-0.359375
217,0.0133339996,-0.0232621003,-0.351561993
218,0.0133339996,-0.0232621003,-0.34375
219,0.0133339996,-0.0232621003,-0.335938007
220,0.0133339996,-0.0232621003,-0.328125
221,0.0133339996,-0.0232621003,-0.320311993
222,0.0133339996,-0.0232621003,-0.3125
223,0.0133339996,-0.0232621003,-0.304688007
224,0.0133339996,-0.0232621003,-0.296875
225,0.0133339996,-0.0232621003,-0.289063007
226,0.0133339996,-0.0232621003,-0.28125
227,0.0133339996,-0.0232621003,-0.273436993
228,0.0133339996,-0.0232621003,-0.265625
229,0.0133339996,-0.0232621003,-0.257813007
230,0.0133339996,-0.0232621003,-0.25
231,0.0133339996,-0.0232621003,-0.242188007
232,0.0133339996,-0.0232621003,-0.234375
233,0.0133339996,-0.0232621003,-0.226563007
234,0.0133339996,-0.0232621003,-0.21875
235,0.0133339996,-0.0232621003,-0.210938007
236,0.0133339996,-0.0232621003,-0.203125
237,0.0133339996,-0.0232621003,-0.195311993
238,0.0133339996,-0.0232621003,-0.1875
239,0.0133339996,-0.0232621003,-0.179688007
240,0.0133339996,-0.0232621003,-0.171875
241,0.0133339996,-0.0232621003,-0.164061993
242,0.0133339996,-0.0232621003,-0.15625
243,0.0133339996,-0.0232621003,-0.148438007
244,0.0133339996,-0.0232621003,-0.140625
245,0.0133339996,-0.0232621003,-0.132811993
246,0.0133339996,-0.0232621003,-0.125
247,0.0133339996,-0.0232621003,-0.117187001
248,0.0133339996,-0.0232621003,-0.109375
249,0.0133339996,-0.0232621003,-0.101562001
250,0.0133339996,-0.0232621003,-0.09375
251,0.0133339996,-0.0232621003,-0.0859375
252,0.0133339996,-0.0232621003,-0.078125
253,0.0133339996,-0.0232621003,-0.0703125
254,0.0133339996,-0.0232621003,-0.0625
255,0.0133339996,-0.0232621003,-0.0546875
256,0.0133339996,-0.0232621003,-0.046875
257,0.0133339996,-0.0232621003,-0.0390625
258,0.0133339996,-0.0232621003,-0.03125
259,0.0133339996,-0.0232621003,-0.0234375
260,0.0133339996,-0.0232621003,-0.015625
261,0.0133339996,-0.0232621003,-0.0078125
262,0.0133339996,-0.0232621003,1e-12
263,0.0133339996,-0.0232621003,0.0078125
264,0.0133339996,-0.0232621003,0.015625
265,0.0133339996,-0.0232621003,0.0234375
266,0.0133339996,-0.0232621003,0.03125
267,0.0133339996,-0.0232621003,0.0390625
268,0.0133339996,-0.0232621003,0.046875
269,0.0133339996,-0.0232621003,0.0546875
270,0.0133339996,-0.0232621003,0.0625
271,0.0133339996,-0.0232621003,0.0703125
272,0.0133339996,-0.0232621003,0.078125
273,0.0133339996,-0.0232621003,0.0859375
274,0.0133339996,-0.0232621003,0.09375
275,0.0133339996,-0.0232621003,0.101562001
276,0.0133339996,-0.0232621003,0.109375
277,0.0133339996,-0.0232621003,0.117187001
278,0.0133339996,-0.0232621003,0.125
279,0.0133339996,-0.0232621003,0.132813007
280,0.0133339996,-0.0232621003,0.140625
281,0.0133339996,-0.0232621003,0.148438007
282,0.0133339996,-0.0232621003,0.15625
283,0.0133339996,-0.0232621003,0.164061993
284,0.0133339996,-0.0232621003,0.171875
285,0.0133339996,-0.0232621003,0.179688007
286,0.0133339996,-0.0232621003,0.1875
287,0.0133339996,-0.0232621003,0.195313007
288,0.0133339996,-0.0232621003,0.203125
289,0.0133339996,-0.0232621003,0.210938007
290,0.0133339996,-0.0232621003,0.21875
291,0.0133339996,-0.0232621003,0.226563007
292,0.0133339996,-0.0232621003,0.234375
293,0.0133339996,-0.0232621003,0.242188007
294,0.0133339996,-0.0232621003,0.25
295,0.0133339996,-0.0232621003,0.257813007
296,0.0133339996,-0.0232621003,0.265625
297,0.0133339996,-0.0232621003,0.273436993
298,0.0133339996,-0.0232621003,0.28125
299,0.0133339996,-0.0232621003,0.289063007
300,0.0133339996,-0.0232621003,0.296875
301,0.0133339996,-0.0232621003,0.304686993
302,0.0133339996,-0.0232621003,0.3125
303,0.0133339996,-0.0232621003,0.320313007
304,0.0133339996,-0.0232621003,0.328125
305,0.0133339996,-0.0232621003,0.335938007
306,0.0133339996,-0.0232621003,0.34375
307,0.0133339996,-0.0232621003,0.351561993
308,0.0133339996,-0.0232621003,0.359375
309,0.0133339996,-0.0232621003,0.367186993
310,0.0133339996,-0.0232621003,0.375
311,0.0133339996,-0.0232621003,0.382813007
312,0.0150830997,-0.00258381991,-0.382813007
313,0.0150830997,-0.00258381991,-0.375
314,0.0150830997,-0.00258381991,-0.367188007
315,0.0150830997,-0.00258381991,-0.359375
316,0.0150830997,-0.00258381991,-0.351561993
317,0.0150830997,-0.00258381991,-0.34375
318,0.0150830997,-0.00258381991,-0.335938007
319,0.0150830997,-0.00258381991,-0.328125
320,0.0150830997,-0.00258381991,-0.320311993
321,0.0150830997,-0.00258381991,-0.3125
322,0.0150830997,-0.00258381991,-0.304688007
323,0.0150830997,-0.00258381991,-0.296875
324,0.0150830997,-0.00258381991,-0.289063007
325,0.0150830997,-0.00258381991,-0.28125
326,0.0150830997,-0.00258381991,-0.273438007
327,0.0150830997,-0.00258381991,-0.265625
328,0.0150830997,-0.00258381991,-0.257811993
329,0.0150830997,-0.00258381991,-0.25
330,0.0150830997,-0.00258381991,-0.242188007
331,0.0150830997,-0.00258381991,-0.234375
332,0.0150830997,-0.00258381991,-0.226561993
333,0.0150830997,-0.00258381991,-0.21875
334,0.0150830997,-0.00258381991,-0.210938007
335,0.0150830997,-0.00258381991,-0.203125
336,0.0150830997,-0.00258381991,-0.195311993
337,0.0150830997,-0.00258381991,-0.1875
338,0.0150830997,-0.00258381991,-0.179688007
339,0.0150830997,-0.00258381991,-0.171875
340,0.0150830997,-0.00258381991,-0.164063007
341,0.0150830997,-0.00258381991,-0.15625
342,0.0150830997,-0.00258381991,-0.148438007
343,0.0150830997,-0.00258381991,-0.140625
344,0.0150830997,-0.00258381991,-0.132813007
345,0.0150830997,-0.00258381991,-0.125
346,0.0150830997,-0.00258381991,-0.117187999
347,0.0150830997,-0.00258381991,-0.109375
348,0.0150830997,-0.00258381991,-0.101562999
349,0.0150830997,-0.00258381991,-0.09375
350,0.0150830997,-0.00258381991,-0.0859375
351,0.0150830997,-0.00258381991,-0.078125
352,0.0150830997,-0.00258381991,-0.0703125
353,0.0150830997,-0.00258381991,-0.0625
354,0.0150830997,-0.00258381991,-0.0546875
355,0.0150830997,-0.00258381991,-0.046875
356,0.0150830997,-0.00258381991,-0.0390625
357,0.0150830997,-0.00258381991,-0.03125
358,0.0150830997,-0.00258381991,-0.0234375
359,0.0150830997,-0.00258381991,-0.015625
360,0.0150830997,-0.00258381991,-0.0078125
361,0.0150830997,-0.00258381991,0
362,0.0150830997,-0.00258381991,0.0078125
363,0.0150830997,-0.00258381991,0.015625
364,0.0150830997,-0.00258381991,0.0234375
365,0.0150830997,-0.00258381991,0.03125
366,0.0150830997,-0.00258381991,0.0390625
367,0.0150830997,-0.00258381991,0.046875
368,0.0150830997,-0.00258381991,0.0546875
369,0.0150830997,-0.00258381991,0.0625
370,0.0150830997,-0.00258381991,0.0703125
371,0.0150830997,-0.00258381991,0.078125
372,0.0150830997,-0.00258381991,0.0859375
373,0.0150830997,-0.00258381991,0.09375
374,0.0150830997,-0.00258381991,0.101562001
375,0.0150830997,-0.00258381991,0.109375
376,0.0150830997,-0.00258381991,0.117187999
377,0.0150830997,-0.00258381991,0.125
378,0.0150830997,-0.00258381991,0.132811993
379,0.0150830997,-0.00258381991,0.140625
380,0.0150830997,-0.00258381991,0.148438007
381,0.0150830997,-0.00258381991,0.15625
382,0.0150830997,-0.00258381991,0.164063007
383,0.0150830997,-0.00258381991,0.171875
384,0.0150830997,-0.00258381991,0.179686993
385,0.0150830997,-0.00258381991,0.1875
386,0.0150830997,-0.00258381991,0.195311993
387,0.0150830997,-0.00258381991,0.203125
388,0.0150830997,-0.00258381991,0.210938007
389,0.0150830997,-0.00258381991,0.21875
390,0.0150830997,-0.00258381991,0.226563007
391,0.0150830997,-0.00258381991,0.234375
392,0.0150830997,-0.00258381991,0.242186993
393,0.0150830997,-0.00258381991,0.25
394,0.0150830997,-0.00258381991,0.257813007
395,0.0150830997,-0.00258381991,0.265625
396,0.0150830997,-0.00258381991,0.273436993
397,0.0150830997,-0.00258381991,0.28125
398,0.0150830997,-0.00258381991,0.289063007
399,0.0150830997,-0.00258381991,0.296875
400,0.0150830997,-0.00258381991,0.304686993
401,0.0150830997,-0.00258381991,0.3125
402,0.0150830997,-0.00258381991,0.320313007
403,0.0150830997,-0.00258381991,0.328125
404,0.0150830997,-0.00258381991,0.335938007
405,0.0150830997,-0.00258381991,0.34375
406,0.0150830997,-0.00258381991,0.351563007
407,0.0150830997,-0.00258381991,0.359375
408,0.0150830997,-0.00258381991,0.367188007
409,0.0150830997,-0.00258381991,0.375
410,0.0150830997,-0.00258381991,0.382811993
411,0.0150905,-0.00257969997,-0.390363008
412,0.0150905,-0.00257969997,0.390363008
413,0.0153061999,-0.00258283992,-0.396081001
414,0.0153061999,-0.00258283992,0.396081001
415,0.0234066006,0.00144628005,-0.396418005
416,0.0234066006,0.00144628005,0.396418005
417,0.0243845005,0.00201033009,-0.335938007
418,0.0243845005,0.00201033009,-0.328125
419,0.0243845005,0.00201033009,-0.320311993
420,0.0243845005,0.00201033009,-0.3125
421,0.0243845005,0.00201033009,-0.304688007
422,0.0243845005,0.00201033009,-0.296875
423,0.0243845005,0.00201033009,-0.289063007
424,0.0243845005,0.00201033009,-0.28125
425,0.0243845005,0.00201033009,-0.273438007
426,0.0243845005,0.00201033009,-0.265625
427,0.0243845005,0.00201033009,-0.257811993
428,0.0243845005,0.00201033009,-0.25
429,0.0243845005,0.00201033009,-0.242188007
430,0.0243845005,0.00201033009,-0.234375
431,0.0243845005,0.00201033009,-0.226563007
432,0.0243845005,0.00201033009,-0.21875
433,0.0243845005,0.00201033009,-0.210936993
434,0.0243845005,0.00201033009,-0.203125
435,0.0243845005,0.00201033009,-0.195311993
436,0.0243845005,0.00201033009,-0.1875
437,0.0243845005,0.00201033009,-0.179688007
438,0.0243845005,0.00201033009,-0.171875
439,0.0243845005,0.00201033009,-0.164061993
440,0.0243845005,0.00201033009,-0.15625
441,0.0243845005,0.00201033009,-0.148436993
442,0.0243845005,0.00201033009,-0.140625
443,0.0243845005,0.00201033009,-0.132813007
444,0.0243845005,0.00201033009,-0.125
445,0.0243845005,0.00201033009,-0.117187001
446,0.0243845005,0.00201033009,-0.109375
447,0.0243845005,0.00201033009,-0.101562999
448,0.0243845005,0.00201033009,-0.09375
449,0.0243845005,0.00201033009,-0.0859375
450,0.0243845005,0.00201033009,-0.078125
451,0.0243845005,0.00201033009,-0.0703125
452,0.0243845005,0.00201033009,-0.0625
453,0.0243845005,0.00201033009,-0.0546875
454,0.0243845005,0.00201033009,-0.046875
455,0.0243845005,0.00201033009,-0.0390625
456,0.0243845005,0.00201033009,-0.03125
457,0.0243845005,0.00201033009,-0.0234375
458,0.0243845005,0.00201033009,-0.015625
459,0.0243845005,0.00201033009,-0.0078125
460,0.0243845005,0.00201033009,0
461,0.0243845005,0.00201033009,0.0078125
462,0.0243845005,0.00201033009,0.015625
463,0.0243845005,0.00201033009,0.0234375
464,0.0243845005,0.00201033009,0.03125
465,0.0243845005,0.00201033009,0.0390625
466,0.0243845005,0.00201033009,0.046875
467,0.0243845005,0.00201033009,0.0546875
468,0.0243845005,0.00201033009,0.0625
469,0.0243845005,0.00201033009,0.0703125
470,0.0243845005,0.00201033009,0.078125
471,0.0243845005,0.00201033009,0.0859375
472,0.0243845005,0.00201033009,0.09375
473,0.0243845005,0.00201033009,0.101562999
474,0.0243845005,0.00201033009,0.109375
475,0.0243845005,0.00201033009,0.117187001
476,0.0243845005,0.00201033009,0.125
477,0.0243845005,0.00201033009,0.132811993
478,0.0243845005,0.00201033009,0.140625
479,0.0243845005,0.00201033009,0.148436993
480,0.0243845005,0.00201033009,0.15625
481,0.0243845005,0.00201033009,0.164063007
482,0.0243845005,0.00201033009,0.171875
483,0.0243845005,0.00201033009,0.179688007
484,0.0243845005,0.00201033009,0.1875
485,0.0243845005,0.00201033009,0.195311993
486,0.0243845005,0.00201033009,0.203125
487,0.0243845005,0.00201033009,0.210938007
488,0.0243845005,0.00201033009,0.21875
489,0.0243845005,0.00201033009,0.226563007
490,0.0243845005,0.00201033009,0.234375
491,0.0243845005,0.00201033009,0.242186993
492,0.0243845005,0.00201033009,0.25
493,0.0243845005,0.00201033009,0.257811993
494,0.0243845005,0.00201033009,0.265625
495,0.0243845005,0.00201033009,0.273438007
496,0.0243845005,0.00201033009,0.28125
497,0.0243845005,0.00201033009,0.289063007
498,0.0243845005,0.00201033009,0.296875
499,0.0243845005,0.00201033009,0.304686993
500,0.0243845005,0.00201033009,0.3125
501,0.0243845005,0.00201033009,0.320311993
502,0.0243845005,0.00201033009,0.328125
503,0.0243845005,0.00201033009,0.335936993
504,0.0245255008,0.00172006001,-0.390345991
505,0.0245255008,0.00172006001,0.390345991
506,0.0246172007,0.00148489,-0.382797003
507,0.0246172007,0.00148489,0.382797003
508,0.0247227997,0.00124652998,-0.374992996
509,0.0247227997,0.00124652998,0.374992996
510,0.0248284005,0.00100817997,-0.36718899
511,0.0248284005,0.00100817997,0.36718899
512,0.0249339994,0.000769822975,-0.359385997
513,0.0249339994,0.000769822975,0.359385997
514,0.0249374993,-0.0115288999,-0.398330986
515,0.0249524992,-0.0115833003,0.398330986
516,0.0249930006,-0.0239829998,-0.396508008
517,0.0249930006,-0.0239829998,0.396508008
518,0.0250013005,-0.0240851995,-0.390372992
519,0.0250013005,-0.0240851995,0.390372992
520,0.0250017997,-0.0240851995,-0.382811993
521,0.0250017997,-0.0240851995,-0.375
522,0.0250017997,-0.0240851995,-0.367188007
523,0.0250017997,-0.0240851995,-0.359375
524,0.0250017997,-0.0240851995,-0.351561993
525,0.0250017997,-0.0240851995,-0.34375
526,0.0250017997,-0.0240851995,-0.335938007
527,0.0250017997,-0.0240851995,-0.328125
528,0.0250017997,-0.0240851995,-0.320311993
529,0.0250017997,-0.0240851995,-0.3125
530,0.0250017997,-0.0240851995,-0.304688007
531,0.0250017997,-0.0240851995,-0.296875
532,0.0250017997,-0.0240851995,-0.289063007
533,0.0250017997,-0.0240851995,-0.28125
534,0.0250017997,-0.0240851995,-0.273438007
535,0.0250017997,-0.0240851995,-0.265625
536,0.0250017997,-0.0240851995,-0.257811993
537,0.0250017997,-0.0240851995,-0.25
538,0.0250017997,-0.0240851995,-0.242186993
539,0.0250017997,-0.0240851995,-0.234375
540,0.0250017997,-0.0240851995,-0.226561993
541,0.0250017997,-0.0240851995,-0.21875
542,0.0250017997,-0.0240851995,-0.210938007
543,0.0250017997,-0.0240851995,-0.203125
544,0.0250017997,-0.0240851995,-0.195311993
545,0.0250017997,-0.0240851995,-0.1875
546,0.0250017997,-0.0240851995,-0.179688007
547,0.0250017997,-0.0240851995,-0.171875
548,0.0250017997,-0.0240851995,-0.164061993
549,0.0250017997,-0.0240851995,-0.15625
550,0.0250017997,-0.0240851995,-0.148436993
551,0.0250017997,-0.0240851995,-0.140625
552,0.0250017997,-0.0240851995,-0.132813007
553,0.0250017997,-0.0240851995,-0.125
554,0.0250017997,-0.0240851995,-0.117187999
555,0.0250017997,-0.0240851995,-0.109375
556,0.0250017997,-0.0240851995,-0.101562001
557,0.0250017997,-0.0240851995,-0.09375
558,0.0250017997,-0.0240851995,-0.0859375
559,0.0250017997,-0.0240851995,-0.078125
560,0.0250017997,-0.0240851995,-0.0703125
561,0.0250017997,-0.0240851995,-0.0625
562,0.0250017997,-0.0240851995,-0.0546875
563,0.0250017997,-0.0240851995,-0.046875
564,0.0250017997,-0.0240851995,-0.0390625
565,0.0250017997,-0.0240851995,-0.03125
566,0.0250017997,-0.0240851995,-0.0234375
567,0.0250017997,-0.0240851995,-0.015625
568,0.0250017997,-0.0240851995,-0.0078125
569,0.0250017997,-0.0240851995,0
570,0.0250017997,-0.0240851995,0.0078125
571,0.0250017997,-0.0240851995,0.015625
572,0.0250017997,-0.0240851995,0.0234375
573,0.0250017997,-0.0240851995,0.03125
574,0.0250017997,-0.0240851995,0.0390625
575,0.0250017997,-0.0240851995,0.046875
576,0.0250017997,-0.0240851995,0.0546875
577,0.0250017997,-0.0240851995,0.0625
578,0.0250017997,-0.0240851995,0.0703125
579,0.0250017997,-0.0240851995,0.078125
580,0.0250017997,-0.0240851995,0.0859375
581,0.0250017997,-0.0240851995,0.09375
582,0.0250017997,-0.0240851995,0.101562999
583,0.0250017997,-0.0240851995,0.109375
584,0.0250017997,-0.0240851995,0.117187001
585,0.0250017997,-0.0240851995,0.125
586,0.0250017997,-0.0240851995,0.132813007
587,0.0250017997,-0.0240851995,0.140625
588,0.0250017997,-0.0240851995,0.148438007
589,0.0250017997,-0.0240851995,0.15625
590,0.0250017997,-0.0240851995,0.164063007
591,0.0250017997,-0.0240851995,0.171875
592,0.0250017997,-0.0240851995,0.179688007
593,0.0250017997,-0.0240851995,0.1875
594,0.0250017997,-0.0240851995,0.195313007
595,0.0250017997,-0.0240851995,0.203125
596,0.0250017997,-0.0240851995,0.210936993
597,0.0250017997,-0.0240851995,0.21875
598,0.0250017997,-0.0240851995,0.226563007
599,0.0250017997,-0.0240851995,0.234375
600,0.0250017997,-0.0240851995,0.242188007
601,0.0250017997,-0.0240851995,0.25
602,0.0250017997,-0.0240851995,0.257811993
603,0.0250017997,-0.0240851995,0.265625
604,0.0250017997,-0.0240851995,0.273436993
605,0.0250017997,-0.0240851995,0.28125
606,0.0250017997,-0.0240851995,0.289061993
607,0.0250017997,-0.0240851995,0.296875
608,0.0250017997,-0.0240851995,0.304688007
609,0.0250017997,-0.0240851995,0.3125
610,0.0250017997,-0.0240851995,0.320313007
611,0.0250017997,-0.0240851995,0.328125
612,0.0250017997,-0.0240851995,0.335938007
613,0.0250017997,-0.0240851995,0.34375
614,0.0250017997,-0.0240851995,0.351561993
615,0.0250017997,-0.0240851995,0.359375
616,0.0250017997,-0.0240851995,0.367186993
617,0.0250017997,-0.0240851995,0.375
618,0.0250017997,-0.0240851995,0.382811993
619,0.0250396002,0.000531467027,-0.351581991
620,0.0250396002,0.000531467027,0.351581991
621,0.0251451991,0.000293110992,-0.343778014
622,0.0251451991,0.000293110992,0.343778014
623,0.0350895002,0.00622138986,-0.396696001
624,0.0350895002,0.00622138986,0.396696001
625,0.0367354006,-0.00878939964,-0.398575991
626,0.0367633998,-0.0088723097,0.398575991
627,0.0373018011,-0.0236060005,-0.382811993
628,0.0373018011,-0.0236060005,-0.375
629,0.0373018011,-0.0236060005,-0.367188007
630,0.0373018011,-0.0236060005,-0.359375
631,0.0373018011,-0.0236060005,-0.351561993
632,0.0373018011,-0.0236060005,-0.34375
633,0.0373018011,-0.0236060005,-0.335938007
634,0.0373018011,-0.0236060005,-0.328125
635,0.0373018011,-0.0236060005,-0.320311993
636,0.0373018011,-0.0236060005,-0.3125
637,0.0373018011,-0.0236060005,-0.304688007
638,0.0373018011,-0.0236060005,-0.296875
639,0.0373018011,-0.0236060005,-0.289063007
640,0.0373018011,-0.0236060005,-0.28125
641,0.0373018011,-0.0236060005,-0.273438007
642,0.0373018011,-0.0236060005,-0.265625
643,0.0373018011,-0.0236060005,-0.257811993
644,0.0373018011,-0.0236060005,-0.25
645,0.0373018011,-0.0236060005,-0.242188007
646,0.0373018011,-0.0236060005,-0.234375
647,0.0373018011,-0.0236060005,-0.226561993
648,0.0373018011,-0.0236060005,-0.21875
649,0.0373018011,-0.0236060005,-0.210938007
650,0.0373018011,-0.0236060005,-0.203125
651,0.0373018011,-0.0236060005,-0.195311993
652,0.0373018011,-0.0236060005,-0.1875
653,0.0373018011,-0.0236060005,-0.179688007
654,0.0373018011,-0.0236060005,-0.171875
655,0.0373018011,-0.0236060005,-0.164063007
656,0.0373018011,-0.0236060005,-0.15625
657,0.0373018011,-0.0236060005,-0.148436993
658,0.0373018011,-0.0236060005,-0.140625
659,0.0373018011,-0.0236060005,-0.132813007
660,0.0373018011,-0.0236060005,-0.125
661,0.0373018011,-0.0236060005,-0.117187999
662,0.0373018011,-0.0236060005,-0.109375
663,0.0373018011,-0.0236060005,-0.101562001
664,0.0373018011,-0.0236060005,-0.09375
665,0.0373018011,-0.0236060005,-0.0859375
666,0.0373018011,-0.0236060005,-0.078125
667,0.0373018011,-0.0236060005,-0.0703125
668,0.0373018011,-0.0236060005,-0.0625
669,0.0373018011,-0.0236060005,-0.0546875
670,0.0373018011,-0.0236060005,-0.046875
671,0.0373018011,-0.0236060005,-0.0390625
672,0.0373018011,-0.0236060005,-0.03125
673,0.0373018011,-0.0236060005,-0.0234375
674,0.0373018011,-0.0236060005,-0.015625
675,0.0373018011,-0.0236060005,-0.0078125
676,0.0373018011,-0.0236060005,0
677,0.0373018011,-0.0236060005,0.0078125
678,0.0373018011,-0.0236060005,0.015625
679,0.0373018011,-0.0236060005,0.0234375
680,0.0373018011,-0.0236060005,0.03125
681,0.0373018011,-0.0236060005,0.0390625
682,0.0373018011,-0.0236060005,0.046875
683,0.0373018011,-0.0236060005,0.0546875
684,0.0373018011,-0.0236060005,0.0625
685,0.0373018011,-0.0236060005,0.0703125
686,0.0373018011,-0.0236060005,0.078125
687,0.0373018011,-0.0236060005,0.0859375
688,0.0373018011,-0.0236060005,0.09375
689,0.0373018011,-0.0236060005,0.101562001
690,0.0373018011,-0.0236060005,0.109375
691,0.0373018011,-0.0236060005,0.117187001
692,0.0373018011,-0.0236060005,0.125
693,0.0373018011,-0.0236060005,0.132811993
694,0.0373018011,-0.0236060005,0.140625
695,0.0373018011,-0.0236060005,0.148436993
696,0.0373018011,-0.0236060005,0.15625
697,0.0373018011,-0.0236060005,0.164063007
698,0.0373018011,-0.0236060005,0.171875
699,0.0373018011,-0.0236060005,0.179686993
700,0.0373018011,-0.0236060005,0.1875
701,0.0373018011,-0.0236060005,0.195311993
702,0.0373018011,-0.0236060005,0.203125
703,0.0373018011,-0.0236060005,0.210936993
704,0.0373018011,-0.0236060005,0.21875
705,0.0373018011,-0.0236060005,0.226561993
706,0.0373018011,-0.0236060005,0.234375
707,0.0373018011,-0.0236060005,0.242186993
708,0.0373018011,-0.0236060005,0.25
709,0.0373018011,-0.0236060005,0.257813007
710,0.0373018011,-0.0236060005,0.265625
711,0.0373018011,-0.0236060005,0.273436993
712,0.0373018011,-0.0236060005,0.28125
713,0.0373018011,-0.0236060005,0.289061993
714,0.0373018011,-0.0236060005,0.296875
715,0.0373018011,-0.0236060005,0.304688007
716,0.0373018011,-0.0236060005,0.3125
717,0.0373018011,-0.0236060005,0.320311993
718,0.0373018011,-0.0236060005,0.328125
719,0.0373018011,-0.0236060005,0.335938007
720,0.0373018011,-0.0236060005,0.34375
721,0.0373018011,-0.0236060005,0.351561993
722,0.0373018011,-0.0236060005,0.359375
723,0.0373018011,-0.0236060005,0.367186993
724,0.0373018011,-0.0236060005,0.375
725,0.0373018011,-0.0236060005,0.382811993
726,0.0373430997,-0.0236028004,-0.390372992
727,0.0373430997,-0.0236028004,0.390372992
728,0.0376078002,-0.0234590005,-0.396578014
729,0.0376078002,-0.0234590005,0.396578014
730,0.0405789018,0.00832890999,-0.382813007
731,0.0405789018,0.00832890999,-0.375
732,0.0405789018,0.00832890999,-0.367188007
733,0.0405789018,0.00832890999,-0.359375
734,0.0405789018,0.00832890999,-0.351561993
735,0.0405789018,0.00832890999,-0.34375
736,0.0405789018,0.00832890999,-0.335938007
737,0.0405789018,0.00832890999,-0.328125
738,0.0405789018,0.00832890999,-0.320311993
739,0.0405789018,0.00832890999,-0.3125
740,0.0405789018,0.00832890999,-0.304688007
741,0.0405789018,0.00832890999,-0.296875
742,0.0405789018,0.00832890999,-0.289063007
743,0.0405789018,0.00832890999,-0.28125
744,0.0405789018,0.00832890999,-0.273438007
745,0.0405789018,0.00832890999,-0.265625
746,0.0405789018,0.00832890999,-0.257811993
747,0.0405789018,0.00832890999,-0.25
748,0.0405789018,0.00832890999,-0.242188007
749,0.0405789018,0.00832890999,-0.234375
750,0.0405789018,0.00832890999,-0.226563007
751,0.0405789018,0.00832890999,-0.21875
752,0.0405789018,0.00832890999,-0.210938007
753,0.0405789018,0.00832890999,-0.203125
754,0.0405789018,0.00832890999,-0.195311993
755,0.0405789018,0.00832890999,-0.1875
756,0.0405789018,0.00832890999,-0.179688007
757,0.0405789018,0.00832890999,-0.171875
758,0.0405789018,0.00832890999,-0.164061993
759,0.0405789018,0.00832890999,-0.15625
760,0.0405789018,0.00832890999,-0.148436993
761,0.0405789018,0.00832890999,-0.140625
762,0.0405789018,0.00832890999,-0.132813007
763,0.0405789018,0.00832890999,-0.125
764,0.0405789018,0.00832890999,-0.117187001
765,0.0405789018,0.00832890999,-0.109375
766,0.0405789018,0.00832890999,-0.101562001
767,0.0405789018,0.00832890999,-0.09375
768,0.0405789018,0.00832890999,-0.0859375
769,0.0405789018,0.00832890999,-0.078125
770,0.0405789018,0.00832890999,-0.0703125
771,0.0405789018,0.00832890999,-0.0625
772,0.0405789018,0.00832890999,-0.0546875
773,0.0405789018,0.00832890999,-0.046875
774,0.0405789018,0.00832890999,-0.0390625
775,0.0405789018,0.00832890999,-0.03125
776,0.0405789018,0.00832890999,-0.0234375
777,0.0405789018,0.00832890999,-0.015625
778,0.0405789018,0.00832890999,-0.0078125
779,0.0405789018,0.00832890999,0
780,0.0405789018,0.00832890999,0.0078125
781,0.0405789018,0.00832890999,0.015625
782,0.0405789018,0.00832890999,0.0234375
783,0.0405789018,0.00832890999,0.03125
784,0.0405789018,0.00832890999,0.0390625
785,0.0405789018,0.00832890999,0.046875
786,0.0405789018,0.00832890999,0.0546875
787,0.0405789018,0.00832890999,0.0625
788,0.0405789018,0.00832890999,0.0703125
789,0.0405789018,0.00832890999,0.078125
790,0.0405789018,0.00832890999,0.0859375
791,0.0405789018,0.00832890999,0.09375
792,0.0405789018,0.00832890999,0.101562001
793,0.0405789018,0.00832890999,0.109375
794,0.0405789018,0.00832890999,0.117187001
795,0.0405789018,0.00832890999,0.125
796,0.0405789018,0.00832890999,0.132811993
797,0.0405789018,0.00832890999,0.140625
798,0.0405789018,0.00832890999,0.148436993
799,0.0405789018,0.00832890999,0.15625
800,0.0405789018,0.00832890999,0.164061993
801,0.0405789018,0.00832890999,0.171875
802,0.0405789018,0.00832890999,0.179688007
803,0.0405789018,0.00832890999,0.1875
804,0.0405789018,0.00832890999,0.195313007
805,0.0405789018,0.00832890999,0.203125
806,0.0405789018,0.00832890999,0.210938007
807,0.0405789018,0.00832890999,0.21875
808,0.0405789018,0.00832890999,0.226561993
809,0.0405789018,0.00832890999,0.234375
810,0.0405789018,0.00832890999,0.242186993
811,0.0405789018,0.00832890999,0.25
812,0.0405789018,0.00832890999,0.257811993
813,0.0405789018,0.00832890999,0.265625
814,0.0405789018,0.00832890999,0.273436993
815,0.0405789018,0.00832890999,0.28125
816,0.0405789018,0.00832890999,0.289063007
817,0.0405789018,0.00832890999,0.296875
818,0.0405789018,0.00832890999,0.304686993
819,0.0405789018,0.00832890999,0.3125
820,0.0405789018,0.00832890999,0.320311993
821,0.0405789018,0.00832890999,0.328125
822,0.0405789018,0.00832890999,0.335936993
823,0.0405789018,0.00832890999,0.34375
824,0.0405789018,0.00832890999,0.351563007
825,0.0405789018,0.00832890999,0.359375
826,0.0405789018,0.00832890999,0.367188007
827,0.0405789018,0.00832890999,0.375
828,0.0405789018,0.00832890999,0.382811993
829,0.0406479985,0.00835280027,-0.390363008
830,0.0406479985,0.00835280027,0.390363008
831,0.0410140008,0.00847928971,-0.396117002
832,0.0410140008,0.00847928971,0.396117002
833,0.0485863984,-0.00603757007,-0.39873001
834,0.0486280993,-0.00614893995,0.39873001
835,0.0495116003,-0.0223552994,-0.382811993
836,0.0495116003,-0.0223552994,-0.375
837,0.0495116003,-0.0223552994,-0.367188007
838,0.0495116003,-0.0223552994,-0.359375
839,0.0495116003,-0.0223552994,-0.351561993
840,0.0495116003,-0.0223552994,-0.34375
841,0.0495116003,-0.0223552994,-0.335938007
842,0.0495116003,-0.0223552994,-0.328125
843,0.0495116003,-0.0223552994,-0.320311993
844,0.0495116003,-0.0223552994,-0.3125
845,0.0495116003,-0.0223552994,-0.304688007
846,0.0495116003,-0.0223552994,-0.296875
847,0.0495116003,-0.0223552994,-0.289061993
848,0.0495116003,-0.0223552994,-0.28125
849,0.0495116003,-0.0223552994,-0.273438007
850,0.0495116003,-0.0223552994,-0.265625
851,0.0495116003,-0.0223552994,-0.257811993
852,0.0495116003,-0.0223552994,-0.25
853,0.0495116003,-0.0223552994,-0.242188007
854,0.0495116003,-0.0223552994,-0.234375
855,0.0495116003,-0.0223552994,-0.226561993
856,0.0495116003,-0.0223552994,-0.21875
857,0.0495116003,-0.0223552994,-0.210938007
858,0.0495116003,-0.0223552994,-0.203125
859,0.0495116003,-0.0223552994,-0.195311993
860,0.0495116003,-0.0223552994,-0.1875
861,0.0495116003,-0.0223552994,-0.179688007
862,0.0495116003,-0.0223552994,-0.171875
863,0.0495116003,-0.0223552994,-0.164063007
864,0.0495116003,-0.0223552994,-0.15625
865,0.0495116003,-0.0223552994,-0.148438007
866,0.0495116003,-0.0223552994,-0.140625
867,0.0495116003,-0.0223552994,-0.132811993
868,0.0495116003,-0.0223552994,-0.125
869,0.0495116003,-0.0223552994,-0.117187999
870,0.0495116003,-0.0223552994,-0.109375
871,0.0495116003,-0.0223552994,-0.101562001
872,0.0495116003,-0.0223552994,-0.09375
873,0.0495116003,-0.0223552994,-0.0859375
874,0.0495116003,-0.0223552994,-0.078125
875,0.0495116003,-0.0223552994,-0.0703125
876,0.0495116003,-0.0223552994,-0.0625
877,0.0495116003,-0.0223552994,-0.0546875
878,0.0495116003,-0.0223552994,-0.046875
879,0.0495116003,-0.0223552994,-0.0390625
880,0.0495116003,-0.0223552994,-0.03125
881,0.0495116003,-0.0223552994,-0.0234375
882,0.0495116003,-0.0223552994,-0.015625
883,0.0495116003,-0.0223552994,-0.0078125
884,0.0495116003,-0.0223552994,0
885,0.0495116003,-0.0223552994,0.0078125
886,0.0495116003,-0.0223552994,0.015625
887,0.0495116003,-0.0223552994,0.0234375
888,0.0495116003,-0.0223552994,0.03125
889,0.0495116003,-0.0223552994,0.0390625
890,0.0495116003,-0.0223552994,0.046875
891,0.0495116003,-0.0223552994,0.0546875
892,0.0495116003,-0.0223552994,0.0625
893,0.0495116003,-0.0223552994,0.0703125
894,0.0495116003,-0.0223552994,0.078125
895,0.0495116003,-0.0223552994,0.0859375
896,0.0495116003,-0.0223552994,0.09375
897,0.0495116003,-0.0223552994,0.101562001
898,0.0495116003,-0.0223552994,0.109375
899,0.0495116003,-0.0223552994,0.117187001
900,0.0495116003,-0.0223552994,0.125
901,0.0495116003,-0.0223552994,0.132811993
902,0.0495116003,-0.0223552994,0.140625
903,0.0495116003,-0.0223552994,0.148436993
904,0.0495116003,-0.0223552994,0.15625
905,0.0495116003,-0.0223552994,0.164063007
906,0.0495116003,-0.0223552994,0.171875
907,0.0495116003,-0.0223552994,0.179686993
908,0.0495116003,-0.0223552994,0.1875
909,0.0495116003,-0.0223552994,0.195313007
910,0.0495116003,-0.0223552994,0.203125
911,0.0495116003,-0.0223552994,0.210936993
912,0.0495116003,-0.0223552994,0.21875
913,0.0495116003,-0.0223552994,0.226561993
914,0.0495116003,-0.0223552994,0.234375
915,0.0495116003,-0.0223552994,0.242186993
916,0.0495116003,-0.0223552994,0.25
917,0.0495116003,-0.0223552994,0.257811993
918,0.0495116003,-0.0223552994,0.265625
919,0.0495116003,-0.0223552994,0.273436993
920,0.0495116003,-0.0223552994,0.28125
921,0.0495116003,-0.0223552994,0.289063007
922,0.0495116003,-0.0223552994,0.296875
923,0.0495116003,-0.0223552994,0.304686993
924,0.0495116003,-0.0223552994,0.3125
925,0.0495116003,-0.0223552994,0.320311993
926,0.0495116003,-0.0223552994,0.328125
927,0.0495116003,-0.0223552994,0.335938007
928,0.0495116003,-0.0223552994,0.34375
929,0.0495116003,-0.0223552994,0.351561993
930,0.0495116003,-0.0223552994,0.359375
931,0.0495116003,-0.0223552994,0.367186993
932,0.0495116003,-0.0223552994,0.375
933,0.0495116003,-0.0223552994,0.382813007
934,0.0495785996,-0.0223466009,-0.390372992
935,0.0495785996,-0.0223466009,0.390372992
936,0.0498115011,0.0112132002,-0.396450013
937,0.0498116985,0.0112127997,0.396450013
938,0.0500069,-0.0221548993,-0.396623999
939,0.0500069,-0.0221548993,0.396623999
940,0.0507601015,0.0116646001,0.390347004
941,0.0507601984,0.0116643002,-0.390347004
942,0.0508351997,0.0116876001,-0.382811993
943,0.0508351997,0.0116876001,-0.375
944,0.0508351997,0.0116876001,-0.367188007
945,0.0508351997,0.0116876001,-0.359375
946,0.0508351997,0.0116876001,-0.351561993
947,0.0508351997,0.0116876001,-0.34375
948,0.0508351997,0.0116876001,-0.335938007
949,0.0508351997,0.0116876001,-0.328125
950,0.0508351997,0.0116876001,-0.320311993
951,0.0508351997,0.0116876001,-0.3125
952,0.0508351997,0.0116876001,-0.304688007
953,0.0508351997,0.0116876001,-0.296875
954,0.0508351997,0.0116876001,-0.289061993
955,0.0508351997,0.0116876001,-0.28125
956,0.0508351997,0.0116876001,-0.273438007
957,0.0508351997,0.0116876001,-0.265625
958,0.0508351997,0.0116876001,-0.257811993
959,0.0508351997,0.0116876001,-0.25
960,0.0508351997,0.0116876001,-0.242186993
961,0.0508351997,0.0116876001,-0.234375
962,0.0508351997,0.0116876001,-0.226561993
963,0.0508351997,0.0116876001,-0.21875
964,0.0508351997,0.0116876001,-0.210938007
965,0.0508351997,0.0116876001,-0.203125
966,0.0508351997,0.0116876001,-0.195311993
967,0.0508351997,0.0116876001,-0.1875
968,0.0508351997,0.0116876001,-0.179688007
969,0.0508351997,0.0116876001,-0.171875
970,0.0508351997,0.0116876001,-0.164061993
971,0.0508351997,0.0116876001,-0.15625
972,0.0508351997,0.0116876001,-0.148438007
973,0.0508351997,0.0116876001,-0.140625
974,0.0508351997,0.0116876001,-0.132813007
975,0.0508351997,0.0116876001,-0.125
976,0.0508351997,0.0116876001,-0.117187001
977,0.0508351997,0.0116876001,-0.109375
978,0.0508351997,0.0116876001,-0.101562999
979,0.0508351997,0.0116876001,-0.09375
980,0.0508351997,0.0116876001,-0.0859375
981,0.0508351997,0.0116876001,-0.078125
982,0.0508351997,0.0116876001,-0.0703125
983,0.0508351997,0.0116876001,-0.0625
984,0.0508351997,0.0116876001,-0.0546875
985,0.0508351997,0.0116876001,-0.046875
986,0.0508351997,0.0116876001,-0.0390625
987,0.0508351997,0.0116876001,-0.03125
988,0.0508351997,0.0116876001,-0.0234375
989,0.0508351997,0.0116876001,-0.015625
990,0.0508351997,0.0116876001,-0.0078125
991,0.0508351997,0.0116876001,-1e-12
992,0.0508351997,0.0116876001,0.0078125
993,0.0508351997,0.0116876001,0.015625
994,0.0508351997,0.0116876001,0.0234375
995,0.0508351997,0.0116876001,0.03125
996,0.0508351997,0.0116876001,0.0390625
997,0.0508351997,0.0116876001,0.046875
998,0.0508351997,0.0116876001,0.0546875
999,0.0508351997,0.0116876001,0.0625
1000,0.0508351997,0.0116876001,0.0703125
1001,0.0508351997,0.0116876001,0.078125
1002,0.0508351997,0.0116876001,0.0859375
1003,0.0508351997,0.0116876001,0.09375
1004,0.0508351997,0.0116876001,0.101562999
1005,0.0508351997,0.0116876001,0.109375
1006,0.0508351997,0.0116876001,0.117187001
1007,0.0508351997,0.0116876001,0.125
1008,0.0508351997,0.0116876001,0.132811993
1009,0.0508351997,0.0116876001,0.140625
1010,0.0508351997,0.0116876001,0.148436993
1011,0.0508351997,0.0116876001,0.15625
1012,0.0508351997,0.0116876001,0.164063007
1013,0.0508351997,0.0116876001,0.171875
1014,0.0508351997,0.0116876001,0.179686993
1015,0.0508351997,0.0116876001,0.1875
1016,0.0508351997,0.0116876001,0.195311993
1017,0.0508351997,0.0116876001,0.203125
1018,0.0508351997,0.0116876001,0.210936993
1019,0.0508351997,0.0116876001,0.21875
1020,0.0508351997,0.0116876001,0.226561993
1021,0.0508351997,0.0116876001,0.234375
1022,0.0508351997,0.0116876001,0.242188007
1023,0.0508351997,0.0116876001,0.25
1024,0.0508351997,0.0116876001,0.257811993
1025,0.0508351997,0.0116876001,0.265625
1026,0.0508351997,0.0116876001,0.273438007
1027,0.0508351997,0.0116876001,0.28125
1028,0.0508351997,0.0116876001,0.289063007
1029,0.0508351997,0.0116876001,0.296875
1030,0.0508351997,0.0116876001,0.304686993
1031,0.0508351997,0.0116876001,0.3125
1032,0.0508351997,0.0116876001,0.320313007
1033,0.0508351997,0.0116876001,0.328125
1034,0.0508351997,0.0116876001,0.335936993
1035,0.0508351997,0.0116876001,0.34375
1036,0.0508351997,0.0116876001,0.351561993
1037,0.0508351997,0.0116876001,0.359375
1038,0.0508351997,0.0116876001,0.367186993
1039,0.0508351997,0.0116876001,0.375
1040,0.0508351997,0.0116876997,0.382813007
1041,0.0512680002,-0.00541491015,-0.398644
1042,0.0512832999,-0.00553925009,0.398644
1043,0.0608323999,0.0144659998,-0.396295995
1044,0.0608386993,0.0144437002,0.396297008
1045,0.0613012016,-0.0206380002,-0.382811993
1046,0.0613012016,-0.0206380002,-0.375
1047,0.0613012016,-0.0206380002,-0.367188007
1048,0.0613012016,-0.0206380002,-0.359375
1049,0.0613012016,-0.0206380002,-0.351561993
1050,0.0613012016,-0.0206380002,-0.34375
1051,0.0613012016,-0.0206380002,-0.335938007
1052,0.0613012016,-0.0206380002,-0.328125
1053,0.0613012016,-0.0206380002,-0.320311993
1054,0.0613012016,-0.0206380002,-0.3125
1055,0.0613012016,-0.0206380002,-0.304688007
1056,0.0613012016,-0.0206380002,-0.296875
1057,0.0613012016,-0.0206380002,-0.289063007
1058,0.0613012016,-0.0206380002,-0.28125
1059,0.0613012016,-0.0206380002,-0.273438007
1060,0.0613012016,-0.0206380002,-0.265625
1061,0.0613012016,-0.0206380002,-0.257811993
1062,0.0613012016,-0.0206380002,-0.25
1063,0.0613012016,-0.0206380002,-0.242186993
1064,0.0613012016,-0.0206380002,-0.234375
1065,0.0613012016,-0.0206380002,-0.226561993
1066,0.0613012016,-0.0206380002,-0.21875
1067,0.0613012016,-0.0206380002,-0.210938007
1068,0.0613012016,-0.0206380002,-0.203125
1069,0.0613012016,-0.0206380002,-0.195311993
1070,0.0613012016,-0.0206380002,-0.1875
1071,0.0613012016,-0.0206380002,-0.179688007
1072,0.0613012016,-0.0206380002,-0.171875
1073,0.0613012016,-0.0206380002,-0.164063007
1074,0.0613012016,-0.0206380002,-0.15625
1075,0.0613012016,-0.0206380002,-0.148438007
1076,0.0613012016,-0.0206380002,-0.140625
1077,0.0613012016,-0.0206380002,-0.132813007
1078,0.0613012016,-0.0206380002,-0.125
1079,0.0613012016,-0.0206380002,-0.117187001
1080,0.0613012016,-0.0206380002,-0.109375
1081,0.0613012016,-0.0206380002,-0.101562999
1082,0.0613012016,-0.0206380002,-0.09375
1083,0.0613012016,-0.0206380002,-0.0859375
1084,0.0613012016,-0.0206380002,-0.078125
1085,0.0613012016,-0.0206380002,-0.0703125
1086,0.0613012016,-0.0206380002,-0.0625
1087,0.0613012016,-0.0206380002,-0.0546875
1088,0.0613012016,-0.0206380002,-0.046875
1089,0.0613012016,-0.0206380002,-0.0390625
1090,0.0613012016,-0.0206380002,-0.03125
1091,0.0613012016,-0.0206380002,-0.0234375
1092,0.0613012016,-0.0206380002,-0.015625
1093,0.0613012016,-0.0206380002,-0.0078125
1094,0.0613012016,-0.0206380002,-0
1095,0.0613012016,-0.0206380002,0.0078125
1096,0.0613012016,-0.0206380002,0.015625
1097,0.0613012016,-0.0206380002,0.0234375
1098,0.0613012016,-0.0206380002,0.03125
1099,0.0613012016,-0.0206380002,0.0390625
1100,0.0613012016,-0.0206380002,0.046875
1101,0.0613012016,-0.0206380002,0.0546875
1102,0.0613012016,-0.0206380002,0.0625
1103,0.0613012016,-0.0206380002,0.0703125
1104,0.0613012016,-0.0206380002,0.078125
1105,0.0613012016,-0.0206380002,0.0859375
1106,0.0613012016,-0.0206380002,0.09375
1107,0.0613012016,-0.0206380002,0.101562999
1108,0.0613012016,-0.0206380002,0.109375
1109,0.0613012016,-0.0206380002,0.117187999
1110,0.0613012016,-0.0206380002,0.125
1111,0.0613012016,-0.0206380002,0.132811993
1112,0.0613012016,-0.0206380002,0.140625
1113,0.0613012016,-0.0206380002,0.148436993
1114,0.0613012016,-0.0206380002,0.15625
1115,0.0613012016,-0.0206380002,0.164063007
1116,0.0613012016,-0.0206380002,0.171875
1117,0.0613012016,-0.0206380002,0.179686993
1118,0.0613012016,-0.0206380002,0.1875
1119,0.0613012016,-0.0206380002,0.195313007
1120,0.0613012016,-0.0206380002,0.203125
1121,0.0613012016,-0.0206380002,0.210936993
1122,0.0613012016,-0.0206380002,0.21875
1123,0.0613012016,-0.0206380002,0.226563007
1124,0.0613012016,-0.0206380002,0.234375
1125,0.0613012016,-0.0206380002,0.242186993
1126,0.0613012016,-0.0206380002,0.25
1127,0.0613012016,-0.0206380002,0.257813007
1128,0.0613012016,-0.0206380002,0.265625
1129,0.0613012016,-0.0206380002,0.273436993
1130,0.0613012016,-0.0206380002,0.28125
1131,0.0613012016,-0.0206380002,0.289063007
1132,0.0613012016,-0.0206380002,0.296875
1133,0.0613012016,-0.0206380002,0.304688007
1134,0.0613012016,-0.0206380002,0.3125
1135,0.0613012016,-0.0206380002,0.320311993
1136,0.0613012016,-0.0206380002,0.328125
1137,0.0613012016,-0.0206380002,0.335938007
1138,0.0613012016,-0.0206380002,0.34375
1139,0.0613012016,-0.0206380002,0.351561993
1140,0.0613012016,-0.0206380002,0.359375
1141,0.0613012016,-0.0206380002,0.367186993
1142,0.0613012016,-0.0206380002,0.375
1143,0.0613012016,-0.0206380002,0.382811993
1144,0.0613205992,-0.0206348002,-0.390347004
1145,0.0613205992,-0.0206348002,0.390347004
1146,0.0616830997,0.0148726003,-0.359375
1147,0.0616830997,0.0148726003,-0.351561993
1148,0.0616830997,0.0148726003,-0.34375
1149,0.0616830997,0.0148726003,-0.335938007
1150,0.0616830997,0.0148726003,-0.328125
1151,0.0616830997,0.0148726003,-0.320311993
1152,0.0616830997,0.0148726003,-0.3125
1153,0.0616830997,0.0148726003,-0.304688007
1154,0.0616830997,0.0148726003,-0.296875
1155,0.0616830997,0.0148726003,-0.289063007
1156,0.0616830997,0.0148726003,-0.28125
1157,0.0616830997,0.0148726003,-0.273438007
1158,0.0616830997,0.0148726003,-0.265625
1159,0.0616830997,0.0148726003,-0.257811993
1160,0.0616830997,0.0148726003,-0.25
1161,0.0616830997,0.0148726003,-0.242188007
1162,0.0616830997,0.0148726003,-0.234375
1163,0.0616830997,0.0148726003,-0.226561993
1164,0.0616830997,0.0148726003,-0.21875
1165,0.0616830997,0.0148726003,-0.210938007
1166,0.0616830997,0.0148726003,-0.203125
1167,0.0616830997,0.0148726003,-0.195311993
1168,0.0616830997,0.0148726003,-0.1875
1169,0.0616830997,0.0148726003,-0.179688007
1170,0.0616830997,0.0148726003,-0.171875
1171,0.0616830997,0.0148726003,-0.164063007
1172,0.0616830997,0.0148726003,-0.15625
1173,0.0616830997,0.0148726003,-0.148438007
1174,0.0616830997,0.0148726003,-0.140625
1175,0.0616830997,0.0148726003,-0.132813007
1176,0.0616830997,0.0148726003,-0.125
1177,0.0616830997,0.0148726003,-0.117187999
1178,0.0616830997,0.0148726003,-0.109375
1179,0.0616830997,0.0148726003,-0.101562999
1180,0.0616830997,0.0148726003,-0.09375
1181,0.0616830997,0.0148726003,-0.0859375
1182,0.0616830997,0.0148726003,-0.078125
1183,0.0616830997,0.0148726003,-0.0703125
1184,0.0616830997,0.0148726003,-0.0625
1185,0.0616830997,0.0148726003,-0.0546875
1186,0.0616830997,0.0148726003,-0.046875
1187,0.0616830997,0.0148726003,-0.0390625
1188,0.0616830997,0.0148726003,-0.03125
1189,0.0616830997,0.0148726003,-0.0234375
1190,0.0616830997,0.0148726003,-0.015625
1191,0.0616830997,0.0148726003,-0.0078125
1192,0.0616830997,0.0148726003,0
1193,0.0616830997,0.0148726003,0.0078125
1194,0.0616830997,0.0148726003,0.015625
1195,0.0616830997,0.0148726003,0.0234375
1196,0.0616830997,0.0148726003,0.03125
1197,0.0616830997,0.0148726003,0.0390625
1198,0.0616830997,0.0148726003,0.046875
1199,0.0616830997,0.0148726003,0.0546875
1200,0.0616830997,0.0148726003,0.0625
1201,0.0616830997,0.0148726003,0.0703125
1202,0.0616830997,0.0148726003,0.078125
1203,0.0616830997,0.0148726003,0.0859375
1204,0.0616830997,0.0148726003,0.09375
1205,0.0616830997,0.0148726003,0.101562999
1206,0.0616830997,0.0148726003,0.109375
1207,0.0616830997,0.0148726003,0.117187001
1208,0.0616830997,0.0148726003,0.125
1209,0.0616830997,0.0148726003,0.132813007
1210,0.0616830997,0.0148726003,0.140625
1211,0.0616830997,0.0148726003,0.148436993
1212,0.0616830997,0.0148726003,0.15625
1213,0.0616830997,0.0148726003,0.164061993
1214,0.0616830997,0.0148726003,0.171875
1215,0.0616830997,0.0148726003,0.179686993
1216,0.0616830997,0.0148726003,0.1875
1217,0.0616830997,0.0148726003,0.195311993
1218,0.0616830997,0.0148726003,0.203125
1219,0.0616830997,0.0148726003,0.210936993
1220,0.0616830997,0.0148726003,0.21875
1221,0.0616830997,0.0148726003,0.226561993
1222,0.0616830997,0.0148726003,0.234375
1223,0.0616830997,0.0148726003,0.242186993
1224,0.0616830997,0.0148726003,0.25
1225,0.0616830997,0.0148726003,0.257811993
1226,0.0616830997,0.0148726003,0.265625
1227,0.0616830997,0.0148726003,0.273436993
1228,0.0616830997,0.0148726003,0.28125
1229,0.0616830997,0.0148726003,0.289063007
1230,0.0616830997,0.0148726003,0.296875
1231,0.0616830997,0.0148726003,0.304686993
1232,0.0616830997,0.0148726003,0.3125
1233,0.0616830997,0.0148726003,0.320313007
1234,0.0616830997,0.0148726003,0.328125
1235,0.0616830997,0.0148726003,0.335938007
1236,0.0616830997,0.0148726003,0.34375
1237,0.0616830997,0.0148726003,0.351561993
1238,0.0616830997,0.0148726003,0.359375
1239,0.0618771985,0.0144846002,-0.390303999
1240,0.061878901,0.0144785,0.390303999
1241,0.0618983991,-0.0205410998,-0.396530002
1242,0.0618983991,-0.0205410998,0.396530002
1243,0.0619756989,0.0138152,-0.37501201
1244,0.0619756989,0.0138152,0.37501201
1245,0.0620025992,0.0141791999,-0.382838011
1246,0.0620026998,0.0141789,0.382838011
1247,0.0620670989,0.0134853004,-0.367215008
1248,0.0620670989,0.0134853004,0.367215008
1249,0.0629106984,-0.00271076988,-0.398575991
1250,0.0629391968,-0.00286095007,0.398575991
1251,0.0637508035,-0.0201532003,0.398225009
1252,0.0637509003,-0.0201536007,-0.398225009
1253,0.0699051991,0.0168877002,-0.39588201
1254,0.0699748993,0.0166199002,0.395893991
1255,0.0711563006,-0.0189069007,0.396117002
1256,0.0711563006,-0.0189068001,-0.396117002
1257,0.0716900006,-0.0188074,0.390363008
1258,0.0716900006,-0.0188072994,-0.390363008
1259,0.0718130022,-0.0187835991,-0.382813007
1260,0.0718130022,-0.0187835991,-0.375
1261,0.0718130022,-0.0187835991,-0.367188007
1262,0.0718130022,-0.0187835991,-0.359375
1263,0.0718130022,-0.0187835991,-0.351561993
1264,0.0718130022,-0.0187835991,-0.34375
1265,0.0718130022,-0.0187835991,-0.335938007
1266,0.0718130022,-0.0187835991,-0.328125
1267,0.0718130022,-0.0187835991,-0.320311993
1268,0.0718130022,-0.0187835991,-0.3125
1269,0.0718130022,-0.0187835991,-0.304688007
1270,0.0718130022,-0.0187835991,-0.296875
1271,0.0718130022,-0.0187835991,-0.289063007
1272,0.0718130022,-0.0187835991,-0.28125
1273,0.0718130022,-0.0187835991,-0.273438007
1274,0.0718130022,-0.0187835991,-0.265625
1275,0.0718130022,-0.0187835991,-0.257811993
1276,0.0718130022,-0.0187835991,-0.25
1277,0.0718130022,-0.0187835991,-0.242188007
1278,0.0718130022,-0.0187835991,-0.234375
1279,0.0718130022,-0.0187835991,-0.226561993
1280,0.0718130022,-0.0187835991,-0.21875
1281,0.0718130022,-0.0187835991,-0.210938007
1282,0.0718130022,-0.0187835991,-0.203125
1283,0.0718130022,-0.0187835991,-0.195313007
1284,0.0718130022,-0.0187835991,-0.1875
1285,0.0718130022,-0.0187835991,-0.179688007
1286,0.0718130022,-0.0187835991,-0.171875
1287,0.0718130022,-0.0187835991,-0.164063007
1288,0.0718130022,-0.0187835991,-0.15625
1289,0.0718130022,-0.0187835991,-0.148438007
1290,0.0718130022,-0.0187835991,-0.140625
1291,0.0718130022,-0.0187835991,-0.132813007
1292,0.0718130022,-0.0187835991,-0.125
1293,0.0718130022,-0.0187835991,-0.117187999
1294,0.0718130022,-0.0187835991,-0.109375
1295,0.0718130022,-0.0187835991,-0.101562999
1296,0.0718130022,-0.0187835991,-0.09375
1297,0.0718130022,-0.0187835991,-0.0859375
1298,0.0718130022,-0.0187835991,-0.078125
1299,0.0718130022,-0.0187835991,-0.0703125
1300,0.0718130022,-0.0187835991,-0.0625
1301,0.0718130022,-0.0187835991,-0.0546875
1302,0.0718130022,-0.0187835991,-0.046875
1303,0.0718130022,-0.0187835991,-0.0390625
1304,0.0718130022,-0.0187835991,-0.03125
1305,0.0718130022,-0.0187835991,-0.0234375
1306,0.0718130022,-0.0187835991,-0.015625
1307,0.0718130022,-0.0187835991,-0.0078125
1308,0.0718130022,-0.0187835991,0
1309,0.0718130022,-0.0187835991,0.0078125
1310,0.0718130022,-0.0187835991,0.015625
1311,0.0718130022,-0.0187835991,0.0234375
1312,0.0718130022,-0.0187835991,0.03125
1313,0.0718130022,-0.0187835991,0.0390625
1314,0.0718130022,-0.0187835991,0.046875
1315,0.0718130022,-0.0187835991,0.0546875
1316,0.0718130022,-0.0187835991,0.0625
1317,0.0718130022,-0.0187835991,0.0703125
1318,0.0718130022,-0.0187835991,0.078125
1319,0.0718130022,-0.0187835991,0.0859375
1320,0.0718130022,-0.0187835991,0.09375
1321,0.0718130022,-0.0187835991,0.101562001
1322,0.0718130022,-0.0187835991,0.109375
1323,0.0718130022,-0.0187835991,0.117187999
1324,0.0718130022,-0.0187835991,0.125
1325,0.0718130022,-0.0187835991,0.132813007
1326,0.0718130022,-0.0187835991,0.140625
1327,0.0718130022,-0.0187835991,0.148438007
1328,0.0718130022,-0.0187835991,0.15625
1329,0.0718130022,-0.0187835991,0.164061993
1330,0.0718130022,-0.0187835991,0.171875
1331,0.0718130022,-0.0187835991,0.179688007
1332,0.0718130022,-0.0187835991,0.1875
1333,0.0718130022,-0.0187835991,0.195313007
1334,0.0718130022,-0.0187835991,0.203125
1335,0.0718130022,-0.0187835991,0.210938007
1336,0.0718130022,-0.0187835991,0.21875
1337,0.0718130022,-0.0187835991,0.226563007
1338,0.0718130022,-0.0187835991,0.234375
1339,0.0718130022,-0.0187835991,0.242186993
1340,0.0718130022,-0.0187835991,0.25
1341,0.0718130022,-0.0187835991,0.257811993
1342,0.0718130022,-0.0187835991,0.265625
1343,0.0718130022,-0.0187835991,0.273436993
1344,0.0718130022,-0.0187835991,0.28125
1345,0.0718130022,-0.0187835991,0.289061993
1346,0.0718130022,-0.0187835991,0.296875
1347,0.0718130022,-0.0187835991,0.304688007
1348,0.0718130022,-0.0187835991,0.3125
1349,0.0718130022,-0.0187835991,0.320311993
1350,0.0718130022,-0.0187835991,0.328125
1351,0.0718130022,-0.0187835991,0.335938007
1352,0.0718130022,-0.0187835991,0.34375
1353,0.0718130022,-0.0187835991,0.351563007
1354,0.0718130022,-0.0187835991,0.359375
1355,0.0718130022,-0.0187835991,0.367186993
1356,0.0718130022,-0.0187835991,0.375
1357,0.0718130022,-0.0187835991,0.382813007
1358,0.0739151984,0.0176685005,-0.390469998
1359,0.0739640966,0.0174732003,0.390478998
1360,0.0751795992,0.000137362003,-0.39704299
1361,0.0752208978,-4.24313e-05,0.39704299
1362,0.0760926008,-0.0177877992,0.396537006
1363,0.076093398,-0.0177919995,-0.396537006
1364,0.0782814994,0.0191926006,0.375
1365,0.0782815963,0.0191920996,-0.375
1366,0.0782815963,0.0191920996,-0.367188007
1367,0.0782815963,0.0191920996,-0.359375
1368,0.0782815963,0.0191920996,-0.351561993
1369,0.0782815963,0.0191920996,-0.34375
1370,0.0782815963,0.0191920996,-0.335938007
1371,0.0782815963,0.0191920996,-0.328125
1372,0.0782815963,0.0191920996,-0.320311993
1373,0.0782815963,0.0191920996,-0.3125
1374,0.0782815963,0.0191920996,-0.304688007
1375,0.0782815963,0.0191920996,-0.296875
1376,0.0782815963,0.0191920996,-0.289061993
1377,0.0782815963,0.0191920996,-0.28125
1378,0.0782815963,0.0191920996,-0.273438007
1379,0.0782815963,0.0191920996,-0.265625
1380,0.0782815963,0.0191920996,-0.257811993
1381,0.0782815963,0.0191920996,-0.25
1382,0.0782815963,0.0191920996,-0.242186993
1383,0.0782815963,0.0191920996,-0.234375
1384,0.0782815963,0.0191920996,-0.226561993
1385,0.0782815963,0.0191920996,-0.21875
1386,0.0782815963,0.0191920996,-0.210938007
1387,0.0782815963,0.0191920996,-0.203125
1388,0.0782815963,0.0191920996,-0.195311993
1389,0.0782815963,0.0191920996,-0.1875
1390,0.0782815963,0.0191920996,-0.179688007
1391,0.0782815963,0.0191920996,-0.171875
1392,0.0782815963,0.0191920996,-0.164061993
1393,0.0782815963,0.0191920996,-0.15625
1394,0.0782815963,0.0191920996,-0.148438007
1395,0.0782815963,0.0191920996,-0.140625
1396,0.0782815963,0.0191920996,-0.132813007
1397,0.0782815963,0.0191920996,-0.125
1398,0.0782815963,0.0191920996,-0.117187001
1399,0.0782815963,0.0191920996,-0.109375
1400,0.0782815963,0.0191920996,-0.101562999
1401,0.0782815963,0.0191920996,-0.09375
1402,0.0782815963,0.0191920996,-0.0859375
1403,0.0782815963,0.0191920996,-0.078125
1404,0.0782815963,0.0191920996,-0.0703125
1405,0.0782815963,0.0191920996,-0.0625
1406,0.0782815963,0.0191920996,-0.0546875
1407,0.0782815963,0.0191920996,-0.046875
1408,0.0782815963,0.0191920996,-0.0390625
1409,0.0782815963,0.0191920996,-0.03125
1410,0.0782815963,0.0191920996,-0.0234375
1411,0.0782815963,0.0191920996,-0.015625
1412,0.0782815963,0.0191920996,-0.0078125
1413,0.0782815963,0.0191920996,0
1414,0.0782815963,0.0191920996,0.0078125
1415,0.0782815963,0.0191920996,0.015625
1416,0.0782815963,0.0191920996,0.0234375
1417,0.0782815963,0.0191920996,0.03125
1418,0.0782815963,0.0191920996,0.0390625
1419,0.0782815963,0.0191920996,0.046875
1420,0.0782815963,0.0191920996,0.0546875
1421,0.0782815963,0.0191920996,0.0625
1422,0.0782815963,0.0191920996,0.0703125
1423,0.0782815963,0.0191920996,0.078125
1424,0.0782815963,0.0191920996,0.0859375
1425,0.0782815963,0.0191920996,0.09375
1426,0.0782815963,0.0191920996,0.101562999
1427,0.0782815963,0.0191920996,0.109375
1428,0.0782815963,0.0191920996,0.117187001
1429,0.0782815963,0.0191920996,0.125
1430,0.0782815963,0.0191920996,0.132811993
1431,0.0782815963,0.0191920996,0.140625
1432,0.0782815963,0.0191920996,0.148438007
1433,0.0782815963,0.0191920996,0.15625
1434,0.0782815963,0.0191920996,0.164063007
1435,0.0782815963,0.0191920996,0.171875
1436,0.0782815963,0.0191920996,0.179688007
1437,0.0782815963,0.0191920996,0.1875
1438,0.0782815963,0.0191920996,0.195313007
1439,0.0782815963,0.0191920996,0.203125
1440,0.0782815963,0.0191920996,0.210938007
1441,0.0782815963,0.0191920996,0.21875
1442,0.0782815963,0.0191920996,0.226561993
1443,0.0782815963,0.0191920996,0.234375
1444,0.0782815963,0.0191920996,0.242188007
1445,0.0782815963,0.0191920996,0.25
1446,0.0782815963,0.0191920996,0.257811993
1447,0.0782815963,0.0191920996,0.265625
1448,0.0782815963,0.0191920996,0.273438007
1449,0.0782815963,0.0191920996,0.28125
1450,0.0782815963,0.0191920996,0.289061993
1451,0.0782815963,0.0191920996,0.296875
1452,0.0782815963,0.0191920996,0.304688007
1453,0.0782815963,0.0191920996,0.3125
1454,0.0782815963,0.0191920996,0.320311993
1455,0.0782815963,0.0191920996,0.328125
1456,0.0782815963,0.0191920996,0.335938007
1457,0.0782815963,0.0191920996,0.34375
1458,0.0782815963,0.0191920996,0.351561993
1459,0.0782815963,0.0191920996,0.359375
1460,0.0782815963,0.0191920996,0.367188007
1461,0.0783806965,0.0192236006,0.382604003
1462,0.0783824995,0.0192163996,-0.382604003
1463,0.0788647979,0.0193579998,0.388446003
1464,0.0788704976,0.0193341002,-0.388446003
1465,0.085231401,0.0203962997,-0.391348004
1466,0.0856572017,0.0185669996,0.391431987
1467,0.0861620009,0.00250431011,-0.396721989
1468,0.0862556994,0.00214376999,0.396721989
1469,0.0873059034,0.00299453991,-0.393581003
1470,0.0878053978,0.0214635003,0.389028996
1471,0.0878124982,0.0214323998,-0.389028996
1472,0.0878377035,-0.0129017998,-0.343804002
1473,0.0878377035,-0.0129017998,0.343804002
1474,0.0879131034,-0.0132437004,-0.351601005
1475,0.0879131034,-0.0132437004,0.351601005
1476,0.0879885033,-0.0135856001,-0.359398007
1477,0.0879885033,-0.0135856001,0.359398007
1478,0.088064,-0.0139274001,-0.36719501
1479,0.088064,-0.0139274001,0.36719501
1480,0.0881393999,-0.0142692998,-0.374991
1481,0.0881393999,-0.0142692998,0.374991
1482,0.0881870985,-0.0149512002,0.390300989
1483,0.0881872997,-0.0149520002,-0.390300989
1484,0.0882520005,-0.0146024004,-0.382789999
1485,0.0882520005,-0.0146024004,0.382789999
1486,0.0883698985,-0.0150907002,0.396043003
1487,0.0883755982,-0.0151166003,-0.396041006
1488,0.0883812979,-0.0153658995,-0.335938007
1489,0.0883812979,-0.0153658995,-0.328125
1490,0.0883812979,-0.0153658995,-0.320311993
1491,0.0883812979,-0.0153658995,-0.3125
1492,0.0883812979,-0.0153658995,-0.304688007
1493,0.0883812979,-0.0153658995,-0.296875
1494,0.0883812979,-0.0153658995,-0.289063007
1495,0.0883812979,-0.0153658995,-0.28125
1496,0.0883812979,-0.0153658995,-0.273438007
1497,0.0883812979,-0.0153658995,-0.265625
1498,0.0883812979,-0.0153658995,-0.257811993
1499,0.0883812979,-0.0153658995,-0.25
1500,0.0883812979,-0.0153658995,-0.242186993
1501,0.0883812979,-0.0153658995,-0.234375
1502,0.0883812979,-0.0153658995,-0.226563007
1503,0.0883812979,-0.0153658995,-0.21875
1504,0.0883812979,-0.0153658995,-0.210938007
1505,0.0883812979,-0.0153658995,-0.203125
1506,0.0883812979,-0.0153658995,-0.195311993
1507,0.0883812979,-0.0153658995,-0.1875
1508,0.0883812979,-0.0153658995,-0.179688007
1509,0.0883812979,-0.0153658995,-0.171875
1510,0.0883812979,-0.0153658995,-0.164063007
1511,0.0883812979,-0.0153658995,-0.15625
1512,0.0883812979,-0.0153658995,-0.148438007
1513,0.0883812979,-0.0153658995,-0.140625
1514,0.0883812979,-0.0153658995,-0.132811993
1515,0.0883812979,-0.0153658995,-0.125
1516,0.0883812979,-0.0153658995,-0.117187999
1517,0.0883812979,-0.0153658995,-0.109375
1518,0.0883812979,-0.0153658995,-0.101562999
1519,0.0883812979,-0.0153658995,-0.09375
1520,0.0883812979,-0.0153658995,-0.0859375
1521,0.0883812979,-0.0153658995,-0.078125
1522,0.0883812979,-0.0153658995,-0.0703125
1523,0.0883812979,-0.0153658995,-0.0625
1524,0.0883812979,-0.0153658995,-0.0546875
1525,0.0883812979,-0.0153658995,-0.046875
1526,0.0883812979,-0.0153658995,-0.0390625
1527,0.0883812979,-0.0153658995,-0.03125
1528,0.0883812979,-0.0153658995,-0.0234375
1529,0.0883812979,-0.0153658995,-0.015625
1530,0.0883812979,-0.0153658995,-0.0078125
1531,0.0883812979,-0.0153658995,-1e-12
1532,0.0883812979,-0.0153658995,0.0078125
1533,0.0883812979,-0.0153658995,0.015625
1534,0.0883812979,-0.0153658995,0.0234375
1535,0.0883812979,-0.0153658995,0.03125
1536,0.0883812979,-0.0153658995,0.0390625
1537,0.0883812979,-0.0153658995,0.046875
1538,0.0883812979,-0.0153658995,0.0546875
1539,0.0883812979,-0.0153658995,0.0625
1540,0.0883812979,-0.0153658995,0.0703125
1541,0.0883812979,-0.0153658995,0.078125
1542,0.0883812979,-0.0153658995,0.0859375
1543,0.0883812979,-0.0153658995,0.09375
1544,0.0883812979,-0.0153658995,0.101562001
1545,0.0883812979,-0.0153658995,0.109375
1546,0.0883812979,-0.0153658995,0.117187999
1547,0.0883812979,-0.0153658995,0.125
1548,0.0883812979,-0.0153658995,0.132811993
1549,0.0883812979,-0.0153658995,0.140625
1550,0.0883812979,-0.0153658995,0.148436993
1551,0.0883812979,-0.0153658995,0.15625
1552,0.0883812979,-0.0153658995,0.164061993
1553,0.0883812979,-0.0153658995,0.171875
1554,0.0883812979,-0.0153658995,0.179686993
1555,0.0883812979,-0.0153658995,0.1875
1556,0.0883812979,-0.0153658995,0.195313007
1557,0.0883812979,-0.0153658995,0.203125
1558,0.0883812979,-0.0153658995,0.210936993
1559,0.0883812979,-0.0153658995,0.21875
1560,0.0883812979,-0.0153658995,0.226563007
1561,0.0883812979,-0.0153658995,0.234375
1562,0.0883812979,-0.0153658995,0.242186993
1563,0.0883812979,-0.0153658995,0.25
1564,0.0883812979,-0.0153658995,0.257811993
1565,0.0883812979,-0.0153658995,0.265625
1566,0.0883812979,-0.0153658995,0.273436993
1567,0.0883812979,-0.0153658995,0.28125
1568,0.0883812979,-0.0153658995,0.289061993
1569,0.0883812979,-0.0153658995,0.296875
1570,0.0883812979,-0.0153658995,0.304688007
1571,0.0883812979,-0.0153658995,0.3125
1572,0.0883812979,-0.0153658995,0.320313007
1573,0.0883812979,-0.0153658995,0.328125
1574,0.0883812979,-0.0153658995,0.335938007
1575,0.0887629986,0.0216837004,0.382600993
1576,0.0887709036,0.0216486007,-0.382600993
1577,0.0887859985,0.0216562003,0.375
1578,0.0887869,0.0216521993,-0.375
1579,0.0887869,0.0216521993,-0.367188007
1580,0.0887869,0.0216521993,-0.359375
1581,0.0887869,0.0216521993,-0.351561993
1582,0.0887869,0.0216521993,-0.34375
1583,0.0887869,0.0216521993,-0.335938007
1584,0.0887869,0.0216521993,-0.328125
1585,0.0887869,0.0216521993,-0.320311993
1586,0.0887869,0.0216521993,-0.3125
1587,0.0887869,0.0216521993,-0.304688007
1588,0.0887869,0.0216521993,-0.296875
1589,0.0887869,0.0216521993,-0.289063007
1590,0.0887869,0.0216521993,-0.28125
1591,0.0887869,0.0216521993,-0.273438007
1592,0.0887869,0.0216521993,-0.265625
1593,0.0887869,0.0216521993,-0.257811993
1594,0.0887869,0.0216521993,-0.25
1595,0.0887869,0.0216521993,-0.242188007
1596,0.0887869,0.0216521993,-0.234375
1597,0.0887869,0.0216521993,-0.226561993
1598,0.0887869,0.0216521993,-0.21875
1599,0.0887869,0.0216521993,-0.210938007
1600,0.0887869,0.0216521993,-0.203125
1601,0.0887869,0.0216521993,-0.195311993
1602,0.0887869,0.0216521993,-0.1875
1603,0.0887869,0.0216521993,-0.179688007
1604,0.0887869,0.0216521993,-0.171875
1605,0.0887869,0.0216521993,-0.164063007
1606,0.0887869,0.0216521993,-0.15625
1607,0.0887869,0.0216521993,-0.148438007
1608,0.0887869,0.0216521993,-0.140625
1609,0.0887869,0.0216521993,-0.132813007
1610,0.0887869,0.0216521993,-0.125
1611,0.0887869,0.0216521993,-0.117187999
1612,0.0887869,0.0216521993,-0.109375
1613,0.0887869,0.0216521993,-0.101562999
1614,0.0887869,0.0216521993,-0.09375
1615,0.0887869,0.0216521993,-0.0859375
1616,0.0887869,0.0216521993,-0.078125
1617,0.0887869,0.0216521993,-0.0703125
1618,0.0887869,0.0216521993,-0.0625
1619,0.0887869,0.0216521993,-0.0546875
1620,0.0887869,0.0216521993,-0.046875
1621,0.0887869,0.0216521993,-0.0390625
1622,0.0887869,0.0216521993,-0.03125
1623,0.0887869,0.0216521993,-0.0234375
1624,0.0887869,0.0216521993,-0.015625
1625,0.0887869,0.0216521993,-0.0078125
1626,0.0887869,0.0216521993,0
1627,0.0887869,0.0216521993,0.0078125
1628,0.0887869,0.0216521993,0.015625
1629,0.0887869,0.0216521993,0.0234375
1630,0.0887869,0.0216521993,0.03125
1631,0.0887869,0.0216521993,0.0390625
1632,0.0887869,0.0216521993,0.046875
1633,0.0887869,0.0216521993,0.0546875
1634,0.0887869,0.0216521993,0.0625
1635,0.0887869,0.0216521993,0.0703125
1636,0.0887869,0.0216521993,0.078125
1637,0.0887869,0.0216521993,0.0859375
1638,0.0887869,0.0216521993,0.09375
1639,0.0887869,0.0216521993,0.101562001
1640,0.0887869,0.0216521993,0.109375
1641,0.0887869,0.0216521993,0.117187001
1642,0.0887869,0.0216521993,0.125
1643,0.0887869,0.0216521993,0.132811993
1644,0.0887869,0.0216521993,0.140625
1645,0.0887869,0.0216521993,0.148436993
1646,0.0887869,0.0216521993,0.15625
1647,0.0887869,0.0216521993,0.164061993
1648,0.0887869,0.0216521993,0.171875
1649,0.0887869,0.0216521993,0.179688007
1650,0.0887869,0.0216521993,0.1875
1651,0.0887869,0.0216521993,0.195311993
1652,0.0887869,0.0216521993,0.203125
1653,0.0887869,0.0216521993,0.210936993
1654,0.0887869,0.0216521993,0.21875
1655,0.0887869,0.0216521993,0.226561993
1656,0.0887869,0.0216521993,0.234375
1657,0.0887869,0.0216521993,0.242188007
1658,0.0887869,0.0216521993,0.25
1659,0.0887869,0.0216521993,0.257813007
1660,0.0887869,0.0216521993,0.265625
1661,0.0887869,0.0216521993,0.273436993
1662,0.0887869,0.0216521993,0.28125
1663,0.0887869,0.0216521993,0.289063007
1664,0.0887869,0.0216521993,0.296875
1665,0.0887869,0.0216521993,0.304688007
1666,0.0887869,0.0216521993,0.3125
1667,0.0887869,0.0216521993,0.320311993
1668,0.0887869,0.0216521993,0.328125
1669,0.0887869,0.0216521993,0.335936993
1670,0.0887869,0.0216521993,0.34375
1671,0.0887869,0.0216521993,0.351561993
1672,0.0887869,0.0216521993,0.359375
1673,0.0887869,0.0216521993,0.367186993
1674,0.0939263999,0.00460638991,-0.394299001
1675,0.0968135968,0.0053660199,-0.393489987
1676,0.0969839022,0.00401138002,-0.395951986
1677,0.0970332026,0.00383574003,0.395951986
1678,0.0977602974,-0.0127593996,0.395839989
1679,0.0977606997,-0.0127609996,-0.395839989
1680,0.0995469987,0.0235622004,-0.39053601
1681,0.0995571017,0.0235146005,0.390538007
1682,0.0997895002,-0.0127243996,-0.367188007
1683,0.0997895002,-0.0127243996,-0.359375
1684,0.0997895002,-0.0127243996,-0.351561993
1685,0.0997895002,-0.0127243996,-0.34375
1686,0.0997895002,-0.0127243996,-0.335938007
1687,0.0997895002,-0.0127243996,-0.328125
1688,0.0997895002,-0.0127243996,-0.320311993
1689,0.0997895002,-0.0127243996,-0.3125
1690,0.0997895002,-0.0127243996,-0.304688007
1691,0.0997895002,-0.0127243996,-0.296875
1692,0.0997895002,-0.0127243996,-0.289063007
1693,0.0997895002,-0.0127243996,-0.28125
1694,0.0997895002,-0.0127243996,-0.273438007
1695,0.0997895002,-0.0127243996,-0.265625
1696,0.0997895002,-0.0127243996,-0.257811993
1697,0.0997895002,-0.0127243996,-0.25
1698,0.0997895002,-0.0127243996,-0.242188007
1699,0.0997895002,-0.0127243996,-0.234375
1700,0.0997895002,-0.0127243996,-0.226561993
1701,0.0997895002,-0.0127243996,-0.21875
1702,0.0997895002,-0.0127243996,-0.210936993
1703,0.0997895002,-0.0127243996,-0.203125
1704,0.0997895002,-0.0127243996,-0.195311993
1705,0.0997895002,-0.0127243996,-0.1875
1706,0.0997895002,-0.0127243996,-0.179688007
1707,0.0997895002,-0.0127243996,-0.171875
1708,0.0997895002,-0.0127243996,-0.164061993
1709,0.0997895002,-0.0127243996,-0.15625
1710,0.0997895002,-0.0127243996,-0.148438007
1711,0.0997895002,-0.0127243996,-0.140625
1712,0.0997895002,-0.0127243996,-0.132811993
1713,0.0997895002,-0.0127243996,-0.125
1714,0.0997895002,-0.0127243996,-0.117187001
1715,0.0997895002,-0.0127243996,-0.109375
1716,0.0997895002,-0.0127243996,-0.101562001
1717,0.0997895002,-0.0127243996,-0.09375
1718,0.0997895002,-0.0127243996,-0.0859375
1719,0.0997895002,-0.0127243996,-0.078125
1720,0.0997895002,-0.0127243996,-0.0703125
1721,0.0997895002,-0.0127243996,-0.0625
1722,0.0997895002,-0.0127243996,-0.0546875
1723,0.0997895002,-0.0127243996,-0.046875
1724,0.0997895002,-0.0127243996,-0.0390625
1725,0.0997895002,-0.0127243996,-0.03125
1726,0.0997895002,-0.0127243996,-0.0234375
1727,0.0997895002,-0.0127243996,-0.015625
1728,0.0997895002,-0.0127243996,-0.0078125
1729,0.0997895002,-0.0127243996,-0
1730,0.0997895002,-0.0127243996,0.0078125
1731,0.0997895002,-0.0127243996,0.015625
1732,0.0997895002,-0.0127243996,0.0234375
1733,0.0997895002,-0.0127243996,0.03125
1734,0.0997895002,-0.0127243996,0.0390625
1735,0.0997895002,-0.0127243996,0.046875
1736,0.0997895002,-0.0127243996,0.0546875
1737,0.0997895002,-0.0127243996,0.0625
1738,0.0997895002,-0.0127243996,0.0703125
1739,0.0997895002,-0.0127243996,0.078125
1740,0.0997895002,-0.0127243996,0.0859375
1741,0.0997895002,-0.0127243996,0.09375
1742,0.0997895002,-0.0127243996,0.101562001
1743,0.0997895002,-0.0127243996,0.109375
1744,0.0997895002,-0.0127243996,0.117187999
1745,0.0997895002,-0.0127243996,0.125
1746,0.0997895002,-0.0127243996,0.132813007
1747,0.0997895002,-0.0127243996,0.140625
1748,0.0997895002,-0.0127243996,0.148438007
1749,0.0997895002,-0.0127243996,0.15625
1750,0.0997895002,-0.0127243996,0.164061993
1751,0.0997895002,-0.0127243996,0.171875
1752,0.0997895002,-0.0127243996,0.179688007
1753,0.0997895002,-0.0127243996,0.1875
1754,0.0997895002,-0.0127243996,0.195313007
1755,0.0997895002,-0.0127243996,0.203125
1756,0.0997895002,-0.0127243996,0.210936993
1757,0.0997895002,-0.0127243996,0.21875
1758,0.0997895002,-0.0127243996,0.226561993
1759,0.0997895002,-0.0127243996,0.234375
1760,0.0997895002,-0.0127243996,0.242188007
1761,0.0997895002,-0.0127243996,0.25
1762,0.0997895002,-0.0127243996,0.257811993
1763,0.0997895002,-0.0127243996,0.265625
1764,0.0997895002,-0.0127243996,0.273438007
1765,0.0997895002,-0.0127243996,0.28125
1766,0.0997895002,-0.0127243996,0.289061993
1767,0.0997895002,-0.0127243996,0.296875
1768,0.0997895002,-0.0127243996,0.304686993
1769,0.0997895002,-0.0127243996,0.3125
1770,0.0997895002,-0.0127243996,0.320313007
1771,0.0997895002,-0.0127243996,0.328125
1772,0.0997895002,-0.0127243996,0.335938007
1773,0.0997895002,-0.0127243996,0.34375
1774,0.0997895002,-0.0127243996,0.351563007
1775,0.0997895002,-0.0127243996,0.359375
1776,0.0997895002,-0.0127243996,0.367186993
1777,0.0997897014,-0.0127250999,-0.375
1778,0.0997897014,-0.0127250999,0.375
1779,0.0998629034,-0.0127116004,-0.382764012
1780,0.0998629034,-0.0127116004,0.382764012
1781,0.100335002,0.0241762009,0.382764012
1782,0.100337997,0.0241622999,-0.382764012
1783,0.100400001,0.0241751,-0.375
1784,0.100400001,0.0241751,-0.367188007
1785,0.100400001,0.0241751,-0.359375
1786,0.100400001,0.0241751,-0.351561993
1787,0.100400001,0.0241751,-0.34375
1788,0.100400001,0.0241751,-0.335938007
1789,0.100400001,0.0241751,-0.328125
1790,0.100400001,0.0241751,-0.320311993
1791,0.100400001,0.0241751,-0.3125
1792,0.100400001,0.0241751,-0.304688007
1793,0.100400001,0.0241751,-0.296875
1794,0.100400001,0.0241751,-0.289063007
1795,0.100400001,0.0241751,-0.28125
1796,0.100400001,0.0241751,-0.273438007
1797,0.100400001,0.0241751,-0.265625
1798,0.100400001,0.0241751,-0.257811993
1799,0.100400001,0.0241751,-0.25
1800,0.100400001,0.0241751,-0.242188007
1801,0.100400001,0.0241751,-0.234375
1802,0.100400001,0.0241751,-0.226561993
1803,0.100400001,0.0241751,-0.21875
1804,0.100400001,0.0241751,-0.210938007
1805,0.100400001,0.0241751,-0.203125
1806,0.100400001,0.0241751,-0.195311993
1807,0.100400001,0.0241751,-0.1875
1808,0.100400001,0.0241751,-0.179688007
1809,0.100400001,0.0241751,-0.171875
1810,0.100400001,0.0241751,-0.164063007
1811,0.100400001,0.0241751,-0.15625
1812,0.100400001,0.0241751,-0.148438007
1813,0.100400001,0.0241751,-0.140625
1814,0.100400001,0.0241751,-0.132813007
1815,0.100400001,0.0241751,-0.125
1816,0.100400001,0.0241751,-0.117187999
1817,0.100400001,0.0241751,-0.109375
1818,0.100400001,0.0241751,-0.101562999
1819,0.100400001,0.0241751,-0.09375
1820,0.100400001,0.0241751,-0.0859375
1821,0.100400001,0.0241751,-0.078125
1822,0.100400001,0.0241751,-0.0703125
1823,0.100400001,0.0241751,-0.0625
1824,0.100400001,0.0241751,-0.0546875
1825,0.100400001,0.0241751,-0.046875
1826,0.100400001,0.0241751,-0.0390625
1827,0.100400001,0.0241751,-0.03125
1828,0.100400001,0.0241751,-0.0234375
1829,0.100400001,0.0241751,-0.015625
1830,0.100400001,0.0241751,-0.0078125
1831,0.100400001,0.0241751,0
1832,0.100400001,0.0241751,0.0078125
1833,0.100400001,0.0241751,0.015625
1834,0.100400001,0.0241751,0.0234375
1835,0.100400001,0.0241751,0.03125
1836,0.100400001,0.0241751,0.0390625
1837,0.100400001,0.0241751,0.046875
1838,0.100400001,0.0241751,0.0546875
1839,0.100400001,0.0241751,0.0625
1840,0.100400001,0.0241751,0.0703125
1841,0.100400001,0.0241751,0.078125
1842,0.100400001,0.0241751,0.0859375
1843,0.100400001,0.0241751,0.09375
1844,0.100400001,0.0241751,0.101562001
1845,0.100400001,0.0241751,0.109375
1846,0.100400001,0.0241751,0.117187001
1847,0.100400001,0.0241751,0.125
1848,0.100400001,0.0241751,0.132813007
1849,0.100400001,0.0241751,0.140625
1850,0.100400001,0.0241751,0.148436993
1851,0.100400001,0.0241751,0.15625
1852,0.100400001,0.0241751,0.164063007
1853,0.100400001,0.0241751,0.171875
1854,0.100400001,0.0241751,0.179686993
1855,0.100400001,0.0241751,0.1875
1856,0.100400001,0.0241751,0.195313007
1857,0.100400001,0.0241751,0.203125
1858,0.100400001,0.0241751,0.210938007
1859,0.100400001,0.0241751,0.21875
1860,0.100400001,0.0241751,0.226561993
1861,0.100400001,0.0241751,0.234375
1862,0.100400001,0.0241751,0.242188007
1863,0.100400001,0.0241751,0.25
1864,0.100400001,0.0241751,0.257813007
1865,0.100400001,0.0241751,0.265625
1866,0.100400001,0.0241751,0.273438007
1867,0.100400001,0.0241751,0.28125
1868,0.100400001,0.0241751,0.289061993
1869,0.100400001,0.0241751,0.296875
1870,0.100400001,0.0241751,0.304686993
1871,0.100400001,0.0241751,0.3125
1872,0.100400001,0.0241751,0.320311993
1873,0.100400001,0.0241751,0.328125
1874,0.100400001,0.0241751,0.335938007
1875,0.100400001,0.0241751,0.34375
1876,0.100400001,0.0241751,0.351561993
1877,0.100400001,0.0241751,0.359375
1878,0.100400001,0.0241752006,0.367186993
1879,0.100400001,0.0241768006,0.375
1880,0.100695997,-0.0119615002,-0.390493989
1881,0.100695997,-0.0119615002,0.390493989
1882,0.102528997,0.0244123004,-0.39588201
1883,0.102565996,0.0242337994,0.395889997
1884,0.103165001,0.00779893994,0.395951986
1885,0.103375003,0.00694169011,-0.395951986
1886,0.111271001,-0.00986917037,-0.367188007
1887,0.111271001,-0.00986917037,-0.359375
1888,0.111271001,-0.00986917037,-0.351561993
1889,0.111271001,-0.00986917037,-0.34375
1890,0.111271001,-0.00986917037,-0.335938007
1891,0.111271001,-0.00986917037,-0.328125
1892,0.111271001,-0.00986917037,-0.320311993
1893,0.111271001,-0.00986917037,-0.3125
1894,0.111271001,-0.00986917037,-0.304688007
1895,0.111271001,-0.00986917037,-0.296875
1896,0.111271001,-0.00986917037,-0.289063007
1897,0.111271001,-0.00986917037,-0.28125
1898,0.111271001,-0.00986917037,-0.273438007
1899,0.111271001,-0.00986917037,-0.265625
1900,0.111271001,-0.00986917037,-0.257811993
1901,0.111271001,-0.00986917037,-0.25
1902,0.111271001,-0.00986917037,-0.242186993
1903,0.111271001,-0.00986917037,-0.234375
1904,0.111271001,-0.00986917037,-0.226561993
1905,0.111271001,-0.00986917037,-0.21875
1906,0.111271001,-0.00986917037,-0.210936993
1907,0.111271001,-0.00986917037,-0.203125
1908,0.111271001,-0.00986917037,-0.195311993
1909,0.111271001,-0.00986917037,-0.1875
1910,0.111271001,-0.00986917037,-0.179686993
1911,0.111271001,-0.00986917037,-0.171875
1912,0.111271001,-0.00986917037,-0.164061993
1913,0.111271001,-0.00986917037,-0.15625
1914,0.111271001,-0.00986917037,-0.148436993
1915,0.111271001,-0.00986917037,-0.140625
1916,0.111271001,-0.00986917037,-0.132811993
1917,0.111271001,-0.00986917037,-0.125
1918,0.111271001,-0.00986917037,-0.117187001
1919,0.111271001,-0.00986917037,-0.109375
1920,0.111271001,-0.00986917037,-0.101562001
1921,0.111271001,-0.00986917037,-0.09375
1922,0.111271001,-0.00986917037,-0.0859375
1923,0.111271001,-0.00986917037,-0.078125
1924,0.111271001,-0.00986917037,-0.0703125
1925,0.111271001,-0.00986917037,-0.0625
1926,0.111271001,-0.00986917037,-0.0546875
1927,0.111271001,-0.00986917037,-0.046875
1928,0.111271001,-0.00986917037,-0.0390625
1929,0.111271001,-0.00986917037,-0.03125
1930,0.111271001,-0.00986917037,-0.0234375
1931,0.111271001,-0.00986917037,-0.015625
1932,0.111271001,-0.00986917037,-0.0078125
1933,0.111271001,-0.00986917037,0
1934,0.111271001,-0.00986917037,0.0078125
1935,0.111271001,-0.00986917037,0.015625
1936,0.111271001,-0.00986917037,0.0234375
1937,0.111271001,-0.00986917037,0.03125
1938,0.111271001,-0.00986917037,0.0390625
1939,0.111271001,-0.00986917037,0.046875
1940,0.111271001,-0.00986917037,0.0546875
1941,0.111271001,-0.00986917037,0.0625
1942,0.111271001,-0.00986917037,0.0703125
1943,0.111271001,-0.00986917037,0.078125
1944,0.111271001,-0.00986917037,0.0859375
1945,0.111271001,-0.00986917037,0.09375
1946,0.111271001,-0.00986917037,0.101562999
1947,0.111271001,-0.00986917037,0.109375
1948,0.111271001,-0.00986917037,0.117187999
1949,0.111271001,-0.00986917037,0.125
1950,0.111271001,-0.00986917037,0.132813007
1951,0.111271001,-0.00986917037,0.140625
1952,0.111271001,-0.00986917037,0.148438007
1953,0.111271001,-0.00986917037,0.15625
1954,0.111271001,-0.00986917037,0.164063007
1955,0.111271001,-0.00986917037,0.171875
1956,0.111271001,-0.00986917037,0.179688007
1957,0.111271001,-0.00986917037,0.1875
1958,0.111271001,-0.00986917037,0.195313007
1959,0.111271001,-0.00986917037,0.203125
1960,0.111271001,-0.00986917037,0.210938007
1961,0.111271001,-0.00986917037,0.21875
1962,0.111271001,-0.00986917037,0.226561993
1963,0.111271001,-0.00986917037,0.234375
1964,0.111271001,-0.00986917037,0.242188007
1965,0.111271001,-0.00986917037,0.25
1966,0.111271001,-0.00986917037,0.257813007
1967,0.111271001,-0.00986917037,0.265625
1968,0.111271001,-0.00986917037,0.273436993
1969,0.111271001,-0.00986917037,0.28125
1970,0.111271001,-0.00986917037,0.289063007
1971,0.111271001,-0.00986917037,0.296875
1972,0.111271001,-0.00986917037,0.304686993
1973,0.111271001,-0.00986917037,0.3125
1974,0.111271001,-0.00986917037,0.320313007
1975,0.111271001,-0.00986917037,0.328125
1976,0.111271001,-0.00986917037,0.335938007
1977,0.111271001,-0.00986917037,0.34375
1978,0.111271001,-0.00986917037,0.351561993
1979,0.111271001,-0.00986917037,0.359375
1980,0.111271001,-0.00986917037,0.367186993
1981,0.111272,-0.00987247005,-0.375
1982,0.111272,-0.00987247005,0.375
1983,0.111305997,-0.00989004038,0.382600993
1984,0.111305997,-0.00989003014,-0.382600993
1985,0.112037003,0.0263231006,-0.396048993
1986,0.112080999,0.0260991007,0.396059006
1987,0.112340003,-0.00958959013,-0.389028996
1988,0.112340003,-0.00958959013,0.389028996
1989,0.112402998,0.0265966002,0.375
1990,0.112402998,0.0265967995,-0.375
1991,0.112402998,0.0265967995,-0.367186993
1992,0.112402998,0.0265967995,-0.359375
1993,0.112402998,0.0265967995,-0.351563007
1994,0.112402998,0.0265967995,-0.34375
1995,0.112402998,0.0265967995,-0.335938007
1996,0.112402998,0.0265967995,-0.328125
1997,0.112402998,0.0265967995,-0.320311993
1998,0.112402998,0.0265967995,-0.3125
1999,0.112402998,0.0265967995,-0.304688007
2000,0.112402998,0.0265967995,-0.296875
2001,0.112402998,0.0265967995,-0.289061993
2002,0.112402998,0.0265967995,-0.28125
2003,0.112402998,0.0265967995,-0.273438007
2004,0.112402998,0.0265967995,-0.265625
2005,0.112402998,0.0265967995,-0.257811993
2006,0.112402998,0.0265967995,-0.25
2007,0.112402998,0.0265967995,-0.242188007
2008,0.112402998,0.0265967995,-0.234375
2009,0.112402998,0.0265967995,-0.226563007
2010,0.112402998,0.0265967995,-0.21875
2011,0.112402998,0.0265967995,-0.210938007
2012,0.112402998,0.0265967995,-0.203125
2013,0.112402998,0.0265967995,-0.195313007
2014,0.112402998,0.0265967995,-0.1875
2015,0.112402998,0.0265967995,-0.179686993
2016,0.112402998,0.0265967995,-0.171875
2017,0.112402998,0.0265967995,-0.164061993
2018,0.112402998,0.0265967995,-0.15625
2019,0.112402998,0.0265967995,-0.148436993
2020,0.112402998,0.0265967995,-0.140625
2021,0.112402998,0.0265967995,-0.132813007
2022,0.112402998,0.0265967995,-0.125
2023,0.112402998,0.0265967995,-0.117187001
2024,0.112402998,0.0265967995,-0.109375
2025,0.112402998,0.0265967995,-0.101562999
2026,0.112402998,0.0265967995,-0.09375
2027,0.112402998,0.0265967995,-0.0859375
2028,0.112402998,0.0265967995,-0.078125
2029,0.112402998,0.0265967995,-0.0703125
2030,0.112402998,0.0265967995,-0.0625
2031,0.112402998,0.0265967995,-0.0546875
2032,0.112402998,0.0265967995,-0.046875
2033,0.112402998,0.0265967995,-0.0390625
2034,0.112402998,0.0265967995,-0.03125
2035,0.112402998,0.0265967995,-0.0234375
2036,0.112402998,0.0265967995,-0.015625
2037,0.112402998,0.0265967995,-0.0078125
2038,0.112402998,0.0265967995,-0
2039,0.112402998,0.0265967995,0.0078125
2040,0.112402998,0.0265967995,0.015625
2041,0.112402998,0.0265967995,0.0234375
2042,0.112402998,0.0265967995,0.03125
2043,0.112402998,0.0265967995,0.0390625
2044,0.112402998,0.0265967995,0.046875
2045,0.112402998,0.0265967995,0.0546875
2046,0.112402998,0.0265967995,0.0625
2047,0.112402998,0.0265967995,0.0703125
2048,0.112402998,0.0265967995,0.078125
2049,0.112402998,0.0265967995,0.0859375
2050,0.112402998,0.0265967995,0.09375
2051,0.112402998,0.0265967995,0.101562999
2052,0.112402998,0.0265967995,0.109375
2053,0.112402998,0.0265967995,0.117187999
2054,0.112402998,0.0265967995,0.125
2055,0.112402998,0.0265967995,0.132811993
2056,0.112402998,0.0265967995,0.140625
2057,0.112402998,0.0265967995,0.148436993
2058,0.112402998,0.0265967995,0.15625
2059,0.112402998,0.0265967995,0.164061993
2060,0.112402998,0.0265967995,0.171875
2061,0.112402998,0.0265967995,0.179686993
2062,0.112402998,0.0265967995,0.1875
2063,0.112402998,0.0265967995,0.195313007
2064,0.112402998,0.0265967995,0.203125
2065,0.112402998,0.0265967995,0.210938007
2066,0.112402998,0.0265967995,0.21875
2067,0.112402998,0.0265967995,0.226563007
2068,0.112402998,0.0265967995,0.234375
2069,0.112402998,0.0265967995,0.242188007
2070,0.112402998,0.0265967995,0.25
2071,0.112402998,0.0265967995,0.257811993
2072,0.112402998,0.0265967995,0.265625
2073,0.112402998,0.0265967995,0.273436993
2074,0.112402998,0.0265967995,0.28125
2075,0.112402998,0.0265967995,0.289061993
2076,0.112402998,0.0265967995,0.296875
2077,0.112402998,0.0265967995,0.304686993
2078,0.112402998,0.0265967995,0.3125
2079,0.112402998,0.0265967995,0.320311993
2080,0.112402998,0.0265967995,0.328125
2081,0.112402998,0.0265967995,0.335938007
2082,0.112402998,0.0265967995,0.34375
2083,0.112402998,0.0265967995,0.351561993
2084,0.112402998,0.0265967995,0.359375
2085,0.112402998,0.0265967995,0.367186993
2086,0.112452999,0.0261739008,-0.390300989
2087,0.112457,0.0261515994,0.390302002
2088,0.112512,0.0258530006,-0.382824987
2089,0.112512,0.0258536991,0.382824987
2090,0.113894001,0.00948361959,0.396710008
2091,0.113932997,0.00936456956,-0.396710008
2092,0.114602,-0.00646909,-0.391416013
2093,0.114602,-0.00646909,0.391416013
2094,0.121193998,-0.00728212996,-0.388446003
2095,0.121195003,-0.00728535,0.388446003
2096,0.121647,-0.00714761019,0.382604003
2097,0.121647,-0.00714709004,-0.382604003
2098,0.121735997,-0.00711687002,0.375
2099,0.121735997,-0.00711685978,-0.375
2100,0.121735997,-0.00711640995,-0.367188007
2101,0.121735997,-0.00711640995,-0.359375
2102,0.121735997,-0.00711640995,-0.351561993
2103,0.121735997,-0.00711640995,-0.34375
2104,0.121735997,-0.00711640995,-0.335938007
2105,0.121735997,-0.00711640995,-0.328125
2106,0.121735997,-0.00711640995,-0.320311993
2107,0.121735997,-0.00711640995,-0.3125
2108,0.121735997,-0.00711640995,-0.304688007
2109,0.121735997,-0.00711640995,-0.296875
2110,0.121735997,-0.00711640995,-0.289063007
2111,0.121735997,-0.00711640995,-0.28125
2112,0.121735997,-0.00711640995,-0.273438007
2113,0.121735997,-0.00711640995,-0.265625
2114,0.121735997,-0.00711640995,-0.257813007
2115,0.121735997,-0.00711640995,-0.25
2116,0.121735997,-0.00711640995,-0.242188007
2117,0.121735997,-0.00711640995,-0.234375
2118,0.121735997,-0.00711640995,-0.226563007
2119,0.121735997,-0.00711640995,-0.21875
2120,0.121735997,-0.00711640995,-0.210938007
2121,0.121735997,-0.00711640995,-0.203125
2122,0.121735997,-0.00711640995,-0.195311993
2123,0.121735997,-0.00711640995,-0.1875
2124,0.121735997,-0.00711640995,-0.179688007
2125,0.121735997,-0.00711640995,-0.171875
2126,0.121735997,-0.00711640995,-0.164061993
2127,0.121735997,-0.00711640995,-0.15625
2128,0.121735997,-0.00711640995,-0.148438007
2129,0.121735997,-0.00711640995,-0.140625
2130,0.121735997,-0.00711640995,-0.132813007
2131,0.121735997,-0.00711640995,-0.125
2132,0.121735997,-0.00711640995,-0.117187999
2133,0.121735997,-0.00711640995,-0.109375
2134,0.121735997,-0.00711640995,-0.101562999
2135,0.121735997,-0.00711640995,-0.09375
2136,0.121735997,-0.00711640995,-0.0859375
2137,0.121735997,-0.00711640995,-0.078125
2138,0.121735997,-0.00711640995,-0.0703125
2139,0.121735997,-0.00711640995,-0.0625
2140,0.121735997,-0.00711640995,-0.0546875
2141,0.121735997,-0.00711640995,-0.046875
2142,0.121735997,-0.00711640995,-0.0390625
2143,0.121735997,-0.00711640995,-0.03125
2144,0.121735997,-0.00711640995,-0.0234375
2145,0.121735997,-0.00711640995,-0.015625
2146,0.121735997,-0.00711640995,-0.0078125
2147,0.121735997,-0.00711640995,0
2148,0.121735997,-0.00711640995,0.0078125
2149,0.121735997,-0.00711640995,0.015625
2150,0.121735997,-0.00711640995,0.0234375
2151,0.121735997,-0.00711640995,0.03125
2152,0.121735997,-0.00711640995,0.0390625
2153,0.121735997,-0.00711640995,0.046875
2154,0.121735997,-0.00711640995,0.0546875
2155,0.121735997,-0.00711640995,0.0625
2156,0.121735997,-0.00711640995,0.0703125
2157,0.121735997,-0.00711640995,0.078125
2158,0.121735997,-0.00711640995,0.0859375
2159,0.121735997,-0.00711640995,0.09375
2160,0.121735997,-0.00711640995,0.101562999
2161,0.121735997,-0.00711640995,0.109375
2162,0.121735997,-0.00711640995,0.117187001
2163,0.121735997,-0.00711640995,0.125
2164,0.121735997,-0.00711640995,0.132811993
2165,0.121735997,-0.00711640995,0.140625
2166,0.121735997,-0.00711640995,0.148436993
2167,0.121735997,-0.00711640995,0.15625
2168,0.121735997,-0.00711640995,0.164063007
2169,0.121735997,-0.00711640995,0.171875
2170,0.121735997,-0.00711640995,0.179688007
2171,0.121735997,-0.00711640995,0.1875
2172,0.121735997,-0.00711640995,0.195313007
2173,0.121735997,-0.00711640995,0.203125
2174,0.121735997,-0.00711640995,0.210936993
2175,0.121735997,-0.00711640995,0.21875
2176,0.121735997,-0.00711640995,0.226563007
2177,0.121735997,-0.00711640995,0.234375
2178,0.121735997,-0.00711640995,0.242186993
2179,0.121735997,-0.00711640995,0.25
2180,0.121735997,-0.00711640995,0.257813007
2181,0.121735997,-0.00711640995,0.265625
2182,0.121735997,-0.00711640995,0.273438007
2183,0.121735997,-0.00711640995,0.28125
2184,0.121735997,-0.00711640995,0.289063007
2185,0.121735997,-0.00711640995,0.296875
2186,0.121735997,-0.00711640995,0.304686993
2187,0.121735997,-0.00711640995,0.3125
2188,0.121735997,-0.00711640995,0.320313007
2189,0.121735997,-0.00711640995,0.328125
2190,0.121735997,-0.00711640995,0.335936993
2191,0.121735997,-0.00711640995,0.34375
2192,0.121735997,-0.00711640995,0.351561993
2193,0.121735997,-0.00711640995,0.359375
2194,0.121735997,-0.00711640995,0.367186993
2195,0.123827003,0.0285558999,-0.396203011
2196,0.123878002,0.0269235,0.396102995
2197,0.123999,0.0287833996,-0.289063007
2198,0.123999,0.0287833996,-0.28125
2199,0.123999,0.0287833996,-0.273438007
2200,0.123999,0.0287833996,-0.265625
2201,0.123999,0.0287833996,-0.257811993
2202,0.123999,0.0287833996,-0.25
2203,0.123999,0.0287833996,-0.242188007
2204,0.123999,0.0287833996,-0.234375
2205,0.123999,0.0287833996,-0.226561993
2206,0.123999,0.0287833996,-0.21875
2207,0.123999,0.0287833996,-0.210936993
2208,0.123999,0.0287833996,-0.203125
2209,0.123999,0.0287833996,-0.195311993
2210,0.123999,0.0287833996,-0.1875
2211,0.123999,0.0287833996,-0.179686993
2212,0.123999,0.0287833996,-0.171875
2213,0.123999,0.0287833996,-0.164061993
2214,0.123999,0.0287833996,-0.15625
2215,0.123999,0.0287833996,-0.148438007
2216,0.123999,0.0287833996,-0.140625
2217,0.123999,0.0287833996,-0.132813007
2218,0.123999,0.0287833996,-0.125
2219,0.123999,0.0287833996,-0.117187999
2220,0.123999,0.0287833996,-0.109375
2221,0.123999,0.0287833996,-0.101562001
2222,0.123999,0.0287833996,-0.09375
2223,0.123999,0.0287833996,-0.0859375
2224,0.123999,0.0287833996,-0.078125
2225,0.123999,0.0287833996,-0.0703125
2226,0.123999,0.0287833996,-0.0625
2227,0.123999,0.0287833996,-0.0546875
2228,0.123999,0.0287833996,-0.046875
2229,0.123999,0.0287833996,-0.0390625
2230,0.123999,0.0287833996,-0.03125
2231,0.123999,0.0287833996,-0.0234375
2232,0.123999,0.0287833996,-0.015625
2233,0.123999,0.0287833996,-0.0078125
2234,0.123999,0.0287833996,-0
2235,0.123999,0.0287833996,0.0078125
2236,0.123999,0.0287833996,0.015625
2237,0.123999,0.0287833996,0.0234375
2238,0.123999,0.0287833996,0.03125
2239,0.123999,0.0287833996,0.0390625
2240,0.123999,0.0287833996,0.046875
2241,0.123999,0.0287833996,0.0546875
2242,0.123999,0.0287833996,0.0625
2243,0.123999,0.0287833996,0.0703125
2244,0.123999,0.0287833996,0.078125
2245,0.123999,0.0287833996,0.0859375
2246,0.123999,0.0287833996,0.09375
2247,0.123999,0.0287833996,0.101562001
2248,0.123999,0.0287833996,0.109375
2249,0.123999,0.0287833996,0.117187999
2250,0.123999,0.0287833996,0.125
2251,0.123999,0.0287833996,0.132813007
2252,0.123999,0.0287833996,0.140625
2253,0.123999,0.0287833996,0.148436993
2254,0.123999,0.0287833996,0.15625
2255,0.123999,0.0287833996,0.164063007
2256,0.123999,0.0287833996,0.171875
2257,0.123999,0.0287833996,0.179686993
2258,0.123999,0.0287833996,0.1875
2259,0.123999,0.0287833996,0.195313007
2260,0.123999,0.0287833996,0.203125
2261,0.123999,0.0287833996,0.210938007
2262,0.123999,0.0287833996,0.21875
2263,0.123999,0.0287833996,0.226563007
2264,0.123999,0.0287833996,0.234375
2265,0.123999,0.0287833996,0.242186993
2266,0.123999,0.0287833996,0.25
2267,0.123999,0.0287833996,0.257813007
2268,0.123999,0.0287833996,0.265625
2269,0.123999,0.0287833996,0.273438007
2270,0.123999,0.0287833996,0.28125
2271,0.123999,0.0287833996,0.289063007
2272,0.124131002,0.0280632991,-0.382748991
2273,0.124131002,0.0283870995,-0.390309989
2274,0.124190003,0.0277379993,-0.374949992
2275,0.124191001,0.0277331993,0.374949992
2276,0.124250002,0.0274123996,0.367152005
2277,0.124250002,0.0274126008,-0.367152005
2278,0.124274999,0.0280409008,0.382779986
2279,0.124300003,0.0281015001,0.390258998
2280,0.124309003,0.0270872004,-0.359353006
2281,0.124309003,0.0270872004,0.359353006
2282,0.124369003,0.0267616995,-0.35155499
2283,0.124369003,0.0267616995,0.35155499
2284,0.124429002,0.0264362991,-0.34375599
2285,0.124429002,0.0264362991,0.34375599
2286,0.124488004,0.0261109006,-0.335958004
2287,0.124488004,0.0261109006,0.335958004
2288,0.124548003,0.0257853996,-0.328159004
2289,0.124548003,0.0257853996,0.328159004
2290,0.124608003,0.0254599992,-0.320360988
2291,0.124608003,0.0254599992,0.320360988
2292,0.124666996,0.0251346007,-0.312561989
2293,0.124666996,0.0251346007,0.312561989
2294,0.124727003,0.0248092003,-0.304764003
2295,0.124727003,0.0248092003,0.304764003
2296,0.124785997,0.0244836994,-0.296965003
2297,0.124785997,0.0244836994,0.296965003
2298,0.124829002,0.0115318,0.396831006
2299,0.124943003,0.0117004002,-0.396972001
2300,0.126195997,-0.00514486013,0.390477002
2301,0.126223996,-0.00524530979,-0.390473008
2302,0.130107999,-0.00386989,0.395837992
2303,0.130219996,-0.00430185022,-0.395898014
2304,0.135732993,0.0158795994,0.396156996
2305,0.136445999,0.0305975005,-0.39666599
2306,0.136944994,0.0293042008,0.390529007
2307,0.137272999,0.0144661004,-0.398422986
2308,0.137566999,0.0139180999,0.396831006
2309,0.137890995,-0.000860915985,-0.359405994
2310,0.137890995,-0.000860915985,0.359405994
2311,0.137980998,-0.00117427995,-0.367204994
2312,0.137980998,-0.00117427995,0.367204994
2313,0.138044,-0.00183514005,-0.382831007
2314,0.138044,-0.00183472002,0.382831007
2315,0.138071001,-0.00148764998,0.375003994
2316,0.138071001,-0.00148763997,-0.375003994
2317,0.138169006,-0.00209756009,0.390302002
2318,0.138172999,-0.00211323006,-0.390300989
2319,0.138358995,-0.00249198009,-0.351561993
2320,0.138358995,-0.00249198009,-0.34375
2321,0.138358995,-0.00249198009,-0.335938007
2322,0.138358995,-0.00249198009,-0.328125
2323,0.138358995,-0.00249198009,-0.320311993
2324,0.138358995,-0.00249198009,-0.3125
2325,0.138358995,-0.00249198009,-0.304688007
2326,0.138358995,-0.00249198009,-0.296875
2327,0.138358995,-0.00249198009,-0.289063007
2328,0.138358995,-0.00249198009,-0.28125
2329,0.138358995,-0.00249198009,-0.273438007
2330,0.138358995,-0.00249198009,-0.265625
2331,0.138358995,-0.00249198009,-0.257811993
2332,0.138358995,-0.00249198009,-0.25
2333,0.138358995,-0.00249198009,-0.242188007
2334,0.138358995,-0.00249198009,-0.234375
2335,0.138358995,-0.00249198009,-0.226561993
2336,0.138358995,-0.00249198009,-0.21875
2337,0.138358995,-0.00249198009,-0.210936993
2338,0.138358995,-0.00249198009,-0.203125
2339,0.138358995,-0.00249198009,-0.195311993
2340,0.138358995,-0.00249198009,-0.1875
2341,0.138358995,-0.00249198009,-0.179688007
2342,0.138358995,-0.00249198009,-0.171875
2343,0.138358995,-0.00249198009,-0.164063007
2344,0.138358995,-0.00249198009,-0.15625
2345,0.138358995,-0.00249198009,-0.148438007
2346,0.138358995,-0.00249198009,-0.140625
2347,0.138358995,-0.00249198009,-0.132811993
2348,0.138358995,-0.00249198009,-0.125
2349,0.138358995,-0.00249198009,-0.117187001
2350,0.138358995,-0.00249198009,-0.109375
2351,0.138358995,-0.00249198009,-0.101562999
2352,0.138358995,-0.00249198009,-0.09375
2353,0.138358995,-0.00249198009,-0.0859375
2354,0.138358995,-0.00249198009,-0.078125
2355,0.138358995,-0.00249198009,-0.0703125
2356,0.138358995,-0.00249198009,-0.0625
2357,0.138358995,-0.00249198009,-0.0546875
2358,0.138358995,-0.00249198009,-0.046875
2359,0.138358995,-0.00249198009,-0.0390625
2360,0.138358995,-0.00249198009,-0.03125
2361,0.138358995,-0.00249198009,-0.0234375
2362,0.138358995,-0.00249198009,-0.015625
2363,0.138358995,-0.00249198009,-0.0078125
2364,0.138358995,-0.00249198009,0
2365,0.138358995,-0.00249198009,0.0078125
2366,0.138358995,-0.00249198009,0.015625
2367,0.138358995,-0.00249198009,0.0234375
2368,0.138358995,-0.00249198009,0.03125
2369,0.138358995,-0.00249198009,0.0390625
2370,0.138358995,-0.00249198009,0.046875
2371,0.138358995,-0.00249198009,0.0546875
2372,0.138358995,-0.00249198009,0.0625
2373,0.138358995,-0.00249198009,0.0703125
2374,0.138358995,-0.00249198009,0.078125
2375,0.138358995,-0.00249198009,0.0859375
2376,0.138358995,-0.00249198009,0.09375
2377,0.138358995,-0.00249198009,0.101562001
2378,0.138358995,-0.00249198009,0.109375
2379,0.138358995,-0.00249198009,0.117187001
2380,0.138358995,-0.00249198009,0.125
2381,0.138358995,-0.00249198009,0.132813007
2382,0.138358995,-0.00249198009,0.140625
2383,0.138358995,-0.00249198009,0.148436993
2384,0.138358995,-0.00249198009,0.15625
2385,0.138358995,-0.00249198009,0.164061993
2386,0.138358995,-0.00249198009,0.171875
2387,0.138358995,-0.00249198009,0.179686993
2388,0.138358995,-0.00249198009,0.1875
2389,0.138358995,-0.00249198009,0.195311993
2390,0.138358995,-0.00249198009,0.203125
2391,0.138358995,-0.00249198009,0.210938007
2392,0.138358995,-0.00249198009,0.21875
2393,0.138358995,-0.00249198009,0.226563007
2394,0.138358995,-0.00249198009,0.234375
2395,0.138358995,-0.00249198009,0.242188007
2396,0.138358995,-0.00249198009,0.25
2397,0.138358995,-0.00249198009,0.257813007
2398,0.138358995,-0.00249198009,0.265625
2399,0.138358995,-0.00249198009,0.273438007
2400,0.138358995,-0.00249198009,0.28125
2401,0.138358995,-0.00249198009,0.289061993
2402,0.138358995,-0.00249198009,0.296875
2403,0.138358995,-0.00249198009,0.304686993
2404,0.138358995,-0.00249198009,0.3125
2405,0.138358995,-0.00249198009,0.320313007
2406,0.138358995,-0.00249198009,0.328125
2407,0.138358995,-0.00249198009,0.335936993
2408,0.138358995,-0.00249198009,0.34375
2409,0.138358995,-0.00249198009,0.351561993
2410,0.139079005,-0.00177174003,0.396106988
2411,0.139199004,-0.00200752006,-0.396304011
2412,0.140521005,0.0317299999,0.375
2413,0.140529007,0.0316823982,-0.375
2414,0.140529007,0.0316823982,-0.367188007
2415,0.140529007,0.0316823982,-0.359375
2416,0.140529007,0.0316823982,-0.351561993
2417,0.140529007,0.0316823982,-0.34375
2418,0.140529007,0.0316823982,-0.335938007
2419,0.140529007,0.0316823982,-0.328125
2420,0.140529007,0.0316823982,-0.320311993
2421,0.140529007,0.0316823982,-0.3125
2422,0.140529007,0.0316823982,-0.304688007
2423,0.140529007,0.0316823982,-0.296875
2424,0.140529007,0.0316823982,-0.289061993
2425,0.140529007,0.0316823982,-0.28125
2426,0.140529007,0.0316823982,-0.273436993
2427,0.140529007,0.0316823982,-0.265625
2428,0.140529007,0.0316823982,-0.257813007
2429,0.140529007,0.0316823982,-0.25
2430,0.140529007,0.0316823982,-0.242188007
2431,0.140529007,0.0316823982,-0.234375
2432,0.140529007,0.0316823982,-0.226561993
2433,0.140529007,0.0316823982,-0.21875
2434,0.140529007,0.0316823982,-0.210936993
2435,0.140529007,0.0316823982,-0.203125
2436,0.140529007,0.0316823982,-0.195311993
2437,0.140529007,0.0316823982,-0.1875
2438,0.140529007,0.0316823982,-0.179688007
2439,0.140529007,0.0316823982,-0.171875
2440,0.140529007,0.0316823982,-0.164061993
2441,0.140529007,0.0316823982,-0.15625
2442,0.140529007,0.0316823982,-0.148438007
2443,0.140529007,0.0316823982,-0.140625
2444,0.140529007,0.0316823982,-0.132811993
2445,0.140529007,0.0316823982,-0.125
2446,0.140529007,0.0316823982,-0.117187999
2447,0.140529007,0.0316823982,-0.109375
2448,0.140529007,0.0316823982,-0.101562001
2449,0.140529007,0.0316823982,-0.09375
2450,0.140529007,0.0316823982,-0.0859375
2451,0.140529007,0.0316823982,-0.078125
2452,0.140529007,0.0316823982,-0.0703125
2453,0.140529007,0.0316823982,-0.0625
2454,0.140529007,0.0316823982,-0.0546875
2455,0.140529007,0.0316823982,-0.046875
2456,0.140529007,0.0316823982,-0.0390625
2457,0.140529007,0.0316823982,-0.03125
2458,0.140529007,0.0316823982,-0.0234375
2459,0.140529007,0.0316823982,-0.015625
2460,0.140529007,0.0316823982,-0.0078125
2461,0.140529007,0.0316823982,0
2462,0.140529007,0.0316823982,0.0078125
2463,0.140529007,0.0316823982,0.015625
2464,0.140529007,0.0316823982,0.0234375
2465,0.140529007,0.0316823982,0.03125
2466,0.140529007,0.0316823982,0.0390625
2467,0.140529007,0.0316823982,0.046875
2468,0.140529007,0.0316823982,0.0546875
2469,0.140529007,0.0316823982,0.0625
2470,0.140529007,0.0316823982,0.0703125
2471,0.140529007,0.0316823982,0.078125
2472,0.140529007,0.0316823982,0.0859375
2473,0.140529007,0.0316823982,0.09375
2474,0.140529007,0.0316823982,0.101562999
2475,0.140529007,0.0316823982,0.109375
2476,0.140529007,0.0316823982,0.117187001
2477,0.140529007,0.0316823982,0.125
2478,0.140529007,0.0316823982,0.132813007
2479,0.140529007,0.0316823982,0.140625
2480,0.140529007,0.0316823982,0.148438007
2481,0.140529007,0.0316823982,0.15625
2482,0.140529007,0.0316823982,0.164063007
2483,0.140529007,0.0316823982,0.171875
2484,0.140529007,0.0316823982,0.179688007
2485,0.140529007,0.0316823982,0.1875
2486,0.140529007,0.0316823982,0.195311993
2487,0.140529007,0.0316823982,0.203125
2488,0.140529007,0.0316823982,0.210938007
2489,0.140529007,0.0316823982,0.21875
2490,0.140529007,0.0316823982,0.226561993
2491,0.140529007,0.0316823982,0.234375
2492,0.140529007,0.0316823982,0.242186993
2493,0.140529007,0.0316823982,0.25
2494,0.140529007,0.0316823982,0.257811993
2495,0.140529007,0.0316823982,0.265625
2496,0.140529007,0.0316823982,0.273438007
2497,0.140529007,0.0316823982,0.28125
2498,0.140529007,0.0316823982,0.289061993
2499,0.140529007,0.0316823982,0.296875
2500,0.140529007,0.0316823982,0.304686993
2501,0.140529007,0.0316823982,0.3125
2502,0.140529007,0.0316823982,0.320313007
2503,0.140529007,0.0316823982,0.328125
2504,0.140529007,0.0316823982,0.335938007
2505,0.140529007,0.0316823982,0.34375
2506,0.140529007,0.0316823982,0.351561993
2507,0.140529007,0.0316823982,0.359375
2508,0.140529007,0.0316829011,-0.382813007
2509,0.140529007,0.0316866003,0.367188007
2510,0.140615001,0.0319540016,0.382604003
2511,0.140660003,0.0317115001,-0.390363008
2512,0.141145006,0.0323075987,0.388446003
2513,0.141231,0.0318228006,-0.396117002
2514,0.148834005,0.0308609996,0.391323
2515,0.148846,0.0153331002,0.396753997
2516,0.149128005,0.0161796007,-0.398575991
2517,0.149225995,0.000675520976,0.375
2518,0.149225995,0.000675534015,-0.375
2519,0.149225995,0.000675589021,-0.367186993
2520,0.149225995,0.000675589021,-0.359375
2521,0.149225995,0.000675589021,-0.351561993
2522,0.149225995,0.000675589021,-0.34375
2523,0.149225995,0.000675589021,-0.335936993
2524,0.149225995,0.000675589021,-0.328125
2525,0.149225995,0.000675589021,-0.320313007
2526,0.149225995,0.000675589021,-0.3125
2527,0.149225995,0.000675589021,-0.304688007
2528,0.149225995,0.000675589021,-0.296875
2529,0.149225995,0.000675589021,-0.289061993
2530,0.149225995,0.000675589021,-0.28125
2531,0.149225995,0.000675589021,-0.273438007
2532,0.149225995,0.000675589021,-0.265625
2533,0.149225995,0.000675589021,-0.257813007
2534,0.149225995,0.000675589021,-0.25
2535,0.149225995,0.000675589021,-0.242188007
2536,0.149225995,0.000675589021,-0.234375
2537,0.149225995,0.000675589021,-0.226563007
2538,0.149225995,0.000675589021,-0.21875
2539,0.149225995,0.000675589021,-0.210938007
2540,0.149225995,0.000675589021,-0.203125
2541,0.149225995,0.000675589021,-0.195311993
2542,0.149225995,0.000675589021,-0.1875
2543,0.149225995,0.000675589021,-0.179688007
2544,0.149225995,0.000675589021,-0.171875
2545,0.149225995,0.000675589021,-0.164063007
2546,0.149225995,0.000675589021,-0.15625
2547,0.149225995,0.000675589021,-0.148438007
2548,0.149225995,0.000675589021,-0.140625
2549,0.149225995,0.000675589021,-0.132813007
2550,0.149225995,0.000675589021,-0.125
2551,0.149225995,0.000675589021,-0.117187999
2552,0.149225995,0.000675589021,-0.109375
2553,0.149225995,0.000675589021,-0.101562999
2554,0.149225995,0.000675589021,-0.09375
2555,0.149225995,0.000675589021,-0.0859375
2556,0.149225995,0.000675589021,-0.078125
2557,0.149225995,0.000675589021,-0.0703125
2558,0.149225995,0.000675589021,-0.0625
2559,0.149225995,0.000675589021,-0.0546875
2560,0.149225995,0.000675589021,-0.046875
2561,0.149225995,0.000675589021,-0.0390625
2562,0.149225995,0.000675589021,-0.03125
2563,0.149225995,0.000675589021,-0.0234375
2564,0.149225995,0.000675589021,-0.015625
2565,0.149225995,0.000675589021,-0.0078125
2566,0.149225995,0.000675589021,-1e-12
2567,0.149225995,0.000675589021,0.0078125
2568,0.149225995,0.000675589021,0.015625
2569,0.149225995,0.000675589021,0.0234375
2570,0.149225995,0.000675589021,0.03125
2571,0.149225995,0.000675589021,0.0390625
2572,0.149225995,0.000675589021,0.046875
2573,0.149225995,0.000675589021,0.0546875
2574,0.149225995,0.000675589021,0.0625
2575,0.149225995,0.000675589021,0.0703125
2576,0.149225995,0.000675589021,0.078125
2577,0.149225995,0.000675589021,0.0859375
2578,0.149225995,0.000675589021,0.09375
2579,0.149225995,0.000675589021,0.101562001
2580,0.149225995,0.000675589021,0.109375
2581,0.149225995,0.000675589021,0.117187999
2582,0.149225995,0.000675589021,0.125
2583,0.149225995,0.000675589021,0.132813007
2584,0.149225995,0.000675589021,0.140625
2585,0.149225995,0.000675589021,0.148438007
2586,0.149225995,0.000675589021,0.15625
2587,0.149225995,0.000675589021,0.164061993
2588,0.149225995,0.000675589021,0.171875
2589,0.149225995,0.000675589021,0.179686993
2590,0.149225995,0.000675589021,0.1875
2591,0.149225995,0.000675589021,0.195313007
2592,0.149225995,0.000675589021,0.203125
2593,0.149225995,0.000675589021,0.210938007
2594,0.149225995,0.000675589021,0.21875
2595,0.149225995,0.000675589021,0.226563007
2596,0.149225995,0.000675589021,0.234375
2597,0.149225995,0.000675589021,0.242188007
2598,0.149225995,0.000675589021,0.25
2599,0.149225995,0.000675589021,0.257811993
2600,0.149225995,0.000675589021,0.265625
2601,0.149225995,0.000675589021,0.273438007
2602,0.149225995,0.000675589021,0.28125
2603,0.149225995,0.000675589021,0.289061993
2604,0.149225995,0.000675589021,0.296875
2605,0.149225995,0.000675589021,0.304688007
2606,0.149225995,0.000675589021,0.3125
2607,0.149225995,0.000675589021,0.320311993
2608,0.149225995,0.000675589021,0.328125
2609,0.149225995,0.000675589021,0.335938007
2610,0.149225995,0.000675589021,0.34375
2611,0.149225995,0.000675589021,0.351561993
2612,0.149225995,0.000675589021,0.359375
2613,0.149225995,0.000675589021,0.367188007
2614,0.149226993,0.000674040988,0.382811993
2615,0.149226993,0.000674173993,-0.382813007
2616,0.149296999,0.000685927982,0.390347004
2617,0.149296999,0.000686938991,-0.390347004
2618,0.150124997,0.00121187,0.396194994
2619,0.150186002,0.00121427001,-0.396450996
2620,0.150415003,0.0336084999,0.388965011
2621,0.150536999,0.0333821997,-0.396530002
2622,0.151107997,0.0337487012,0.382600993
2623,0.151125997,0.0334649011,-0.390347004
2624,0.151141003,0.0334935002,0.375
2625,0.151150003,0.0334353,0.367188007
2626,0.151151001,0.0334285013,-0.375
2627,0.151151001,0.0334285013,-0.367188007
2628,0.151151001,0.0334285013,-0.359375
2629,0.151151001,0.0334285013,-0.351561993
2630,0.151151001,0.0334285013,-0.34375
2631,0.151151001,0.0334285013,-0.335938007
2632,0.151151001,0.0334285013,-0.328125
2633,0.151151001,0.0334285013,-0.320311993
2634,0.151151001,0.0334285013,-0.3125
2635,0.151151001,0.0334285013,-0.304688007
2636,0.151151001,0.0334285013,-0.296875
2637,0.151151001,0.0334285013,-0.289063007
2638,0.151151001,0.0334285013,-0.28125
2639,0.151151001,0.0334285013,-0.273436993
2640,0.151151001,0.0334285013,-0.265625
2641,0.151151001,0.0334285013,-0.257811993
2642,0.151151001,0.0334285013,-0.25
2643,0.151151001,0.0334285013,-0.242186993
2644,0.151151001,0.0334285013,-0.234375
2645,0.151151001,0.0334285013,-0.226561993
2646,0.151151001,0.0334285013,-0.21875
2647,0.151151001,0.0334285013,-0.210936993
2648,0.151151001,0.0334285013,-0.203125
2649,0.151151001,0.0334285013,-0.195311993
2650,0.151151001,0.0334285013,-0.1875
2651,0.151151001,0.0334285013,-0.179686993
2652,0.151151001,0.0334285013,-0.171875
2653,0.151151001,0.0334285013,-0.164061993
2654,0.151151001,0.0334285013,-0.15625
2655,0.151151001,0.0334285013,-0.148438007
2656,0.151151001,0.0334285013,-0.140625
2657,0.151151001,0.0334285013,-0.132813007
2658,0.151151001,0.0334285013,-0.125
2659,0.151151001,0.0334285013,-0.117187001
2660,0.151151001,0.0334285013,-0.109375
2661,0.151151001,0.0334285013,-0.101562001
2662,0.151151001,0.0334285013,-0.09375
2663,0.151151001,0.0334285013,-0.0859375
2664,0.151151001,0.0334285013,-0.078125
2665,0.151151001,0.0334285013,-0.0703125
2666,0.151151001,0.0334285013,-0.0625
2667,0.151151001,0.0334285013,-0.0546875
2668,0.151151001,0.0334285013,-0.046875
2669,0.151151001,0.0334285013,-0.0390625
2670,0.151151001,0.0334285013,-0.03125
2671,0.151151001,0.0334285013,-0.0234375
2672,0.151151001,0.0334285013,-0.015625
2673,0.151151001,0.0334285013,-0.0078125
2674,0.151151001,0.0334285013,-0
2675,0.151151001,0.0334285013,0.0078125
2676,0.151151001,0.0334285013,0.015625
2677,0.151151001,0.0334285013,0.0234375
2678,0.151151001,0.0334285013,0.03125
2679,0.151151001,0.0334285013,0.0390625
2680,0.151151001,0.0334285013,0.046875
2681,0.151151001,0.0334285013,0.0546875
2682,0.151151001,0.0334285013,0.0625
2683,0.151151001,0.0334285013,0.0703125
2684,0.151151001,0.0334285013,0.078125
2685,0.151151001,0.0334285013,0.0859375
2686,0.151151001,0.0334285013,0.09375
2687,0.151151001,0.0334285013,0.101562999
2688,0.151151001,0.0334285013,0.109375
2689,0.151151001,0.0334285013,0.117187999
2690,0.151151001,0.0334285013,0.125
2691,0.151151001,0.0334285013,0.132811993
2692,0.151151001,0.0334285013,0.140625
2693,0.151151001,0.0334285013,0.148436993
2694,0.151151001,0.0334285013,0.15625
2695,0.151151001,0.0334285013,0.164061993
2696,0.151151001,0.0334285013,0.171875
2697,0.151151001,0.0334285013,0.179686993
2698,0.151151001,0.0334285013,0.1875
2699,0.151151001,0.0334285013,0.195311993
2700,0.151151001,0.0334285013,0.203125
2701,0.151151001,0.0334285013,0.210936993
2702,0.151151001,0.0334285013,0.21875
2703,0.151151001,0.0334285013,0.226561993
2704,0.151151001,0.0334285013,0.234375
2705,0.151151001,0.0334285013,0.242186993
2706,0.151151001,0.0334285013,0.25
2707,0.151151001,0.0334285013,0.257811993
2708,0.151151001,0.0334285013,0.265625
2709,0.151151001,0.0334285013,0.273438007
2710,0.151151001,0.0334285013,0.28125
2711,0.151151001,0.0334285013,0.289063007
2712,0.151151001,0.0334285013,0.296875
2713,0.151151001,0.0334285013,0.304686993
2714,0.151151001,0.0334285013,0.3125
2715,0.151151001,0.0334285013,0.320313007
2716,0.151151001,0.0334285013,0.328125
2717,0.151151001,0.0334285013,0.335938007
2718,0.151151001,0.0334285013,0.34375
2719,0.151151001,0.0334285013,0.351561993
2720,0.151151001,0.0334285013,0.359375
2721,0.151151001,0.0334331989,-0.382811993
2722,0.151280999,0.0195566993,-0.398575991
2723,0.159114003,0.00364704989,-0.396117002
2724,0.159226999,0.00367731997,0.395907015
2725,0.159532994,0.00375169003,-0.390363008
2726,0.159610003,0.00379652996,-0.375
2727,0.159610003,0.00379677001,-0.367188007
2728,0.159610003,0.00379677001,-0.359375
2729,0.159610003,0.00379677001,-0.351561993
2730,0.159610003,0.00379677001,-0.34375
2731,0.159610003,0.00379677001,-0.335938007
2732,0.159610003,0.00379677001,-0.328125
2733,0.159610003,0.00379677001,-0.320311993
2734,0.159610003,0.00379677001,-0.3125
2735,0.159610003,0.00379677001,-0.304688007
2736,0.159610003,0.00379677001,-0.296875
2737,0.159610003,0.00379677001,-0.289063007
2738,0.159610003,0.00379677001,-0.28125
2739,0.159610003,0.00379677001,-0.273438007
2740,0.159610003,0.00379677001,-0.265625
2741,0.159610003,0.00379677001,-0.257811993
2742,0.159610003,0.00379677001,-0.25
2743,0.159610003,0.00379677001,-0.242188007
2744,0.159610003,0.00379677001,-0.234375
2745,0.159610003,0.00379677001,-0.226561993
2746,0.159610003,0.00379677001,-0.21875
2747,0.159610003,0.00379677001,-0.210936993
2748,0.159610003,0.00379677001,-0.203125
2749,0.159610003,0.00379677001,-0.195311993
2750,0.159610003,0.00379677001,-0.1875
2751,0.159610003,0.00379677001,-0.179688007
2752,0.159610003,0.00379677001,-0.171875
2753,0.159610003,0.00379677001,-0.164061993
2754,0.159610003,0.00379677001,-0.15625
2755,0.159610003,0.00379677001,-0.148438007
2756,0.159610003,0.00379677001,-0.140625
2757,0.159610003,0.00379677001,-0.132813007
2758,0.159610003,0.00379677001,-0.125
2759,0.159610003,0.00379677001,-0.117187999
2760,0.159610003,0.00379677001,-0.109375
2761,0.159610003,0.00379677001,-0.101562001
2762,0.159610003,0.00379677001,-0.09375
2763,0.159610003,0.00379677001,-0.0859375
2764,0.159610003,0.00379677001,-0.078125
2765,0.159610003,0.00379677001,-0.0703125
2766,0.159610003,0.00379677001,-0.0625
2767,0.159610003,0.00379677001,-0.0546875
2768,0.159610003,0.00379677001,-0.046875
2769,0.159610003,0.00379677001,-0.0390625
2770,0.159610003,0.00379677001,-0.03125
2771,0.159610003,0.00379677001,-0.0234375
2772,0.159610003,0.00379677001,-0.015625
2773,0.159610003,0.00379677001,-0.0078125
2774,0.159610003,0.00379677001,-0
2775,0.159610003,0.00379677001,0.0078125
2776,0.159610003,0.00379677001,0.015625
2777,0.159610003,0.00379677001,0.0234375
2778,0.159610003,0.00379677001,0.03125
2779,0.159610003,0.00379677001,0.0390625
2780,0.159610003,0.00379677001,0.046875
2781,0.159610003,0.00379677001,0.0546875
2782,0.159610003,0.00379677001,0.0625
2783,0.159610003,0.00379677001,0.0703125
2784,0.159610003,0.00379677001,0.078125
2785,0.159610003,0.00379677001,0.0859375
2786,0.159610003,0.00379677001,0.09375
2787,0.159610003,0.00379677001,0.101562001
2788,0.159610003,0.00379677001,0.109375
2789,0.159610003,0.00379677001,0.117187001
2790,0.159610003,0.00379677001,0.125
2791,0.159610003,0.00379677001,0.132811993
2792,0.159610003,0.00379677001,0.140625
2793,0.159610003,0.00379677001,0.148436993
2794,0.159610003,0.00379677001,0.15625
2795,0.159610003,0.00379677001,0.164061993
2796,0.159610003,0.00379677001,0.171875
2797,0.159610003,0.00379677001,0.179686993
2798,0.159610003,0.00379677001,0.1875
2799,0.159610003,0.00379677001,0.195313007
2800,0.159610003,0.00379677001,0.203125
2801,0.159610003,0.00379677001,0.210936993
2802,0.159610003,0.00379677001,0.21875
2803,0.159610003,0.00379677001,0.226563007
2804,0.159610003,0.00379677001,0.234375
2805,0.159610003,0.00379677001,0.242188007
2806,0.159610003,0.00379677001,0.25
2807,0.159610003,0.00379677001,0.257811993
2808,0.159610003,0.00379677001,0.265625
2809,0.159610003,0.00379677001,0.273436993
2810,0.159610003,0.00379677001,0.28125
2811,0.159610003,0.00379677001,0.289063007
2812,0.159610003,0.00379677001,0.296875
2813,0.159610003,0.00379677001,0.304688007
2814,0.159610003,0.00379677001,0.3125
2815,0.159610003,0.00379677001,0.320313007
2816,0.159610003,0.00379677001,0.328125
2817,0.159610003,0.00379677001,0.335936993
2818,0.159610003,0.00379677001,0.34375
2819,0.159610003,0.00379677001,0.351563007
2820,0.159610003,0.00379677001,0.359375
2821,0.159610003,0.00379677001,0.367188007
2822,0.159610003,0.00379677001,0.375
2823,0.159611002,0.00379277999,-0.382813007
2824,0.159694001,0.0038220901,0.38281101
2825,0.159714997,0.00382544007,0.390316993
2826,0.160845995,0.0193339009,0.395942986
2827,0.161274001,0.0181993004,-0.396959007
2828,0.162432,0.0350484997,-0.396609992
2829,0.162432998,0.0351924002,0.390500993
2830,0.162924007,0.0352989994,-0.390372992
2831,0.162955001,0.035324201,0.382764012
2832,0.163004994,0.0352872014,-0.382811993
2833,0.163004994,0.0352923013,0.375
2834,0.163005993,0.0352836996,-0.375
2835,0.163005993,0.0352836996,-0.367188007
2836,0.163005993,0.0352836996,-0.359375
2837,0.163005993,0.0352836996,-0.351561993
2838,0.163005993,0.0352836996,-0.34375
2839,0.163005993,0.0352836996,-0.335938007
2840,0.163005993,0.0352836996,-0.328125
2841,0.163005993,0.0352836996,-0.320311993
2842,0.163005993,0.0352836996,-0.3125
2843,0.163005993,0.0352836996,-0.304688007
2844,0.163005993,0.0352836996,-0.296875
2845,0.163005993,0.0352836996,-0.289063007
2846,0.163005993,0.0352836996,-0.28125
2847,0.163005993,0.0352836996,-0.273438007
2848,0.163005993,0.0352836996,-0.265625
2849,0.163005993,0.0352836996,-0.257811993
2850,0.163005993,0.0352836996,-0.25
2851,0.163005993,0.0352836996,-0.242186993
2852,0.163005993,0.0352836996,-0.234375
2853,0.163005993,0.0352836996,-0.226561993
2854,0.163005993,0.0352836996,-0.21875
2855,0.163005993,0.0352836996,-0.210936993
2856,0.163005993,0.0352836996,-0.203125
2857,0.163005993,0.0352836996,-0.195311993
2858,0.163005993,0.0352836996,-0.1875
2859,0.163005993,0.0352836996,-0.179686993
2860,0.163005993,0.0352836996,-0.171875
2861,0.163005993,0.0352836996,-0.164061993
2862,0.163005993,0.0352836996,-0.15625
2863,0.163005993,0.0352836996,-0.148436993
2864,0.163005993,0.0352836996,-0.140625
2865,0.163005993,0.0352836996,-0.132813007
2866,0.163005993,0.0352836996,-0.125
2867,0.163005993,0.0352836996,-0.117187001
2868,0.163005993,0.0352836996,-0.109375
2869,0.163005993,0.0352836996,-0.101562001
2870,0.163005993,0.0352836996,-0.09375
2871,0.163005993,0.0352836996,-0.0859375
2872,0.163005993,0.0352836996,-0.078125
2873,0.163005993,0.0352836996,-0.0703125
2874,0.163005993,0.0352836996,-0.0625
2875,0.163005993,0.0352836996,-0.0546875
2876,0.163005993,0.0352836996,-0.046875
2877,0.163005993,0.0352836996,-0.0390625
2878,0.163005993,0.0352836996,-0.03125
2879,0.163005993,0.0352836996,-0.0234375
2880,0.163005993,0.0352836996,-0.015625
2881,0.163005993,0.0352836996,-0.0078125
2882,0.163005993,0.0352836996,0
2883,0.163005993,0.0352836996,0.0078125
2884,0.163005993,0.0352836996,0.015625
2885,0.163005993,0.0352836996,0.0234375
2886,0.163005993,0.0352836996,0.03125
2887,0.163005993,0.0352836996,0.0390625
2888,0.163005993,0.0352836996,0.046875
2889,0.163005993,0.0352836996,0.0546875
2890,0.163005993,0.0352836996,0.0625
2891,0.163005993,0.0352836996,0.0703125
2892,0.163005993,0.0352836996,0.078125
2893,0.163005993,0.0352836996,0.0859375
2894,0.163005993,0.0352836996,0.09375
2895,0.163005993,0.0352836996,0.101562999
2896,0.163005993,0.0352836996,0.109375
2897,0.163005993,0.0352836996,0.117187999
2898,0.163005993,0.0352836996,0.125
2899,0.163005993,0.0352836996,0.132811993
2900,0.163005993,0.0352836996,0.140625
2901,0.163005993,0.0352836996,0.148436993
2902,0.163005993,0.0352836996,0.15625
2903,0.163005993,0.0352836996,0.164061993
2904,0.163005993,0.0352836996,0.171875
2905,0.163005993,0.0352836996,0.179686993
2906,0.163005993,0.0352836996,0.1875
2907,0.163005993,0.0352836996,0.195313007
2908,0.163005993,0.0352836996,0.203125
2909,0.163005993,0.0352836996,0.210938007
2910,0.163005993,0.0352836996,0.21875
2911,0.163005993,0.0352836996,0.226563007
2912,0.163005993,0.0352836996,0.234375
2913,0.163005993,0.0352836996,0.242188007
2914,0.163005993,0.0352836996,0.25
2915,0.163005993,0.0352836996,0.257813007
2916,0.163005993,0.0352836996,0.265625
2917,0.163005993,0.0352836996,0.273438007
2918,0.163005993,0.0352836996,0.28125
2919,0.163005993,0.0352836996,0.289061993
2920,0.163005993,0.0352836996,0.296875
2921,0.163005993,0.0352836996,0.304686993
2922,0.163005993,0.0352836996,0.3125
2923,0.163005993,0.0352836996,0.320313007
2924,0.163005993,0.0352836996,0.328125
2925,0.163005993,0.0352836996,0.335936993
2926,0.163005993,0.0352836996,0.34375
2927,0.163005993,0.0352836996,0.351561993
2928,0.163005993,0.0352836996,0.359375
2929,0.163005993,0.0352841988,0.367186993
2930,0.163184002,0.0216387995,-0.398575991
2931,0.165636003,0.0354694985,0.396088004
2932,0.165712997,0.0209315997,0.396728009
2933,0.174668998,0.0368805006,-0.396548986
2934,0.175009996,0.0369377993,0.396416008
2935,0.175044,0.0126687,-0.289126992
2936,0.175044,0.0126687,0.289126992
2937,0.175126001,0.0124073997,-0.296929985
2938,0.175126001,0.0124073997,0.296929985
2939,0.175143003,0.0370935984,-0.390372992
2940,0.175187007,0.0371003002,0.382818997
2941,0.175209001,0.0121462001,-0.304733008
2942,0.175209001,0.0121462001,0.304733008
2943,0.175217003,0.0371025987,-0.375
2944,0.175217003,0.0371025987,-0.367188007
2945,0.175217003,0.0371025987,-0.359375
2946,0.175217003,0.0371025987,-0.351561993
2947,0.175217003,0.0371025987,-0.34375
2948,0.175217003,0.0371025987,-0.335938007
2949,0.175217003,0.0371025987,-0.328125
2950,0.175217003,0.0371025987,-0.320311993
2951,0.175217003,0.0371025987,-0.3125
2952,0.175217003,0.0371025987,-0.304686993
2953,0.175217003,0.0371025987,-0.296875
2954,0.175217003,0.0371025987,-0.289063007
2955,0.175217003,0.0371025987,-0.28125
2956,0.175217003,0.0371025987,-0.273438007
2957,0.175217003,0.0371025987,-0.265625
2958,0.175217003,0.0371025987,-0.257811993
2959,0.175217003,0.0371025987,-0.25
2960,0.175217003,0.0371025987,-0.242188007
2961,0.175217003,0.0371025987,-0.234375
2962,0.175217003,0.0371025987,-0.226561993
2963,0.175217003,0.0371025987,-0.21875
2964,0.175217003,0.0371025987,-0.210936993
2965,0.175217003,0.0371025987,-0.203125
2966,0.175217003,0.0371025987,-0.195311993
2967,0.175217003,0.0371025987,-0.1875
2968,0.175217003,0.0371025987,-0.179686993
2969,0.175217003,0.0371025987,-0.171875
2970,0.175217003,0.0371025987,-0.164061993
2971,0.175217003,0.0371025987,-0.15625
2972,0.175217003,0.0371025987,-0.148436993
2973,0.175217003,0.0371025987,-0.140625
2974,0.175217003,0.0371025987,-0.132811993
2975,0.175217003,0.0371025987,-0.125
2976,0.175217003,0.0371025987,-0.117187001
2977,0.175217003,0.0371025987,-0.109375
2978,0.175217003,0.0371025987,-0.101562001
2979,0.175217003,0.0371025987,-0.09375
2980,0.175217003,0.0371025987,-0.0859375
2981,0.175217003,0.0371025987,-0.078125
2982,0.175217003,0.0371025987,-0.0703125
2983,0.175217003,0.0371025987,-0.0625
2984,0.175217003,0.0371025987,-0.0546875
2985,0.175217003,0.0371025987,-0.046875
2986,0.175217003,0.0371025987,-0.0390625
2987,0.175217003,0.0371025987,-0.03125
2988,0.175217003,0.0371025987,-0.0234375
2989,0.175217003,0.0371025987,-0.015625
2990,0.175217003,0.0371025987,-0.0078125
2991,0.175217003,0.0371025987,0
2992,0.175217003,0.0371025987,0.0078125
2993,0.175217003,0.0371025987,0.015625
2994,0.175217003,0.0371025987,0.0234375
2995,0.175217003,0.0371025987,0.03125
2996,0.175217003,0.0371025987,0.0390625
2997,0.175217003,0.0371025987,0.046875
2998,0.175217003,0.0371025987,0.0546875
2999,0.175217003,0.0371025987,0.0625
3000,0.175217003,0.0371025987,0.0703125
3001,0.175217003,0.0371025987,0.078125
3002,0.175217003,0.0371025987,0.0859375
3003,0.175217003,0.0371025987,0.09375
3004,0.175217003,0.0371025987,0.101562001
3005,0.175217003,0.0371025987,0.109375
3006,0.175217003,0.0371025987,0.117187001
3007,0.175217003,0.0371025987,0.125
3008,0.175217003,0.0371025987,0.132813007
3009,0.175217003,0.0371025987,0.140625
3010,0.175217003,0.0371025987,0.148438007
3011,0.175217003,0.0371025987,0.15625
3012,0.175217003,0.0371025987,0.164061993
3013,0.175217003,0.0371025987,0.171875
3014,0.175217003,0.0371025987,0.179686993
3015,0.175217003,0.0371025987,0.1875
3016,0.175217003,0.0371025987,0.195311993
3017,0.175217003,0.0371025987,0.203125
3018,0.175217003,0.0371025987,0.210938007
3019,0.175217003,0.0371025987,0.21875
3020,0.175217003,0.0371025987,0.226561993
3021,0.175217003,0.0371025987,0.234375
3022,0.175217003,0.0371025987,0.242188007
3023,0.175217003,0.0371025987,0.25
3024,0.175217003,0.0371025987,0.257811993
3025,0.175217003,0.0371025987,0.265625
3026,0.175217003,0.0371025987,0.273436993
3027,0.175217003,0.0371025987,0.28125
3028,0.175217003,0.0371025987,0.289061993
3029,0.175217003,0.0371025987,0.296875
3030,0.175217003,0.0371025987,0.304686993
3031,0.175217003,0.0371025987,0.3125
3032,0.175217003,0.0371025987,0.320311993
3033,0.175217003,0.0371025987,0.328125
3034,0.175217003,0.0371025987,0.335936993
3035,0.175217003,0.0371025987,0.34375
3036,0.175217003,0.0371025987,0.351563007
3037,0.175217003,0.0371025987,0.359375
3038,0.175217003,0.0371025987,0.367188007
3039,0.175217003,0.0371027999,-0.382811993
3040,0.175217003,0.0371027999,0.375
3041,0.175222993,0.0371071994,0.390338987
3042,0.175292,0.0118848998,-0.312536001
3043,0.175292,0.0118848998,0.312536001
3044,0.175301999,0.0234615002,-0.398485005
3045,0.175375,0.0116235996,-0.320338011
3046,0.175375,0.0116235996,0.320338011
3047,0.175457001,0.0113623999,-0.328141004
3048,0.175457001,0.0113623999,0.328141004
3049,0.17554,0.0111010997,-0.335943997
3050,0.17554,0.0111010997,0.335943997
3051,0.175623,0.0108399,-0.34374699
3052,0.175623,0.0108399,0.34374699
3053,0.175705999,0.0105785998,-0.351550013
3054,0.175705999,0.0105785998,0.351550013
3055,0.175724,0.0230353009,0.39825201
3056,0.175788,0.0103173004,-0.359353006
3057,0.175788,0.0103173004,0.359353006
3058,0.175871,0.0100560999,-0.367155999
3059,0.175871,0.0100560999,0.367155999
3060,0.175953999,0.00979480986,0.374958992
3061,0.175953999,0.00979502033,-0.374958992
3062,0.176035002,0.00953731965,-0.382762015
3063,0.176100001,0.00955430977,0.382748991
3064,0.176118001,0.00931842998,-0.390332013
3065,0.176219001,0.0089563597,-0.28125
3066,0.176219001,0.0089563597,-0.273438007
3067,0.176219001,0.0089563597,-0.265625
3068,0.176219001,0.0089563597,-0.257811993
3069,0.176219001,0.0089563597,-0.25
3070,0.176219001,0.0089563597,-0.242188007
3071,0.176219001,0.0089563597,-0.234375
3072,0.176219001,0.0089563597,-0.226563007
3073,0.176219001,0.0089563597,-0.21875
3074,0.176219001,0.0089563597,-0.210936993
3075,0.176219001,0.0089563597,-0.203125
3076,0.176219001,0.0089563597,-0.195311993
3077,0.176219001,0.0089563597,-0.1875
3078,0.176219001,0.0089563597,-0.179688007
3079,0.176219001,0.0089563597,-0.171875
3080,0.176219001,0.0089563597,-0.164063007
3081,0.176219001,0.0089563597,-0.15625
3082,0.176219001,0.0089563597,-0.148436993
3083,0.176219001,0.0089563597,-0.140625
3084,0.176219001,0.0089563597,-0.132813007
3085,0.176219001,0.0089563597,-0.125
3086,0.176219001,0.0089563597,-0.117187999
3087,0.176219001,0.0089563597,-0.109375
3088,0.176219001,0.0089563597,-0.101562001
3089,0.176219001,0.0089563597,-0.09375
3090,0.176219001,0.0089563597,-0.0859375
3091,0.176219001,0.0089563597,-0.078125
3092,0.176219001,0.0089563597,-0.0703125
3093,0.176219001,0.0089563597,-0.0625
3094,0.176219001,0.0089563597,-0.0546875
3095,0.176219001,0.0089563597,-0.046875
3096,0.176219001,0.0089563597,-0.0390625
3097,0.176219001,0.0089563597,-0.03125
3098,0.176219001,0.0089563597,-0.0234375
3099,0.176219001,0.0089563597,-0.015625
3100,0.176219001,0.0089563597,-0.0078125
3101,0.176219001,0.0089563597,0
3102,0.176219001,0.0089563597,0.0078125
3103,0.176219001,0.0089563597,0.015625
3104,0.176219001,0.0089563597,0.0234375
3105,0.176219001,0.0089563597,0.03125
3106,0.176219001,0.0089563597,0.0390625
3107,0.176219001,0.0089563597,0.046875
3108,0.176219001,0.0089563597,0.0546875
3109,0.176219001,0.0089563597,0.0625
3110,0.176219001,0.0089563597,0.0703125
3111,0.176219001,0.0089563597,0.078125
3112,0.176219001,0.0089563597,0.0859375
3113,0.176219001,0.0089563597,0.09375
3114,0.176219001,0.0089563597,0.101562001
3115,0.176219001,0.0089563597,0.109375
3116,0.176219001,0.0089563597,0.117187999
3117,0.176219001,0.0089563597,0.125
3118,0.176219001,0.0089563597,0.132811993
3119,0.176219001,0.0089563597,0.140625
3120,0.176219001,0.0089563597,0.148438007
3121,0.176219001,0.0089563597,0.15625
3122,0.176219001,0.0089563597,0.164063007
3123,0.176219001,0.0089563597,0.171875
3124,0.176219001,0.0089563597,0.179686993
3125,0.176219001,0.0089563597,0.1875
3126,0.176219001,0.0089563597,0.195311993
3127,0.176219001,0.0089563597,0.203125
3128,0.176219001,0.0089563597,0.210936993
3129,0.176219001,0.0089563597,0.21875
3130,0.176219001,0.0089563597,0.226561993
3131,0.176219001,0.0089563597,0.234375
3132,0.176219001,0.0089563597,0.242188007
3133,0.176219001,0.0089563597,0.25
3134,0.176219001,0.0089563597,0.257811993
3135,0.176219001,0.0089563597,0.265625
3136,0.176219001,0.0089563597,0.273436993
3137,0.176219001,0.0089563597,0.28125
3138,0.176238999,0.00932209007,0.390289009
3139,0.176844999,0.0095537398,-0.396465003
3140,0.177022994,0.00936993957,0.396299988
3141,0.186938003,0.0386558995,-0.396499991
3142,0.186938003,0.0386589989,0.396499991
3143,0.187159002,0.0124554997,-0.382811993
3144,0.187159002,0.0124556003,-0.375
3145,0.187159002,0.0124556003,-0.367188007
3146,0.187159002,0.0124556003,-0.359375
3147,0.187159002,0.0124556003,-0.351561993
3148,0.187159002,0.0124556003,-0.34375
3149,0.187159002,0.0124556003,-0.335938007
3150,0.187159002,0.0124556003,-0.328125
3151,0.187159002,0.0124556003,-0.320311993
3152,0.187159002,0.0124556003,-0.3125
3153,0.187159002,0.0124556003,-0.304688007
3154,0.187159002,0.0124556003,-0.296875
3155,0.187159002,0.0124556003,-0.289061993
3156,0.187159002,0.0124556003,-0.28125
3157,0.187159002,0.0124556003,-0.273438007
3158,0.187159002,0.0124556003,-0.265625
3159,0.187159002,0.0124556003,-0.257813007
3160,0.187159002,0.0124556003,-0.25
3161,0.187159002,0.0124556003,-0.242186993
3162,0.187159002,0.0124556003,-0.234375
3163,0.187159002,0.0124556003,-0.226561993
3164,0.187159002,0.0124556003,-0.21875
3165,0.187159002,0.0124556003,-0.210938007
3166,0.187159002,0.0124556003,-0.203125
3167,0.187159002,0.0124556003,-0.195311993
3168,0.187159002,0.0124556003,-0.1875
3169,0.187159002,0.0124556003,-0.179688007
3170,0.187159002,0.0124556003,-0.171875
3171,0.187159002,0.0124556003,-0.164063007
3172,0.187159002,0.0124556003,-0.15625
3173,0.187159002,0.0124556003,-0.148438007
3174,0.187159002,0.0124556003,-0.140625
3175,0.187159002,0.0124556003,-0.132811993
3176,0.187159002,0.0124556003,-0.125
3177,0.187159002,0.0124556003,-0.117187001
3178,0.187159002,0.0124556003,-0.109375
3179,0.187159002,0.0124556003,-0.101562001
3180,0.187159002,0.0124556003,-0.09375
3181,0.187159002,0.0124556003,-0.0859375
3182,0.187159002,0.0124556003,-0.078125
3183,0.187159002,0.0124556003,-0.0703125
3184,0.187159002,0.0124556003,-0.0625
3185,0.187159002,0.0124556003,-0.0546875
3186,0.187159002,0.0124556003,-0.046875
3187,0.187159002,0.0124556003,-0.0390625
3188,0.187159002,0.0124556003,-0.03125
3189,0.187159002,0.0124556003,-0.0234375
3190,0.187159002,0.0124556003,-0.015625
3191,0.187159002,0.0124556003,-0.0078125
3192,0.187159002,0.0124556003,-1e-12
3193,0.187159002,0.0124556003,0.0078125
3194,0.187159002,0.0124556003,0.015625
3195,0.187159002,0.0124556003,0.0234375
3196,0.187159002,0.0124556003,0.03125
3197,0.187159002,0.0124556003,0.0390625
3198,0.187159002,0.0124556003,0.046875
3199,0.187159002,0.0124556003,0.0546875
3200,0.187159002,0.0124556003,0.0625
3201,0.187159002,0.0124556003,0.0703125
3202,0.187159002,0.0124556003,0.078125
3203,0.187159002,0.0124556003,0.0859375
3204,0.187159002,0.0124556003,0.09375
3205,0.187159002,0.0124556003,0.101562999
3206,0.187159002,0.0124556003,0.109375
3207,0.187159002,0.0124556003,0.117187999
3208,0.187159002,0.0124556003,0.125
3209,0.187159002,0.0124556003,0.132813007
3210,0.187159002,0.0124556003,0.140625
3211,0.187159002,0.0124556003,0.148436993
3212,0.187159002,0.0124556003,0.15625
3213,0.187159002,0.0124556003,0.164063007
3214,0.187159002,0.0124556003,0.171875
3215,0.187159002,0.0124556003,0.179688007
3216,0.187159002,0.0124556003,0.1875
3217,0.187159002,0.0124556003,0.195311993
3218,0.187159002,0.0124556003,0.203125
3219,0.187159002,0.0124556003,0.210936993
3220,0.187159002,0.0124556003,0.21875
3221,0.187159002,0.0124556003,0.226561993
3222,0.187159002,0.0124556003,0.234375
3223,0.187159002,0.0124556003,0.242188007
3224,0.187159002,0.0124556003,0.25
3225,0.187159002,0.0124556003,0.257811993
3226,0.187159002,0.0124556003,0.265625
3227,0.187159002,0.0124556003,0.273436993
3228,0.187159002,0.0124556003,0.28125
3229,0.187159002,0.0124556003,0.289063007
3230,0.187159002,0.0124556003,0.296875
3231,0.187159002,0.0124556003,0.304686993
3232,0.187159002,0.0124556003,0.3125
3233,0.187159002,0.0124556003,0.320311993
3234,0.187159002,0.0124556003,0.328125
3235,0.187159002,0.0124556003,0.335938007
3236,0.187159002,0.0124556003,0.34375
3237,0.187159002,0.0124556003,0.351561993
3238,0.187159002,0.0124556003,0.359375
3239,0.187159002,0.0124556003,0.367186993
3240,0.187159002,0.0124556003,0.375
3241,0.187159002,0.0124556003,0.382811993
3242,0.187233001,0.0261495002,-0.398472011
3243,0.187312007,0.0125040002,-0.390372992
3244,0.187312007,0.0125048999,0.390372992
3245,0.187342003,0.0256903991,0.398472011
3246,0.187436,0.0385376997,0.390358001
3247,0.187436,0.0385378003,-0.390358001
3248,0.187465996,0.0388424993,-0.382811993
3249,0.187465996,0.0388424993,-0.375
3250,0.187465996,0.0388424993,-0.367188007
3251,0.187465996,0.0388424993,-0.359375
3252,0.187465996,0.0388424993,-0.351561993
3253,0.187465996,0.0388424993,-0.34375
3254,0.187465996,0.0388424993,-0.335938007
3255,0.187465996,0.0388424993,-0.328125
3256,0.187465996,0.0388424993,-0.320311993
3257,0.187465996,0.0388424993,-0.3125
3258,0.187465996,0.0388424993,-0.304688007
3259,0.187465996,0.0388424993,-0.296875
3260,0.187465996,0.0388424993,-0.289063007
3261,0.187465996,0.0388424993,-0.28125
3262,0.187465996,0.0388424993,-0.273438007
3263,0.187465996,0.0388424993,-0.265625
3264,0.187465996,0.0388424993,-0.257813007
3265,0.187465996,0.0388424993,-0.25
3266,0.187465996,0.0388424993,-0.242188007
3267,0.187465996,0.0388424993,-0.234375
3268,0.187465996,0.0388424993,-0.226561993
3269,0.187465996,0.0388424993,-0.21875
3270,0.187465996,0.0388424993,-0.210936993
3271,0.187465996,0.0388424993,-0.203125
3272,0.187465996,0.0388424993,-0.195313007
3273,0.187465996,0.0388424993,-0.1875
3274,0.187465996,0.0388424993,-0.179688007
3275,0.187465996,0.0388424993,-0.171875
3276,0.187465996,0.0388424993,-0.164061993
3277,0.187465996,0.0388424993,-0.15625
3278,0.187465996,0.0388424993,-0.148438007
3279,0.187465996,0.0388424993,-0.140625
3280,0.187465996,0.0388424993,-0.132811993
3281,0.187465996,0.0388424993,-0.125
3282,0.187465996,0.0388424993,-0.117187001
3283,0.187465996,0.0388424993,-0.109375
3284,0.187465996,0.0388424993,-0.101562001
3285,0.187465996,0.0388424993,-0.09375
3286,0.187465996,0.0388424993,-0.0859375
3287,0.187465996,0.0388424993,-0.078125
3288,0.187465996,0.0388424993,-0.0703125
3289,0.187465996,0.0388424993,-0.0625
3290,0.187465996,0.0388424993,-0.0546875
3291,0.187465996,0.0388424993,-0.046875
3292,0.187465996,0.0388424993,-0.0390625
3293,0.187465996,0.0388424993,-0.03125
3294,0.187465996,0.0388424993,-0.0234375
3295,0.187465996,0.0388424993,-0.015625
3296,0.187465996,0.0388424993,-0.0078125
3297,0.187465996,0.0388424993,-0
3298,0.187465996,0.0388424993,0.0078125
3299,0.187465996,0.0388424993,0.015625
3300,0.187465996,0.0388424993,0.0234375
3301,0.187465996,0.0388424993,0.03125
3302,0.187465996,0.0388424993,0.0390625
3303,0.187465996,0.0388424993,0.046875
3304,0.187465996,0.0388424993,0.0546875
3305,0.187465996,0.0388424993,0.0625
3306,0.187465996,0.0388424993,0.0703125
3307,0.187465996,0.0388424993,0.078125
3308,0.187465996,0.0388424993,0.0859375
3309,0.187465996,0.0388424993,0.09375
3310,0.187465996,0.0388424993,0.101562001
3311,0.187465996,0.0388424993,0.109375
3312,0.187465996,0.0388424993,0.117187999
3313,0.187465996,0.0388424993,0.125
3314,0.187465996,0.0388424993,0.132813007
3315,0.187465996,0.0388424993,0.140625
3316,0.187465996,0.0388424993,0.148436993
3317,0.187465996,0.0388424993,0.15625
3318,0.187465996,0.0388424993,0.164063007
3319,0.187465996,0.0388424993,0.171875
3320,0.187465996,0.0388424993,0.179686993
3321,0.187465996,0.0388424993,0.1875
3322,0.187465996,0.0388424993,0.195311993
3323,0.187465996,0.0388424993,0.203125
3324,0.187465996,0.0388424993,0.210938007
3325,0.187465996,0.0388424993,0.21875
3326,0.187465996,0.0388424993,0.226563007
3327,0.187465996,0.0388424993,0.234375
3328,0.187465996,0.0388424993,0.242188007
3329,0.187465996,0.0388424993,0.25
3330,0.187465996,0.0388424993,0.257811993
3331,0.187465996,0.0388424993,0.265625
3332,0.187465996,0.0388424993,0.273436993
3333,0.187465996,0.0388424993,0.28125
3334,0.187465996,0.0388424993,0.289061993
3335,0.187465996,0.0388424993,0.296875
3336,0.187465996,0.0388424993,0.304688007
3337,0.187465996,0.0388424993,0.3125
3338,0.187465996,0.0388424993,0.320311993
3339,0.187465996,0.0388424993,0.328125
3340,0.187465996,0.0388424993,0.335936993
3341,0.187465996,0.0388424993,0.34375
3342,0.187465996,0.0388424993,0.351561993
3343,0.187465996,0.0388424993,0.359375
3344,0.187465996,0.0388424993,0.367188007
3345,0.187465996,0.0388424993,0.375
3346,0.187465996,0.0388424993,0.382813007
3347,0.188292995,0.0129530001,-0.396542996
3348,0.188296005,0.0129423998,0.396542996
3349,0.198228002,0.0160703994,-0.382811993
3350,0.198228002,0.0160703994,-0.375
3351,0.198228002,0.0160703994,-0.367188007
3352,0.198228002,0.0160703994,-0.359375
3353,0.198228002,0.0160703994,-0.351561993
3354,0.198228002,0.0160703994,-0.34375
3355,0.198228002,0.0160703994,-0.335938007
3356,0.198228002,0.0160703994,-0.328125
3357,0.198228002,0.0160703994,-0.320311993
3358,0.198228002,0.0160703994,-0.3125
3359,0.198228002,0.0160703994,-0.304688007
3360,0.198228002,0.0160703994,-0.296875
3361,0.198228002,0.0160703994,-0.289061993
3362,0.198228002,0.0160703994,-0.28125
3363,0.198228002,0.0160703994,-0.273438007
3364,0.198228002,0.0160703994,-0.265625
3365,0.198228002,0.0160703994,-0.257811993
3366,0.198228002,0.0160703994,-0.25
3367,0.198228002,0.0160703994,-0.242188007
3368,0.198228002,0.0160703994,-0.234375
3369,0.198228002,0.0160703994,-0.226561993
3370,0.198228002,0.0160703994,-0.21875
3371,0.198228002,0.0160703994,-0.210938007
3372,0.198228002,0.0160703994,-0.203125
3373,0.198228002,0.0160703994,-0.195311993
3374,0.198228002,0.0160703994,-0.1875
3375,0.198228002,0.0160703994,-0.179688007
3376,0.198228002,0.0160703994,-0.171875
3377,0.198228002,0.0160703994,-0.164061993
3378,0.198228002,0.0160703994,-0.15625
3379,0.198228002,0.0160703994,-0.148438007
3380,0.198228002,0.0160703994,-0.140625
3381,0.198228002,0.0160703994,-0.132811993
3382,0.198228002,0.0160703994,-0.125
3383,0.198228002,0.0160703994,-0.117187001
3384,0.198228002,0.0160703994,-0.109375
3385,0.198228002,0.0160703994,-0.101562001
3386,0.198228002,0.0160703994,-0.09375
3387,0.198228002,0.0160703994,-0.0859375
3388,0.198228002,0.0160703994,-0.078125
3389,0.198228002,0.0160703994,-0.0703125
3390,0.198228002,0.0160703994,-0.0625
3391,0.198228002,0.0160703994,-0.0546875
3392,0.198228002,0.0160703994,-0.046875
3393,0.198228002,0.0160703994,-0.0390625
3394,0.198228002,0.0160703994,-0.03125
3395,0.198228002,0.0160703994,-0.0234375
3396,0.198228002,0.0160703994,-0.015625
3397,0.198228002,0.0160703994,-0.0078125
3398,0.198228002,0.0160703994,0
3399,0.198228002,0.0160703994,0.0078125
3400,0.198228002,0.0160703994,0.015625
3401,0.198228002,0.0160703994,0.0234375
3402,0.198228002,0.0160703994,0.03125
3403,0.198228002,0.0160703994,0.0390625
3404,0.198228002,0.0160703994,0.046875
3405,0.198228002,0.0160703994,0.0546875
3406,0.198228002,0.0160703994,0.0625
3407,0.198228002,0.0160703994,0.0703125
3408,0.198228002,0.0160703994,0.078125
3409,0.198228002,0.0160703994,0.0859375
3410,0.198228002,0.0160703994,0.09375
3411,0.198228002,0.0160703994,0.101562999
3412,0.198228002,0.0160703994,0.109375
3413,0.198228002,0.0160703994,0.117187999
3414,0.198228002,0.0160703994,0.125
3415,0.198228002,0.0160703994,0.132811993
3416,0.198228002,0.0160703994,0.140625
3417,0.198228002,0.0160703994,0.148436993
3418,0.198228002,0.0160703994,0.15625
3419,0.198228002,0.0160703994,0.164063007
3420,0.198228002,0.0160703994,0.171875
3421,0.198228002,0.0160703994,0.179686993
3422,0.198228002,0.0160703994,0.1875
3423,0.198228002,0.0160703994,0.195311993
3424,0.198228002,0.0160703994,0.203125
3425,0.198228002,0.0160703994,0.210938007
3426,0.198228002,0.0160703994,0.21875
3427,0.198228002,0.0160703994,0.226561993
3428,0.198228002,0.0160703994,0.234375
3429,0.198228002,0.0160703994,0.242188007
3430,0.198228002,0.0160703994,0.25
3431,0.198228002,0.0160703994,0.257813007
3432,0.198228002,0.0160703994,0.265625
3433,0.198228002,0.0160703994,0.273438007
3434,0.198228002,0.0160703994,0.28125
3435,0.198228002,0.0160703994,0.289061993
3436,0.198228002,0.0160703994,0.296875
3437,0.198228002,0.0160703994,0.304688007
3438,0.198228002,0.0160703994,0.3125
3439,0.198228002,0.0160703994,0.320311993
3440,0.198228002,0.0160703994,0.328125
3441,0.198228002,0.0160703994,0.335936993
3442,0.198228002,0.0160703994,0.34375
3443,0.198228002,0.0160703994,0.351561993
3444,0.198228002,0.0160703994,0.359375
3445,0.198228002,0.0160703994,0.367186993
3446,0.198228002,0.0160703994,0.375
3447,0.198228002,0.0160703994,0.382813007
3448,0.198310003,0.0160969999,-0.390347004
3449,0.198310003,0.0160971992,0.390347004
3450,0.198991001,0.0288849995,-0.398317993
3451,0.199111,0.0403212011,0.396398008
3452,0.199113995,0.0283928998,0.398317993
3453,0.199349001,0.0164395999,-0.396530002
3454,0.199349001,0.0164397992,0.396530002
3455,0.199715003,0.0402318016,-0.390311986
3456,0.199715003,0.0402318016,0.390311986
3457,0.199746996,0.0405092984,-0.257811993
3458,0.199746996,0.0405092984,-0.25
3459,0.199746996,0.0405092984,-0.242188007
3460,0.199746996,0.0405092984,-0.234375
3461,0.199746996,0.0405092984,-0.226561993
3462,0.199746996,0.0405092984,-0.21875
3463,0.199746996,0.0405092984,-0.210938007
3464,0.199746996,0.0405092984,-0.203125
3465,0.199746996,0.0405092984,-0.195313007
3466,0.199746996,0.0405092984,-0.1875
3467,0.199746996,0.0405092984,-0.179686993
3468,0.199746996,0.0405092984,-0.171875
3469,0.199746996,0.0405092984,-0.164063007
3470,0.199746996,0.0405092984,-0.15625
3471,0.199746996,0.0405092984,-0.148438007
3472,0.199746996,0.0405092984,-0.140625
3473,0.199746996,0.0405092984,-0.132811993
3474,0.199746996,0.0405092984,-0.125
3475,0.199746996,0.0405092984,-0.117187999
3476,0.199746996,0.0405092984,-0.109375
3477,0.199746996,0.0405092984,-0.101562999
3478,0.199746996,0.0405092984,-0.09375
3479,0.199746996,0.0405092984,-0.0859375
3480,0.199746996,0.0405092984,-0.078125
3481,0.199746996,0.0405092984,-0.0703125
3482,0.199746996,0.0405092984,-0.0625
3483,0.199746996,0.0405092984,-0.0546875
3484,0.199746996,0.0405092984,-0.046875
3485,0.199746996,0.0405092984,-0.0390625
3486,0.199746996,0.0405092984,-0.03125
3487,0.199746996,0.0405092984,-0.0234375
3488,0.199746996,0.0405092984,-0.015625
3489,0.199746996,0.0405092984,-0.0078125
3490,0.199746996,0.0405092984,0
3491,0.199746996,0.0405092984,0.0078125
3492,0.199746996,0.0405092984,0.015625
3493,0.199746996,0.0405092984,0.0234375
3494,0.199746996,0.0405092984,0.03125
3495,0.199746996,0.0405092984,0.0390625
3496,0.199746996,0.0405092984,0.046875
3497,0.199746996,0.0405092984,0.0546875
3498,0.199746996,0.0405092984,0.0625
3499,0.199746996,0.0405092984,0.0703125
3500,0.199746996,0.0405092984,0.078125
3501,0.199746996,0.0405092984,0.0859375
3502,0.199746996,0.0405092984,0.09375
3503,0.199746996,0.0405092984,0.101562999
3504,0.199746996,0.0405092984,0.109375
3505,0.199746996,0.0405092984,0.117187999
3506,0.199746996,0.0405092984,0.125
3507,0.199746996,0.0405092984,0.132811993
3508,0.199746996,0.0405092984,0.140625
3509,0.199746996,0.0405092984,0.148436993
3510,0.199746996,0.0405092984,0.15625
3511,0.199746996,0.0405092984,0.164063007
3512,0.199746996,0.0405092984,0.171875
3513,0.199746996,0.0405092984,0.179688007
3514,0.199746996,0.0405092984,0.1875
3515,0.199746996,0.0405092984,0.195311993
3516,0.199746996,0.0405092984,0.203125
3517,0.199746996,0.0405092984,0.210936993
3518,0.199746996,0.0405092984,0.21875
3519,0.199746996,0.0405092984,0.226561993
3520,0.199746996,0.0405092984,0.234375
3521,0.199746996,0.0405092984,0.242186993
3522,0.199746996,0.0405092984,0.25
3523,0.199746996,0.0405092984,0.257811993
3524,0.199809998,0.0400317982,-0.382771999
3525,0.199809998,0.0400317982,0.382771999
3526,0.199838996,0.0398155004,-0.374965996
3527,0.199838996,0.0398155004,0.374965996
3528,0.199867994,0.0395990983,-0.367159009
3529,0.199867994,0.0395990983,0.367159009
3530,0.199895993,0.0393828005,-0.359353006
3531,0.199895993,0.0393828005,0.359353006
3532,0.199925005,0.0391663983,-0.351547003
3533,0.199925005,0.0391663983,0.351547003
3534,0.199954003,0.0389501005,-0.343739986
3535,0.199954003,0.0389501005,0.343739986
3536,0.199982002,0.0387336984,-0.335934013
3537,0.199982002,0.0387336984,0.335934013
3538,0.200011,0.0385173,-0.328126997
3539,0.200011,0.0385173,0.328126997
3540,0.200039998,0.0383009985,-0.320320994
3541,0.200039998,0.0383009985,0.320320994
3542,0.200067997,0.0380846001,-0.312514991
3543,0.200067997,0.0380846001,0.312514991
3544,0.200096995,0.0378682986,-0.304708004
3545,0.200096995,0.0378682986,0.304708004
3546,0.200124994,0.0376519002,-0.296902001
3547,0.200124994,0.0376519002,0.296902001
3548,0.200154006,0.0374355987,-0.289095014
3549,0.200154006,0.0374355987,0.289095014
3550,0.200206995,0.0372224003,-0.281289011
3551,0.200206995,0.0372224003,0.281289011
3552,0.200279996,0.0370119996,-0.273483008
3553,0.200279996,0.0370119996,0.273483008
3554,0.200353995,0.036801599,-0.265677005
3555,0.200353995,0.036801599,0.265677005
3556,0.201211005,0.0294023007,-0.396564007
3557,0.208047003,0.0193348005,-0.396117002
3558,0.208047003,0.0193348005,0.396117002
3559,0.208425,0.0194614995,-0.390363008
3560,0.208425,0.0194614995,0.390363008
3561,0.208497003,0.0194857996,-0.382813007
3562,0.208497003,0.0194857996,-0.375
3563,0.208497003,0.0194857996,-0.367188007
3564,0.208497003,0.0194857996,-0.359375
3565,0.208497003,0.0194857996,-0.351561993
3566,0.208497003,0.0194857996,-0.34375
3567,0.208497003,0.0194857996,-0.335938007
3568,0.208497003,0.0194857996,-0.328125
3569,0.208497003,0.0194857996,-0.320311993
3570,0.208497003,0.0194857996,-0.3125
3571,0.208497003,0.0194857996,-0.304688007
3572,0.208497003,0.0194857996,-0.296875
3573,0.208497003,0.0194857996,-0.289061993
3574,0.208497003,0.0194857996,-0.28125
3575,0.208497003,0.0194857996,-0.273438007
3576,0.208497003,0.0194857996,-0.265625
3577,0.208497003,0.0194857996,-0.257811993
3578,0.208497003,0.0194857996,-0.25
3579,0.208497003,0.0194857996,-0.242188007
3580,0.208497003,0.0194857996,-0.234375
3581,0.208497003,0.0194857996,-0.226561993
3582,0.208497003,0.0194857996,-0.21875
3583,0.208497003,0.0194857996,-0.210936993
3584,0.208497003,0.0194857996,-0.203125
3585,0.208497003,0.0194857996,-0.195313007
3586,0.208497003,0.0194857996,-0.1875
3587,0.208497003,0.0194857996,-0.179686993
3588,0.208497003,0.0194857996,-0.171875
3589,0.208497003,0.0194857996,-0.164061993
3590,0.208497003,0.0194857996,-0.15625
3591,0.208497003,0.0194857996,-0.148436993
3592,0.208497003,0.0194857996,-0.140625
3593,0.208497003,0.0194857996,-0.132813007
3594,0.208497003,0.0194857996,-0.125
3595,0.208497003,0.0194857996,-0.117187999
3596,0.208497003,0.0194857996,-0.109375
3597,0.208497003,0.0194857996,-0.101562001
3598,0.208497003,0.0194857996,-0.09375
3599,0.208497003,0.0194857996,-0.0859375
3600,0.208497003,0.0194857996,-0.078125
3601,0.208497003,0.0194857996,-0.0703125
3602,0.208497003,0.0194857996,-0.0625
3603,0.208497003,0.0194857996,-0.0546875
3604,0.208497003,0.0194857996,-0.046875
3605,0.208497003,0.0194857996,-0.0390625
3606,0.208497003,0.0194857996,-0.03125
3607,0.208497003,0.0194857996,-0.0234375
3608,0.208497003,0.0194857996,-0.015625
3609,0.208497003,0.0194857996,-0.0078125
3610,0.208497003,0.0194857996,1e-12
3611,0.208497003,0.0194857996,0.0078125
3612,0.208497003,0.0194857996,0.015625
3613,0.208497003,0.0194857996,0.0234375
3614,0.208497003,0.0194857996,0.03125
3615,0.208497003,0.0194857996,0.0390625
3616,0.208497003,0.0194857996,0.046875
3617,0.208497003,0.0194857996,0.0546875
3618,0.208497003,0.0194857996,0.0625
3619,0.208497003,0.0194857996,0.0703125
3620,0.208497003,0.0194857996,0.078125
3621,0.208497003,0.0194857996,0.0859375
3622,0.208497003,0.0194857996,0.09375
3623,0.208497003,0.0194857996,0.101562999
3624,0.208497003,0.0194857996,0.109375
3625,0.208497003,0.0194857996,0.117187999
3626,0.208497003,0.0194857996,0.125
3627,0.208497003,0.0194857996,0.132813007
3628,0.208497003,0.0194857996,0.140625
3629,0.208497003,0.0194857996,0.148436993
3630,0.208497003,0.0194857996,0.15625
3631,0.208497003,0.0194857996,0.164061993
3632,0.208497003,0.0194857996,0.171875
3633,0.208497003,0.0194857996,0.179686993
3634,0.208497003,0.0194857996,0.1875
3635,0.208497003,0.0194857996,0.195311993
3636,0.208497003,0.0194857996,0.203125
3637,0.208497003,0.0194857996,0.210936993
3638,0.208497003,0.0194857996,0.21875
3639,0.208497003,0.0194857996,0.226561993
3640,0.208497003,0.0194857996,0.234375
3641,0.208497003,0.0194857996,0.242186993
3642,0.208497003,0.0194857996,0.25
3643,0.208497003,0.0194857996,0.257813007
3644,0.208497003,0.0194857996,0.265625
3645,0.208497003,0.0194857996,0.273436993
3646,0.208497003,0.0194857996,0.28125
3647,0.208497003,0.0194857996,0.289063007
3648,0.208497003,0.0194857996,0.296875
3649,0.208497003,0.0194857996,0.304686993
3650,0.208497003,0.0194857996,0.3125
3651,0.208497003,0.0194857996,0.320311993
3652,0.208497003,0.0194857996,0.328125
3653,0.208497003,0.0194857996,0.335938007
3654,0.208497003,0.0194857996,0.34375
3655,0.208497003,0.0194857996,0.351563007
3656,0.208497003,0.0194857996,0.359375
3657,0.208497003,0.0194857996,0.367186993
3658,0.208497003,0.0194857996,0.375
3659,0.208497003,0.0194857996,0.382811993
3660,0.211523995,0.0420395993,-0.164061993
3661,0.211523995,0.0420395993,-0.15625
3662,0.211523995,0.0420395993,-0.148438007
3663,0.211523995,0.0420395993,-0.140625
3664,0.211523995,0.0420395993,-0.132811993
3665,0.211523995,0.0420395993,-0.125
3666,0.211523995,0.0420395993,-0.117187001
3667,0.211523995,0.0420395993,-0.109375
3668,0.211523995,0.0420395993,-0.101562001
3669,0.211523995,0.0420395993,-0.09375
3670,0.211523995,0.0420395993,-0.0859375
3671,0.211523995,0.0420395993,-0.078125
3672,0.211523995,0.0420395993,-0.0703125
3673,0.211523995,0.0420395993,-0.0625
3674,0.211523995,0.0420395993,-0.0546875
3675,0.211523995,0.0420395993,-0.046875
3676,0.211523995,0.0420395993,-0.0390625
3677,0.211523995,0.0420395993,-0.03125
3678,0.211523995,0.0420395993,-0.0234375
3679,0.211523995,0.0420395993,-0.015625
3680,0.211523995,0.0420395993,-0.0078125
3681,0.211523995,0.0420395993,1e-12
3682,0.211523995,0.0420395993,0.0078125
3683,0.211523995,0.0420395993,0.015625
3684,0.211523995,0.0420395993,0.0234375
3685,0.211523995,0.0420395993,0.03125
3686,0.211523995,0.0420395993,0.0390625
3687,0.211523995,0.0420395993,0.046875
3688,0.211523995,0.0420395993,0.0546875
3689,0.211523995,0.0420395993,0.0625
3690,0.211523995,0.0420395993,0.0703125
3691,0.211523995,0.0420395993,0.078125
3692,0.211523995,0.0420395993,0.0859375
3693,0.211523995,0.0420395993,0.09375
3694,0.211523995,0.0420395993,0.101562001
3695,0.211523995,0.0420395993,0.109375
3696,0.211523995,0.0420395993,0.117187999
3697,0.211523995,0.0420395993,0.125
3698,0.211523995,0.0420395993,0.132811993
3699,0.211523995,0.0420395993,0.140625
3700,0.211523995,0.0420395993,0.148436993
3701,0.211523995,0.0420395993,0.15625
3702,0.211523995,0.0420395993,0.164063007
3703,0.211579993,0.0416033007,-0.382748008
3704,0.211579993,0.0416033007,0.382748008
3705,0.211597994,0.0418003984,-0.390327007
3706,0.211597994,0.0418003984,0.390327007
3707,0.211604998,0.0414059013,-0.374940008
3708,0.211604998,0.0414059013,0.374940008
3709,0.211630002,0.0412084013,-0.367132992
3710,0.211630002,0.0412084013,0.367132992
3711,0.211656004,0.0410109982,-0.359324992
3712,0.211656004,0.0410109982,0.359324992
3713,0.211680993,0.0408134982,-0.351518005
3714,0.211680993,0.0408134982,0.351518005
3715,0.211705998,0.0406160988,-0.343710989
3716,0.211705998,0.0406160988,0.343710989
3717,0.211731002,0.0404185988,-0.335902989
3718,0.211731002,0.0404185988,0.335902989
3719,0.211756006,0.0402211994,-0.328096002
3720,0.211756006,0.0402211994,0.328096002
3721,0.211781994,0.0400236994,-0.320288002
3722,0.211781994,0.0400236994,0.320288002
3723,0.211806998,0.0398263,-0.312480986
3724,0.211806998,0.0398263,0.312480986
3725,0.211832002,0.0396289006,-0.304672986
3726,0.211832002,0.0396289006,0.304672986
3727,0.211857006,0.0394314006,-0.296866
3728,0.211857006,0.0394314006,0.296866
3729,0.211882994,0.0392340012,-0.289059013
3730,0.211882994,0.0392340012,0.289059013
3731,0.211907998,0.0390365012,-0.281251013
3732,0.211907998,0.0390365012,0.281251013
3733,0.211933002,0.0388391018,-0.273443997
3734,0.211933002,0.0388391018,0.273443997
3735,0.211958006,0.0386416018,-0.265635997
3736,0.211958006,0.0386416018,0.265635997
3737,0.211982995,0.0384441987,-0.25782901
3738,0.211982995,0.0384441987,0.25782901
3739,0.212008998,0.0382466987,-0.250021011
3740,0.212008998,0.0382466987,0.250021011
3741,0.212034002,0.0380492993,-0.242213994
3742,0.212034002,0.0380492993,0.242213994
3743,0.212059006,0.0378517993,-0.234406993
3744,0.212059006,0.0378517993,0.234406993
3745,0.212083995,0.0376543999,-0.226598993
3746,0.212083995,0.0376543999,0.226598993
3747,0.212109998,0.0374568999,-0.218792006
3748,0.212109998,0.0374568999,0.218792006
3749,0.212135002,0.0372595005,-0.210984007
3750,0.212135002,0.0372595005,0.210984007
3751,0.212160006,0.0370620005,-0.203177005
3752,0.212160006,0.0370620005,0.203177005
3753,0.212184995,0.0368646011,-0.195369005
3754,0.212184995,0.0368646011,0.195369005
3755,0.21221,0.0366672017,-0.187562004
3756,0.21221,0.0366672017,0.187562004
3757,0.212236002,0.0364697017,-0.179755002
3758,0.212236002,0.0364697017,0.179755002
3759,0.212261006,0.0362722985,-0.171947002
3760,0.212261006,0.0362722985,0.171947002
3761,0.213043004,0.0321496017,-0.396461993
3762,0.213157997,0.0316165015,0.396461993
3763,0.213743001,0.0213482007,-0.396607012
3764,0.213743001,0.0213482007,0.396607012
3765,0.224768996,0.025014,-0.390385985
3766,0.224768996,0.025014,0.390385985
3767,0.224819005,0.0250311997,-0.382811993
3768,0.224819005,0.0250311997,-0.375
3769,0.224819005,0.0250311997,-0.367188007
3770,0.224819005,0.0250311997,-0.359375
3771,0.224819005,0.0250311997,-0.351561993
3772,0.224819005,0.0250311997,-0.34375
3773,0.224819005,0.0250311997,-0.335938007
3774,0.224819005,0.0250311997,-0.328125
3775,0.224819005,0.0250311997,-0.320311993
3776,0.224819005,0.0250311997,-0.3125
3777,0.224819005,0.0250311997,-0.304688007
3778,0.224819005,0.0250311997,-0.296875
3779,0.224819005,0.0250311997,-0.289063007
3780,0.224819005,0.0250311997,-0.28125
3781,0.224819005,0.0250311997,-0.273438007
3782,0.224819005,0.0250311997,-0.265625
3783,0.224819005,0.0250311997,-0.257811993
3784,0.224819005,0.0250311997,-0.25
3785,0.224819005,0.0250311997,-0.242186993
3786,0.224819005,0.0250311997,-0.234375
3787,0.224819005,0.0250311997,-0.226561993
3788,0.224819005,0.0250311997,-0.21875
3789,0.224819005,0.0250311997,-0.210936993
3790,0.224819005,0.0250311997,-0.203125
3791,0.224819005,0.0250311997,-0.195311993
3792,0.224819005,0.0250311997,-0.1875
3793,0.224819005,0.0250311997,-0.179688007
3794,0.224819005,0.0250311997,-0.171875
3795,0.224819005,0.0250311997,-0.164061993
3796,0.224819005,0.0250311997,-0.15625
3797,0.224819005,0.0250311997,-0.148438007
3798,0.224819005,0.0250311997,-0.140625
3799,0.224819005,0.0250311997,-0.132813007
3800,0.224819005,0.0250311997,-0.125
3801,0.224819005,0.0250311997,-0.117187001
3802,0.224819005,0.0250311997,-0.109375
3803,0.224819005,0.0250311997,-0.101562999
3804,0.224819005,0.0250311997,-0.09375
3805,0.224819005,0.0250311997,-0.0859375
3806,0.224819005,0.0250311997,-0.078125
3807,0.224819005,0.0250311997,-0.0703125
3808,0.224819005,0.0250311997,-0.0625
3809,0.224819005,0.0250311997,-0.0546875
3810,0.224819005,0.0250311997,-0.046875
3811,0.224819005,0.0250311997,-0.0390625
3812,0.224819005,0.0250311997,-0.03125
3813,0.224819005,0.0250311997,-0.0234375
3814,0.224819005,0.0250311997,-0.015625
3815,0.224819005,0.0250311997,-0.0078125
3816,0.224819005,0.0250311997,-1e-12
3817,0.224819005,0.0250311997,0.0078125
3818,0.224819005,0.0250311997,0.015625
3819,0.224819005,0.0250311997,0.0234375
3820,0.224819005,0.0250311997,0.03125
3821,0.224819005,0.0250311997,0.0390625
3822,0.224819005,0.0250311997,0.046875
3823,0.224819005,0.0250311997,0.0546875
3824,0.224819005,0.0250311997,0.0625
3825,0.224819005,0.0250311997,0.0703125
3826,0.224819005,0.0250311997,0.078125
3827,0.224819005,0.0250311997,0.0859375
3828,0.224819005,0.0250311997,0.09375
3829,0.224819005,0.0250311997,0.101562999
3830,0.224819005,0.0250311997,0.109375
3831,0.224819005,0.0250311997,0.117187001
3832,0.224819005,0.0250311997,0.125
3833,0.224819005,0.0250311997,0.132811993
3834,0.224819005,0.0250311997,0.140625
3835,0.224819005,0.0250311997,0.148438007
3836,0.224819005,0.0250311997,0.15625
3837,0.224819005,0.0250311997,0.164063007
3838,0.224819005,0.0250311997,0.171875
3839,0.224819005,0.0250311997,0.179688007
3840,0.224819005,0.0250311997,0.1875
3841,0.224819005,0.0250311997,0.195313007
3842,0.224819005,0.0250311997,0.203125
3843,0.224819005,0.0250311997,0.210938007
3844,0.224819005,0.0250311997,0.21875
3845,0.224819005,0.0250311997,0.226561993
3846,0.224819005,0.0250311997,0.234375
3847,0.224819005,0.0250311997,0.242188007
3848,0.224819005,0.0250311997,0.25
3849,0.224819005,0.0250311997,0.257811993
3850,0.224819005,0.0250311997,0.265625
3851,0.224819005,0.0250311997,0.273436993
3852,0.224819005,0.0250311997,0.28125
3853,0.224819005,0.0250311997,0.289061993
3854,0.224819005,0.0250311997,0.296875
3855,0.224819005,0.0250311997,0.304686993
3856,0.224819005,0.0250311997,0.3125
3857,0.224819005,0.0250311997,0.320313007
3858,0.224819005,0.0250311997,0.328125
3859,0.224819005,0.0250311997,0.335936993
3860,0.224819005,0.0250311997,0.34375
3861,0.224819005,0.0250311997,0.351561993
3862,0.224819005,0.0250311997,0.359375
3863,0.224819005,0.0250311997,0.367186993
3864,0.224819005,0.0250311997,0.375
3865,0.224819005,0.0250311997,0.382813007
3866,0.225425005,0.0350245014,-0.396578997
3867,0.225545004,0.0253730007,-0.396304011
3868,0.225545004,0.0253730007,0.396304011
3869,0.225547001,0.0344602987,0.396578997
3870,0.227875993,0.0440585986,-0.382813007
3871,0.227875993,0.0440585986,-0.375
3872,0.227875993,0.0440585986,-0.367188007
3873,0.227875993,0.0440585986,-0.359375
3874,0.227875993,0.0440585986,-0.351561993
3875,0.227875993,0.0440585986,-0.34375
3876,0.227875993,0.0440585986,-0.335938007
3877,0.227875993,0.0440585986,-0.328125
3878,0.227875993,0.0440585986,-0.320311993
3879,0.227875993,0.0440585986,-0.3125
3880,0.227875993,0.0440585986,-0.304688007
3881,0.227875993,0.0440585986,-0.296875
3882,0.227875993,0.0440585986,-0.289063007
3883,0.227875993,0.0440585986,-0.28125
3884,0.227875993,0.0440585986,-0.273438007
3885,0.227875993,0.0440585986,-0.265625
3886,0.227875993,0.0440585986,-0.257811993
3887,0.227875993,0.0440585986,-0.25
3888,0.227875993,0.0440585986,-0.242188007
3889,0.227875993,0.0440585986,-0.234375
3890,0.227875993,0.0440585986,-0.226563007
3891,0.227875993,0.0440585986,-0.21875
3892,0.227875993,0.0440585986,-0.210936993
3893,0.227875993,0.0440585986,-0.203125
3894,0.227875993,0.0440585986,-0.195311993
3895,0.227875993,0.0440585986,-0.1875
3896,0.227875993,0.0440585986,-0.179688007
3897,0.227875993,0.0440585986,-0.171875
3898,0.227875993,0.0440585986,-0.164063007
3899,0.227875993,0.0440585986,-0.15625
3900,0.227875993,0.0440585986,-0.148436993
3901,0.227875993,0.0440585986,-0.140625
3902,0.227875993,0.0440585986,-0.132813007
3903,0.227875993,0.0440585986,-0.125
3904,0.227875993,0.0440585986,-0.117187001
3905,0.227875993,0.0440585986,-0.109375
3906,0.227875993,0.0440585986,-0.101562001
3907,0.227875993,0.0440585986,-0.09375
3908,0.227875993,0.0440585986,-0.0859375
3909,0.227875993,0.0440585986,-0.078125
3910,0.227875993,0.0440585986,-0.0703125
3911,0.227875993,0.0440585986,-0.0625
3912,0.227875993,0.0440585986,-0.0546875
3913,0.227875993,0.0440585986,-0.046875
3914,0.227875993,0.0440585986,-0.0390625
3915,0.227875993,0.0440585986,-0.03125
3916,0.227875993,0.0440585986,-0.0234375
3917,0.227875993,0.0440585986,-0.015625
3918,0.227875993,0.0440585986,-0.0078125
3919,0.227875993,0.0440585986,1e-12
3920,0.227875993,0.0440585986,0.0078125
3921,0.227875993,0.0440585986,0.015625
3922,0.227875993,0.0440585986,0.0234375
3923,0.227875993,0.0440585986,0.03125
3924,0.227875993,0.0440585986,0.0390625
3925,0.227875993,0.0440585986,0.046875
3926,0.227875993,0.0440585986,0.0546875
3927,0.227875993,0.0440585986,0.0625
3928,0.227875993,0.0440585986,0.0703125
3929,0.227875993,0.0440585986,0.078125
3930,0.227875993,0.0440585986,0.0859375
3931,0.227875993,0.0440585986,0.09375
3932,0.227875993,0.0440585986,0.101562001
3933,0.227875993,0.0440585986,0.109375
3934,0.227875993,0.0440585986,0.117187001
3935,0.227875993,0.0440585986,0.125
3936,0.227875993,0.0440585986,0.132813007
3937,0.227875993,0.0440585986,0.140625
3938,0.227875993,0.0440585986,0.148438007
3939,0.227875993,0.0440585986,0.15625
3940,0.227875993,0.0440585986,0.164061993
3941,0.227875993,0.0440585986,0.171875
3942,0.227875993,0.0440585986,0.179688007
3943,0.227875993,0.0440585986,0.1875
3944,0.227875993,0.0440585986,0.195313007
3945,0.227875993,0.0440585986,0.203125
3946,0.227875993,0.0440585986,0.210938007
3947,0.227875993,0.0440585986,0.21875
3948,0.227875993,0.0440585986,0.226561993
3949,0.227875993,0.0440585986,0.234375
3950,0.227875993,0.0440585986,0.242188007
3951,0.227875993,0.0440585986,0.25
3952,0.227875993,0.0440585986,0.257811993
3953,0.227875993,0.0440585986,0.265625
3954,0.227875993,0.0440585986,0.273436993
3955,0.227875993,0.0440585986,0.28125
3956,0.227875993,0.0440585986,0.289061993
3957,0.227875993,0.0440585986,0.296875
3958,0.227875993,0.0440585986,0.304688007
3959,0.227875993,0.0440585986,0.3125
3960,0.227875993,0.0440585986,0.320313007
3961,0.227875993,0.0440585986,0.328125
3962,0.227875993,0.0440585986,0.335938007
3963,0.227875993,0.0440585986,0.34375
3964,0.227875993,0.0440585986,0.351563007
3965,0.227875993,0.0440585986,0.359375
3966,0.227875993,0.0440585986,0.367186993
3967,0.227875993,0.0440585986,0.375
3968,0.227875993,0.0440585986,0.382811993
3969,0.228025004,0.0440764017,-0.390363008
3970,0.228025004,0.0440764017,0.390363008
3971,0.228660002,0.0441525988,-0.396037996
3972,0.228660002,0.0441525988,0.396037996
3973,0.234202996,0.0283700004,-0.396032006
3974,0.234202996,0.0283700004,0.396032006
3975,0.234601006,0.0284208003,-0.390363008
3976,0.234601006,0.0284208003,0.390363008
3977,0.234669,0.0284445006,-0.382813007
3978,0.234669,0.0284445006,-0.375
3979,0.234669,0.0284445006,-0.367188007
3980,0.234669,0.0284445006,-0.359375
3981,0.234669,0.0284445006,-0.351561993
3982,0.234669,0.0284445006,-0.34375
3983,0.234669,0.0284445006,-0.335938007
3984,0.234669,0.0284445006,-0.328125
3985,0.234669,0.0284445006,-0.320311993
3986,0.234669,0.0284445006,-0.3125
3987,0.234669,0.0284445006,-0.304688007
3988,0.234669,0.0284445006,-0.296875
3989,0.234669,0.0284445006,-0.289063007
3990,0.234669,0.0284445006,-0.28125
3991,0.234669,0.0284445006,-0.273438007
3992,0.234669,0.0284445006,-0.265625
3993,0.234669,0.0284445006,-0.257811993
3994,0.234669,0.0284445006,-0.25
3995,0.234669,0.0284445006,-0.242186993
3996,0.234669,0.0284445006,-0.234375
3997,0.234669,0.0284445006,-0.226563007
3998,0.234669,0.0284445006,-0.21875
3999,0.234669,0.0284445006,-0.210936993
4000,0.234669,0.0284445006,-0.203125
4001,0.234669,0.0284445006,-0.195311993
4002,0.234669,0.0284445006,-0.1875
4003,0.234669,0.0284445006,-0.179686993
4004,0.234669,0.0284445006,-0.171875
4005,0.234669,0.0284445006,-0.164061993
4006,0.234669,0.0284445006,-0.15625
4007,0.234669,0.0284445006,-0.148436993
4008,0.234669,0.0284445006,-0.140625
4009,0.234669,0.0284445006,-0.132811993
4010,0.234669,0.0284445006,-0.125
4011,0.234669,0.0284445006,-0.117187999
4012,0.234669,0.0284445006,-0.109375
4013,0.234669,0.0284445006,-0.101562001
4014,0.234669,0.0284445006,-0.09375
4015,0.234669,0.0284445006,-0.0859375
4016,0.234669,0.0284445006,-0.078125
4017,0.234669,0.0284445006,-0.0703125
4018,0.234669,0.0284445006,-0.0625
4019,0.234669,0.0284445006,-0.0546875
4020,0.234669,0.0284445006,-0.046875
4021,0.234669,0.0284445006,-0.0390625
4022,0.234669,0.0284445006,-0.03125
4023,0.234669,0.0284445006,-0.0234375
4024,0.234669,0.0284445006,-0.015625
4025,0.234669,0.0284445006,-0.0078125
4026,0.234669,0.0284445006,0
4027,0.234669,0.0284445006,0.0078125
4028,0.234669,0.0284445006,0.015625
4029,0.234669,0.0284445006,0.0234375
4030,0.234669,0.0284445006,0.03125
4031,0.234669,0.0284445006,0.0390625
4032,0.234669,0.0284445006,0.046875
4033,0.234669,0.0284445006,0.0546875
4034,0.234669,0.0284445006,0.0625
4035,0.234669,0.0284445006,0.0703125
4036,0.234669,0.0284445006,0.078125
4037,0.234669,0.0284445006,0.0859375
4038,0.234669,0.0284445006,0.09375
4039,0.234669,0.0284445006,0.101562001
4040,0.234669,0.0284445006,0.109375
4041,0.234669,0.0284445006,0.117187001
4042,0.234669,0.0284445006,0.125
4043,0.234669,0.0284445006,0.132811993
4044,0.234669,0.0284445006,0.140625
4045,0.234669,0.0284445006,0.148436993
4046,0.234669,0.0284445006,0.15625
4047,0.234669,0.0284445006,0.164061993
4048,0.234669,0.0284445006,0.171875
4049,0.234669,0.0284445006,0.179688007
4050,0.234669,0.0284445006,0.1875
4051,0.234669,0.0284445006,0.195313007
4052,0.234669,0.0284445006,0.203125
4053,0.234669,0.0284445006,0.210936993
4054,0.234669,0.0284445006,0.21875
4055,0.234669,0.0284445006,0.226563007
4056,0.234669,0.0284445006,0.234375
4057,0.234669,0.0284445006,0.242186993
4058,0.234669,0.0284445006,0.25
4059,0.234669,0.0284445006,0.257813007
4060,0.234669,0.0284445006,0.265625
4061,0.234669,0.0284445006,0.273438007
4062,0.234669,0.0284445006,0.28125
4063,0.234669,0.0284445006,0.289063007
4064,0.234669,0.0284445006,0.296875
4065,0.234669,0.0284445006,0.304686993
4066,0.234669,0.0284445006,0.3125
4067,0.234669,0.0284445006,0.320313007
4068,0.234669,0.0284445006,0.328125
4069,0.234669,0.0284445006,0.335936993
4070,0.234669,0.0284445006,0.34375
4071,0.234669,0.0284445006,0.351561993
4072,0.234669,0.0284445006,0.359375
4073,0.234669,0.0284445006,0.367188007
4074,0.234669,0.0284445006,0.375
4075,0.234669,0.0284445006,0.382813007
4076,0.237482995,0.0378246009,-0.396582991
4077,0.237620994,0.0372315012,0.396582991
4078,0.238003999,0.0452494994,-0.396337986
4079,0.238003999,0.0452494994,0.396337986
4080,0.238470003,0.0453033,-0.390334994
4081,0.238470003,0.0453033,0.390334994
4082,0.238511994,0.0453080982,-0.382811993
4083,0.238511994,0.0453080982,-0.375
4084,0.238511994,0.0453080982,-0.367188007
4085,0.238511994,0.0453080982,-0.359375
4086,0.238511994,0.0453080982,-0.351561993
4087,0.238511994,0.0453080982,-0.34375
4088,0.238511994,0.0453080982,-0.335938007
4089,0.238511994,0.0453080982,-0.328125
4090,0.238511994,0.0453080982,-0.320311993
4091,0.238511994,0.0453080982,-0.3125
4092,0.238511994,0.0453080982,-0.304688007
4093,0.238511994,0.0453080982,-0.296875
4094,0.238511994,0.0453080982,-0.289061993
4095,0.238511994,0.0453080982,-0.28125
4096,0.238511994,0.0453080982,-0.273438007
4097,0.238511994,0.0453080982,-0.265625
4098,0.238511994,0.0453080982,-0.257811993
4099,0.238511994,0.0453080982,-0.25
4100,0.238511994,0.0453080982,-0.242186993
4101,0.238511994,0.0453080982,-0.234375
4102,0.238511994,0.0453080982,-0.226563007
4103,0.238511994,0.0453080982,-0.21875
4104,0.238511994,0.0453080982,-0.210938007
4105,0.238511994,0.0453080982,-0.203125
4106,0.238511994,0.0453080982,-0.195311993
4107,0.238511994,0.0453080982,-0.1875
4108,0.238511994,0.0453080982,-0.179688007
4109,0.238511994,0.0453080982,-0.171875
4110,0.238511994,0.0453080982,-0.164063007
4111,0.238511994,0.0453080982,-0.15625
4112,0.238511994,0.0453080982,-0.148438007
4113,0.238511994,0.0453080982,-0.140625
4114,0.238511994,0.0453080982,-0.132811993
4115,0.238511994,0.0453080982,-0.125
4116,0.238511994,0.0453080982,-0.117187999
4117,0.238511994,0.0453080982,-0.109375
4118,0.238511994,0.0453080982,-0.101562001
4119,0.238511994,0.0453080982,-0.09375
4120,0.238511994,0.0453080982,-0.0859375
4121,0.238511994,0.0453080982,-0.078125
4122,0.238511994,0.0453080982,-0.0703125
4123,0.238511994,0.0453080982,-0.0625
4124,0.238511994,0.0453080982,-0.0546875
4125,0.238511994,0.0453080982,-0.046875
4126,0.238511994,0.0453080982,-0.0390625
4127,0.238511994,0.0453080982,-0.03125
4128,0.238511994,0.0453080982,-0.0234375
4129,0.238511994,0.0453080982,-0.015625
4130,0.238511994,0.0453080982,-0.0078125
4131,0.238511994,0.0453080982,1e-12
4132,0.238511994,0.0453080982,0.0078125
4133,0.238511994,0.0453080982,0.015625
4134,0.238511994,0.0453080982,0.0234375
4135,0.238511994,0.0453080982,0.03125
4136,0.238511994,0.0453080982,0.0390625
4137,0.238511994,0.0453080982,0.046875
4138,0.238511994,0.0453080982,0.0546875
4139,0.238511994,0.0453080982,0.0625
4140,0.238511994,0.0453080982,0.0703125
4141,0.238511994,0.0453080982,0.078125
4142,0.238511994,0.0453080982,0.0859375
4143,0.238511994,0.0453080982,0.09375
4144,0.238511994,0.0453080982,0.101562999
4145,0.238511994,0.0453080982,0.109375
4146,0.238511994,0.0453080982,0.117187999
4147,0.238511994,0.0453080982,0.125
4148,0.238511994,0.0453080982,0.132813007
4149,0.238511994,0.0453080982,0.140625
4150,0.238511994,0.0453080982,0.148438007
4151,0.238511994,0.0453080982,0.15625
4152,0.238511994,0.0453080982,0.164063007
4153,0.238511994,0.0453080982,0.171875
4154,0.238511994,0.0453080982,0.179686993
4155,0.238511994,0.0453080982,0.1875
4156,0.238511994,0.0453080982,0.195311993
4157,0.238511994,0.0453080982,0.203125
4158,0.238511994,0.0453080982,0.210938007
4159,0.238511994,0.0453080982,0.21875
4160,0.238511994,0.0453080982,0.226561993
4161,0.238511994,0.0453080982,0.234375
4162,0.238511994,0.0453080982,0.242188007
4163,0.238511994,0.0453080982,0.25
4164,0.238511994,0.0453080982,0.257813007
4165,0.238511994,0.0453080982,0.265625
4166,0.238511994,0.0453080982,0.273436993
4167,0.238511994,0.0453080982,0.28125
4168,0.238511994,0.0453080982,0.289063007
4169,0.238511994,0.0453080982,0.296875
4170,0.238511994,0.0453080982,0.304688007
4171,0.238511994,0.0453080982,0.3125
4172,0.238511994,0.0453080982,0.320311993
4173,0.238511994,0.0453080982,0.328125
4174,0.238511994,0.0453080982,0.335936993
4175,0.238511994,0.0453080982,0.34375
4176,0.238511994,0.0453080982,0.351561993
4177,0.238511994,0.0453080982,0.359375
4178,0.238511994,0.0453080982,0.367188007
4179,0.238511994,0.0453080982,0.375
4180,0.238511994,0.0453080982,0.382813007
4181,0.248830006,0.0404593982,-0.396445006
4182,0.248977005,0.0398381017,0.396445006
4183,0.249169007,0.0465095006,-0.396414995
4184,0.249169007,0.0465095006,0.396414995
4185,0.249634996,0.0465321988,0.398059994
4186,0.249899,0.037568599,-0.179714993
4187,0.249899,0.037568599,0.179714993
4188,0.249941006,0.0374508016,-0.187525004
4189,0.249941006,0.0374508016,0.187525004
4190,0.249982998,0.0373330005,-0.195335999
4191,0.249982998,0.0373330005,0.195335999
4192,0.250025004,0.0372151993,-0.203145996
4193,0.250025004,0.0372151993,0.203145996
4194,0.250066996,0.0370973982,-0.210957006
4195,0.250066996,0.0370973982,0.210957006
4196,0.25011,0.0369796008,-0.218767002
4197,0.25011,0.0369796008,0.218767002
4198,0.250151992,0.0368617997,-0.226577997
4199,0.250151992,0.0368617997,0.226577997
4200,0.250194013,0.0367439985,-0.234387994
4201,0.250194013,0.0367439985,0.234387994
4202,0.250236005,0.0366262011,-0.242199004
4203,0.250236005,0.0366262011,0.242199004
4204,0.250257999,0.0466290005,-0.390408993
4205,0.250257999,0.0466290005,0.390408993
4206,0.250277996,0.0365085006,-0.250009
4207,0.250277996,0.0365085006,0.250009
4208,0.250319988,0.0363906994,-0.25782001
4209,0.250319988,0.0363906994,0.25782001
4210,0.250358999,0.0466401018,-0.382811993
4211,0.250358999,0.0466401018,-0.375
4212,0.250358999,0.0466401018,-0.367188007
4213,0.250358999,0.0466401018,-0.359375
4214,0.250358999,0.0466401018,-0.351561993
4215,0.250358999,0.0466401018,-0.34375
4216,0.250358999,0.0466401018,-0.335938007
4217,0.250358999,0.0466401018,-0.328125
4218,0.250358999,0.0466401018,-0.320311993
4219,0.250358999,0.0466401018,-0.3125
4220,0.250358999,0.0466401018,-0.304688007
4221,0.250358999,0.0466401018,-0.296875
4222,0.250358999,0.0466401018,-0.289063007
4223,0.250358999,0.0466401018,-0.28125
4224,0.250358999,0.0466401018,-0.273438007
4225,0.250358999,0.0466401018,-0.265625
4226,0.250358999,0.0466401018,-0.257811993
4227,0.250358999,0.0466401018,-0.25
4228,0.250358999,0.0466401018,-0.242186993
4229,0.250358999,0.0466401018,-0.234375
4230,0.250358999,0.0466401018,-0.226561993
4231,0.250358999,0.0466401018,-0.21875
4232,0.250358999,0.0466401018,-0.210938007
4233,0.250358999,0.0466401018,-0.203125
4234,0.250358999,0.0466401018,-0.195311993
4235,0.250358999,0.0466401018,-0.1875
4236,0.250358999,0.0466401018,-0.179686993
4237,0.250358999,0.0466401018,-0.171875
4238,0.250358999,0.0466401018,-0.164061993
4239,0.250358999,0.0466401018,-0.15625
4240,0.250358999,0.0466401018,-0.148436993
4241,0.250358999,0.0466401018,-0.140625
4242,0.250358999,0.0466401018,-0.132813007
4243,0.250358999,0.0466401018,-0.125
4244,0.250358999,0.0466401018,-0.117187001
4245,0.250358999,0.0466401018,-0.109375
4246,0.250358999,0.0466401018,-0.101562001
4247,0.250358999,0.0466401018,-0.09375
4248,0.250358999,0.0466401018,-0.0859375
4249,0.250358999,0.0466401018,-0.078125
4250,0.250358999,0.0466401018,-0.0703125
4251,0.250358999,0.0466401018,-0.0625
4252,0.250358999,0.0466401018,-0.0546875
4253,0.250358999,0.0466401018,-0.046875
4254,0.250358999,0.0466401018,-0.0390625
4255,0.250358999,0.0466401018,-0.03125
4256,0.250358999,0.0466401018,-0.0234375
4257,0.250358999,0.0466401018,-0.015625
4258,0.250358999,0.0466401018,-0.0078125
4259,0.250358999,0.0466401018,-0
4260,0.250358999,0.0466401018,0.0078125
4261,0.250358999,0.0466401018,0.015625
4262,0.250358999,0.0466401018,0.0234375
4263,0.250358999,0.0466401018,0.03125
4264,0.250358999,0.0466401018,0.0390625
4265,0.250358999,0.0466401018,0.046875
4266,0.250358999,0.0466401018,0.0546875
4267,0.250358999,0.0466401018,0.0625
4268,0.250358999,0.0466401018,0.0703125
4269,0.250358999,0.0466401018,0.078125
4270,0.250358999,0.0466401018,0.0859375
4271,0.250358999,0.0466401018,0.09375
4272,0.250358999,0.0466401018,0.101562001
4273,0.250358999,0.0466401018,0.109375
4274,0.250358999,0.0466401018,0.117187999
4275,0.250358999,0.0466401018,0.125
4276,0.250358999,0.0466401018,0.132813007
4277,0.250358999,0.0466401018,0.140625
4278,0.250358999,0.0466401018,0.148436993
4279,0.250358999,0.0466401018,0.15625
4280,0.250358999,0.0466401018,0.164063007
4281,0.250358999,0.0466401018,0.171875
4282,0.250358999,0.0466401018,0.179686993
4283,0.250358999,0.0466401018,0.1875
4284,0.250358999,0.0466401018,0.195313007
4285,0.250358999,0.0466401018,0.203125
4286,0.250358999,0.0466401018,0.210938007
4287,0.250358999,0.0466401018,0.21875
4288,0.250358999,0.0466401018,0.226561993
4289,0.250358999,0.0466401018,0.234375
4290,0.250358999,0.0466401018,0.242186993
4291,0.250358999,0.0466401018,0.25
4292,0.250358999,0.0466401018,0.257811993
4293,0.250358999,0.0466401018,0.265625
4294,0.250358999,0.0466401018,0.273438007
4295,0.250358999,0.0466401018,0.28125
4296,0.250358999,0.0466401018,0.289063007
4297,0.250358999,0.0466401018,0.296875
4298,0.250358999,0.0466401018,0.304688007
4299,0.250358999,0.0466401018,0.3125
4300,0.250358999,0.0466401018,0.320311993
4301,0.250358999,0.0466401018,0.328125
4302,0.250358999,0.0466401018,0.335936993
4303,0.250358999,0.0466401018,0.34375
4304,0.250358999,0.0466401018,0.351561993
4305,0.250358999,0.0466401018,0.359375
4306,0.250358999,0.0466401018,0.367186993
4307,0.250358999,0.0466401018,0.375
4308,0.250358999,0.0466401018,0.382813007
4309,0.250362009,0.0362728983,-0.265630007
4310,0.250362009,0.0362728983,0.265630007
4311,0.250404,0.0361551009,-0.273440987
4312,0.250404,0.0361551009,0.273440987
4313,0.250445992,0.0360372998,-0.281251013
4314,0.250445992,0.0360372998,0.281251013
4315,0.250488013,0.0359194987,-0.289061993
4316,0.250488013,0.0359194987,0.289061993
4317,0.250530988,0.0358017012,-0.29687199
4318,0.250530988,0.0358017012,0.29687199
4319,0.250573009,0.0356839001,-0.304683
4320,0.250573009,0.0356839001,0.304683
4321,0.250593007,0.0408688001,-0.398101985
4322,0.250615001,0.035566099,-0.312492996
4323,0.250615001,0.035566099,0.312492996
4324,0.250656992,0.0354483016,-0.320304006
4325,0.250656992,0.0354483016,0.320304006
4326,0.250699013,0.0353305005,-0.328114003
4327,0.250699013,0.0353305005,0.328114003
4328,0.250741005,0.0352126993,-0.335925013
4329,0.250741005,0.0352126993,0.335925013
4330,0.250782996,0.0350948982,-0.343735009
4331,0.250782996,0.0350948982,0.343735009
4332,0.250824988,0.0349771008,-0.35154599
4333,0.250824988,0.0349771008,0.35154599
4334,0.250867009,0.0348592997,-0.359355986
4335,0.250867009,0.0348592997,0.359355986
4336,0.250910014,0.0347415991,-0.367166996
4337,0.250910014,0.0347415991,0.367166996
4338,0.250952005,0.0346238017,-0.374976993
4339,0.250952005,0.0346238017,0.374976993
4340,0.250975996,0.0343698002,-0.390412003
4341,0.250975996,0.0343698002,0.390412003
4342,0.250993997,0.0345060006,-0.382788002
4343,0.250993997,0.0345060006,0.382788002
4344,0.25108701,0.0342464,-0.171875
4345,0.25108701,0.0342464,-0.164063007
4346,0.25108701,0.0342464,-0.15625
4347,0.25108701,0.0342464,-0.148438007
4348,0.25108701,0.0342464,-0.140625
4349,0.25108701,0.0342464,-0.132813007
4350,0.25108701,0.0342464,-0.125
4351,0.25108701,0.0342464,-0.117187001
4352,0.25108701,0.0342464,-0.109375
4353,0.25108701,0.0342464,-0.101562001
4354,0.25108701,0.0342464,-0.09375
4355,0.25108701,0.0342464,-0.0859375
4356,0.25108701,0.0342464,-0.078125
4357,0.25108701,0.0342464,-0.0703125
4358,0.25108701,0.0342464,-0.0625
4359,0.25108701,0.0342464,-0.0546875
4360,0.25108701,0.0342464,-0.046875
4361,0.25108701,0.0342464,-0.0390625
4362,0.25108701,0.0342464,-0.03125
4363,0.25108701,0.0342464,-0.0234375
4364,0.25108701,0.0342464,-0.015625
4365,0.25108701,0.0342464,-0.0078125
4366,0.25108701,0.0342464,-1e-12
4367,0.25108701,0.0342464,0.0078125
4368,0.25108701,0.0342464,0.015625
4369,0.25108701,0.0342464,0.0234375
4370,0.25108701,0.0342464,0.03125
4371,0.25108701,0.0342464,0.0390625
4372,0.25108701,0.0342464,0.046875
4373,0.25108701,0.0342464,0.0546875
4374,0.25108701,0.0342464,0.0625
4375,0.25108701,0.0342464,0.0703125
4376,0.25108701,0.0342464,0.078125
4377,0.25108701,0.0342464,0.0859375
4378,0.25108701,0.0342464,0.09375
4379,0.25108701,0.0342464,0.101562999
4380,0.25108701,0.0342464,0.109375
4381,0.25108701,0.0342464,0.117187001
4382,0.25108701,0.0342464,0.125
4383,0.25108701,0.0342464,0.132811993
4384,0.25108701,0.0342464,0.140625
4385,0.25108701,0.0342464,0.148436993
4386,0.25108701,0.0342464,0.15625
4387,0.25108701,0.0342464,0.164061993
4388,0.25108701,0.0342464,0.171875
4389,0.255490005,0.0420059003,-0.397269011
4390,0.25564301,0.0413683988,0.397269011
4391,0.256155998,0.047268901,-0.397269011
4392,0.256155998,0.047268901,0.397269011
4393,0.256491989,0.0422383994,-0.398312986
4394,0.25663501,0.0415960997,0.398312986
4395,0.260358006,0.037586201,-0.382813007
4396,0.260358006,0.037586201,-0.375
4397,0.260358006,0.037586201,-0.367188007
4398,0.260358006,0.037586201,-0.359375
4399,0.260358006,0.037586201,-0.351561993
4400,0.260358006,0.037586201,-0.34375
4401,0.260358006,0.037586201,-0.335938007
4402,0.260358006,0.037586201,-0.328125
4403,0.260358006,0.037586201,-0.320311993
4404,0.260358006,0.037586201,-0.3125
4405,0.260358006,0.037586201,-0.304688007
4406,0.260358006,0.037586201,-0.296875
4407,0.260358006,0.037586201,-0.289063007
4408,0.260358006,0.037586201,-0.28125
4409,0.260358006,0.037586201,-0.273438007
4410,0.260358006,0.037586201,-0.265625
4411,0.260358006,0.037586201,-0.257811993
4412,0.260358006,0.037586201,-0.25
4413,0.260358006,0.037586201,-0.242186993
4414,0.260358006,0.037586201,-0.234375
4415,0.260358006,0.037586201,-0.226561993
4416,0.260358006,0.037586201,-0.21875
4417,0.260358006,0.037586201,-0.210936993
4418,0.260358006,0.037586201,-0.203125
4419,0.260358006,0.037586201,-0.195313007
4420,0.260358006,0.037586201,-0.1875
4421,0.260358006,0.037586201,-0.179688007
4422,0.260358006,0.037586201,-0.171875
4423,0.260358006,0.037586201,-0.164061993
4424,0.260358006,0.037586201,-0.15625
4425,0.260358006,0.037586201,-0.148438007
4426,0.260358006,0.037586201,-0.140625
4427,0.260358006,0.037586201,-0.132811993
4428,0.260358006,0.037586201,-0.125
4429,0.260358006,0.037586201,-0.117187001
4430,0.260358006,0.037586201,-0.109375
4431,0.260358006,0.037586201,-0.101562999
4432,0.260358006,0.037586201,-0.09375
4433,0.260358006,0.037586201,-0.0859375
4434,0.260358006,0.037586201,-0.078125
4435,0.260358006,0.037586201,-0.0703125
4436,0.260358006,0.037586201,-0.0625
4437,0.260358006,0.037586201,-0.0546875
4438,0.260358006,0.037586201,-0.046875
4439,0.260358006,0.037586201,-0.0390625
4440,0.260358006,0.037586201,-0.03125
4441,0.260358006,0.037586201,-0.0234375
4442,0.260358006,0.037586201,-0.015625
4443,0.260358006,0.037586201,-0.0078125
4444,0.260358006,0.037586201,-0
4445,0.260358006,0.037586201,0.0078125
4446,0.260358006,0.037586201,0.015625
4447,0.260358006,0.037586201,0.0234375
4448,0.260358006,0.037586201,0.03125
4449,0.260358006,0.037586201,0.0390625
4450,0.260358006,0.037586201,0.046875
4451,0.260358006,0.037586201,0.0546875
4452,0.260358006,0.037586201,0.0625
4453,0.260358006,0.037586201,0.0703125
4454,0.260358006,0.037586201,0.078125
4455,0.260358006,0.037586201,0.0859375
4456,0.260358006,0.037586201,0.09375
4457,0.260358006,0.037586201,0.101562001
4458,0.260358006,0.037586201,0.109375
4459,0.260358006,0.037586201,0.117187999
4460,0.260358006,0.037586201,0.125
4461,0.260358006,0.037586201,0.132811993
4462,0.260358006,0.037586201,0.140625
4463,0.260358006,0.037586201,0.148436993
4464,0.260358006,0.037586201,0.15625
4465,0.260358006,0.037586201,0.164063007
4466,0.260358006,0.037586201,0.171875
4467,0.260358006,0.037586201,0.179688007
4468,0.260358006,0.037586201,0.1875
4469,0.260358006,0.037586201,0.195311993
4470,0.260358006,0.037586201,0.203125
4471,0.260358006,0.037586201,0.210938007
4472,0.260358006,0.037586201,0.21875
4473,0.260358006,0.037586201,0.226563007
4474,0.260358006,0.037586201,0.234375
4475,0.260358006,0.037586201,0.242186993
4476,0.260358006,0.037586201,0.25
4477,0.260358006,0.037586201,0.257813007
4478,0.260358006,0.037586201,0.265625
4479,0.260358006,0.037586201,0.273438007
4480,0.260358006,0.037586201,0.28125
4481,0.260358006,0.037586201,0.289063007
4482,0.260358006,0.037586201,0.296875
4483,0.260358006,0.037586201,0.304686993
4484,0.260358006,0.037586201,0.3125
4485,0.260358006,0.037586201,0.320311993
4486,0.260358006,0.037586201,0.328125
4487,0.260358006,0.037586201,0.335938007
4488,0.260358006,0.037586201,0.34375
4489,0.260358006,0.037586201,0.351563007
4490,0.260358006,0.037586201,0.359375
4491,0.260358006,0.037586201,0.367186993
4492,0.260358006,0.037586201,0.375
4493,0.260358006,0.037586201,0.382813007
4494,0.260399014,0.0376010984,-0.390547007
4495,0.260399014,0.0376010984,0.390547007
4496,0.261031002,0.0477854013,-0.390547007
4497,0.261031002,0.0477854013,0.390547007
4498,0.261058003,0.0477882996,-0.382811993
4499,0.261058003,0.0477882996,-0.375
4500,0.261058003,0.0477882996,-0.367188007
4501,0.261058003,0.0477882996,-0.359375
4502,0.261058003,0.0477882996,-0.351561993
4503,0.261058003,0.0477882996,-0.34375
4504,0.261058003,0.0477882996,-0.335936993
4505,0.261058003,0.0477882996,-0.328125
4506,0.261058003,0.0477882996,-0.320311993
4507,0.261058003,0.0477882996,-0.3125
4508,0.261058003,0.0477882996,-0.304688007
4509,0.261058003,0.0477882996,-0.296875
4510,0.261058003,0.0477882996,-0.289063007
4511,0.261058003,0.0477882996,-0.28125
4512,0.261058003,0.0477882996,-0.273438007
4513,0.261058003,0.0477882996,-0.265625
4514,0.261058003,0.0477882996,-0.257811993
4515,0.261058003,0.0477882996,-0.25
4516,0.261058003,0.0477882996,-0.242186993
4517,0.261058003,0.0477882996,-0.234375
4518,0.261058003,0.0477882996,-0.226563007
4519,0.261058003,0.0477882996,-0.21875
4520,0.261058003,0.0477882996,-0.210936993
4521,0.261058003,0.0477882996,-0.203125
4522,0.261058003,0.0477882996,-0.195311993
4523,0.261058003,0.0477882996,-0.1875
4524,0.261058003,0.0477882996,-0.179688007
4525,0.261058003,0.0477882996,-0.171875
4526,0.261058003,0.0477882996,-0.164061993
4527,0.261058003,0.0477882996,-0.15625
4528,0.261058003,0.0477882996,-0.148436993
4529,0.261058003,0.0477882996,-0.140625
4530,0.261058003,0.0477882996,-0.132811993
4531,0.261058003,0.0477882996,-0.125
4532,0.261058003,0.0477882996,-0.117187999
4533,0.261058003,0.0477882996,-0.109375
4534,0.261058003,0.0477882996,-0.101562001
4535,0.261058003,0.0477882996,-0.09375
4536,0.261058003,0.0477882996,-0.0859375
4537,0.261058003,0.0477882996,-0.078125
4538,0.261058003,0.0477882996,-0.0703125
4539,0.261058003,0.0477882996,-0.0625
4540,0.261058003,0.0477882996,-0.0546875
4541,0.261058003,0.0477882996,-0.046875
4542,0.261058003,0.0477882996,-0.0390625
4543,0.261058003,0.0477882996,-0.03125
4544,0.261058003,0.0477882996,-0.0234375
4545,0.261058003,0.0477882996,-0.015625
4546,0.261058003,0.0477882996,-0.0078125
4547,0.261058003,0.0477882996,2e-12
4548,0.261058003,0.0477882996,0.0078125
4549,0.261058003,0.0477882996,0.015625
4550,0.261058003,0.0477882996,0.0234375
4551,0.261058003,0.0477882996,0.03125
4552,0.261058003,0.0477882996,0.0390625
4553,0.261058003,0.0477882996,0.046875
4554,0.261058003,0.0477882996,0.0546875
4555,0.261058003,0.0477882996,0.0625
4556,0.261058003,0.0477882996,0.0703125
4557,0.261058003,0.0477882996,0.078125
4558,0.261058003,0.0477882996,0.0859375
4559,0.261058003,0.0477882996,0.09375
4560,0.261058003,0.0477882996,0.101562999
4561,0.261058003,0.0477882996,0.109375
4562,0.261058003,0.0477882996,0.117187999
4563,0.261058003,0.0477882996,0.125
4564,0.261058003,0.0477882996,0.132813007
4565,0.261058003,0.0477882996,0.140625
4566,0.261058003,0.0477882996,0.148438007
4567,0.261058003,0.0477882996,0.15625
4568,0.261058003,0.0477882996,0.164061993
4569,0.261058003,0.0477882996,0.171875
4570,0.261058003,0.0477882996,0.179686993
4571,0.261058003,0.0477882996,0.1875
4572,0.261058003,0.0477882996,0.195313007
4573,0.261058003,0.0477882996,0.203125
4574,0.261058003,0.0477882996,0.210936993
4575,0.261058003,0.0477882996,0.21875
4576,0.261058003,0.0477882996,0.226563007
4577,0.261058003,0.0477882996,0.234375
4578,0.261058003,0.0477882996,0.242186993
4579,0.261058003,0.0477882996,0.25
4580,0.261058003,0.0477882996,0.257813007
4581,0.261058003,0.0477882996,0.265625
4582,0.261058003,0.0477882996,0.273436993
4583,0.261058003,0.0477882996,0.28125
4584,0.261058003,0.0477882996,0.289061993
4585,0.261058003,0.0477882996,0.296875
4586,0.261058003,0.0477882996,0.304688007
4587,0.261058003,0.0477882996,0.3125
4588,0.261058003,0.0477882996,0.320313007
4589,0.261058003,0.0477882996,0.328125
4590,0.261058003,0.0477882996,0.335938007
4591,0.261058003,0.0477882996,0.34375
4592,0.261058003,0.0477882996,0.351561993
4593,0.261058003,0.0477882996,0.359375
4594,0.261058003,0.0477882996,0.367188007
4595,0.261058003,0.0477882996,0.375
4596,0.261058003,0.0477882996,0.382811993
4597,0.261750013,0.0380915999,-0.386718988
4598,0.261750013,0.0380915999,-0.378906012
4599,0.261750013,0.0380915999,-0.371093988
4600,0.261750013,0.0380915999,-0.363281012
4601,0.261750013,0.0380915999,-0.355468988
4602,0.261750013,0.0380915999,-0.347656012
4603,0.261750013,0.0380915999,-0.339843988
4604,0.261750013,0.0380915999,-0.332031012
4605,0.261750013,0.0380915999,-0.324218988
4606,0.261750013,0.0380915999,-0.316406012
4607,0.261750013,0.0380915999,-0.308593988
4608,0.261750013,0.0380915999,-0.300781012
4609,0.261750013,0.0380915999,-0.292968988
4610,0.261750013,0.0380915999,-0.285156012
4611,0.261750013,0.0380915999,-0.277343988
4612,0.261750013,0.0380915999,-0.269531012
4613,0.261750013,0.0380915999,-0.261718988
4614,0.261750013,0.0380915999,-0.253906012
4615,0.261750013,0.0380915999,-0.246094003
4616,0.261750013,0.0380915999,-0.238280997
4617,0.261750013,0.0380915999,-0.230469003
4618,0.261750013,0.0380915999,-0.222655997
4619,0.261750013,0.0380915999,-0.214844003
4620,0.261750013,0.0380915999,-0.207030997
4621,0.261750013,0.0380915999,-0.199219003
4622,0.261750013,0.0380915999,-0.191405997
4623,0.261750013,0.0380915999,-0.183594003
4624,0.261750013,0.0380915999,-0.175780997
4625,0.261750013,0.0380915999,-0.167969003
4626,0.261750013,0.0380915999,-0.160155997
4627,0.261750013,0.0380915999,-0.152344003
4628,0.261750013,0.0380915999,-0.144530997
4629,0.261750013,0.0380915999,-0.136719003
4630,0.261750013,0.0380915999,-0.128905997
4631,0.261750013,0.0380915999,-0.121094003
4632,0.261750013,0.0380915999,-0.113280997
4633,0.261750013,0.0380915999,-0.105469003
4634,0.261750013,0.0380915999,-0.0976563022
4635,0.261750013,0.0380915999,-0.0898436978
4636,0.261750013,0.0380915999,-0.0820313022
4637,0.261750013,0.0380915999,-0.0742186978
4638,0.261750013,0.0380915999,-0.0664061978
4639,0.261750013,0.0380915999,-0.0585937984
4640,0.261750013,0.0380915999,-0.0507812984
4641,0.261750013,0.0380915999,-0.0429687984
4642,0.261750013,0.0380915999,-0.0351562984
4643,0.261750013,0.0380915999,-0.0273438003
4644,0.261750013,0.0380915999,-0.0195311997
4645,0.261750013,0.0380915999,-0.0117188003
4646,0.261750013,0.0380915999,-0.00390625
4647,0.261750013,0.0380915999,0.00390625
4648,0.261750013,0.0380915999,0.0117186997
4649,0.261750013,0.0380915999,0.0195311997
4650,0.261750013,0.0380915999,0.0273436997
4651,0.261750013,0.0380915999,0.0351562016
4652,0.261750013,0.0380915999,0.0429687016
4653,0.261750013,0.0380915999,0.0507812016
4654,0.261750013,0.0380915999,0.0585937016
4655,0.261750013,0.0380915999,0.0664061978
4656,0.261750013,0.0380915999,0.0742186978
4657,0.261750013,0.0380915999,0.0820311978
4658,0.261750013,0.0380915999,0.0898436978
4659,0.261750013,0.0380915999,0.0976561978
4660,0.261750013,0.0380915999,0.105469003
4661,0.261750013,0.0380915999,0.113280997
4662,0.261750013,0.0380915999,0.121094003
4663,0.261750013,0.0380915999,0.128905997
4664,0.261750013,0.0380915999,0.136719003
4665,0.261750013,0.0380915999,0.144530997
4666,0.261750013,0.0380915999,0.152344003
4667,0.261750013,0.0380915999,0.160155997
4668,0.261750013,0.0380915999,0.167969003
4669,0.261750013,0.0380915999,0.175780997
4670,0.261750013,0.0380915999,0.183594003
4671,0.261750013,0.0380915999,0.191405997
4672,0.261750013,0.0380915999,0.199219003
4673,0.261750013,0.0380915999,0.207030997
4674,0.261750013,0.0380915999,0.214844003
4675,0.261750013,0.0380915999,0.222655997
4676,0.261750013,0.0380915999,0.230469003
4677,0.261750013,0.0380915999,0.238280997
4678,0.261750013,0.0380915999,0.246094003
4679,0.261750013,0.0380915999,0.253906012
4680,0.261750013,0.0380915999,0.261718988
4681,0.261750013,0.0380915999,0.269531012
4682,0.261750013,0.0380915999,0.277343988
4683,0.261750013,0.0380915999,0.285156012
4684,0.261750013,0.0380915999,0.292968988
4685,0.261750013,0.0380915999,0.300781012
4686,0.261750013,0.0380915999,0.308593988
4687,0.261750013,0.0380915999,0.316406012
4688,0.261750013,0.0380915999,0.324218988
4689,0.261750013,0.0380915999,0.332031012
4690,0.261750013,0.0380915999,0.339843988
4691,0.261750013,0.0380915999,0.347656012
4692,0.261750013,0.0380915999,0.355468988
4693,0.261750013,0.0380915999,0.363281012
4694,0.261750013,0.0380915999,0.371093988
4695,0.261750013,0.0380915999,0.378906012
4696,0.261750013,0.0380915999,0.386718988
4697,0.261772007,0.0478629991,-0.397013992
4698,0.261772007,0.0478629991,0.397013992
4699,0.261839986,0.0381636992,-0.396986008
4700,0.261839986,0.0381636992,0.396986008
4701,0.261875987,0.0381373018,-0.394286007
4702,0.261875987,0.0381373018,0.394286007
4703,0.262367994,0.0436029993,-0.398286015
4704,0.262519002,0.0429464988,0.398286015
4705,0.262605011,0.047949601,-0.386718988
4706,0.262605011,0.047949601,-0.378906012
4707,0.262605011,0.047949601,-0.371093988
4708,0.262605011,0.047949601,-0.363281012
4709,0.262605011,0.047949601,-0.355468988
4710,0.262605011,0.047949601,-0.347656012
4711,0.262605011,0.047949601,-0.339843988
4712,0.262605011,0.047949601,-0.332031012
4713,0.262605011,0.047949601,-0.324218988
4714,0.262605011,0.047949601,-0.316406012
4715,0.262605011,0.047949601,-0.308593988
4716,0.262605011,0.047949601,-0.300781012
4717,0.262605011,0.047949601,-0.292968988
4718,0.262605011,0.047949601,-0.285156012
4719,0.262605011,0.047949601,-0.277343988
4720,0.262605011,0.047949601,-0.269531012
4721,0.262605011,0.047949601,-0.261718988
4722,0.262605011,0.047949601,-0.253906012
4723,0.262605011,0.047949601,-0.246094003
4724,0.262605011,0.047949601,-0.238280997
4725,0.262605011,0.047949601,-0.230469003
4726,0.262605011,0.047949601,-0.222655997
4727,0.262605011,0.047949601,-0.214844003
4728,0.262605011,0.047949601,-0.207030997
4729,0.262605011,0.047949601,-0.199219003
4730,0.262605011,0.047949601,-0.191405997
4731,0.262605011,0.047949601,-0.183594003
4732,0.262605011,0.047949601,-0.175780997
4733,0.262605011,0.047949601,-0.167969003
4734,0.262605011,0.047949601,-0.160155997
4735,0.262605011,0.047949601,-0.152344003
4736,0.262605011,0.047949601,-0.144530997
4737,0.262605011,0.047949601,-0.136719003
4738,0.262605011,0.047949601,-0.128905997
4739,0.262605011,0.047949601,-0.121094003
4740,0.262605011,0.047949601,-0.113280997
4741,0.262605011,0.047949601,-0.105469003
4742,0.262605011,0.047949601,-0.0976563022
4743,0.262605011,0.047949601,-0.0898438022
4744,0.262605011,0.047949601,-0.0820313022
4745,0.262605011,0.047949601,-0.0742188022
4746,0.262605011,0.047949601,-0.0664063022
4747,0.262605011,0.047949601,-0.0585937984
4748,0.262605011,0.047949601,-0.0507812984
4749,0.262605011,0.047949601,-0.0429687984
4750,0.262605011,0.047949601,-0.0351562984
4751,0.262605011,0.047949601,-0.0273436997
4752,0.262605011,0.047949601,-0.0195311997
4753,0.262605011,0.047949601,-0.0117186997
4754,0.262605011,0.047949601,-0.00390625
4755,0.262605011,0.047949601,0.00390625
4756,0.262605011,0.047949601,0.0117186997
4757,0.262605011,0.047949601,0.0195311997
4758,0.262605011,0.047949601,0.0273436997
4759,0.262605011,0.047949601,0.0351562016
4760,0.262605011,0.047949601,0.0429687016
4761,0.262605011,0.047949601,0.0507812016
4762,0.262605011,0.047949601,0.0585937016
4763,0.262605011,0.047949601,0.0664063022
4764,0.262605011,0.047949601,0.0742188022
4765,0.262605011,0.047949601,0.0820311978
4766,0.262605011,0.047949601,0.0898436978
4767,0.262605011,0.047949601,0.0976561978
4768,0.262605011,0.047949601,0.105469003
4769,0.262605011,0.047949601,0.113280997
4770,0.262605011,0.047949601,0.121094003
4771,0.262605011,0.047949601,0.128905997
4772,0.262605011,0.047949601,0.136719003
4773,0.262605011,0.047949601,0.144530997
4774,0.262605011,0.047949601,0.152344003
4775,0.262605011,0.047949601,0.160155997
4776,0.262605011,0.047949601,0.167969003
4777,0.262605011,0.047949601,0.175780997
4778,0.262605011,0.047949601,0.183594003
4779,0.262605011,0.047949601,0.191405997
4780,0.262605011,0.047949601,0.199219003
4781,0.262605011,0.047949601,0.207030997
4782,0.262605011,0.047949601,0.214844003
4783,0.262605011,0.047949601,0.222655997
4784,0.262605011,0.047949601,0.230469003
4785,0.262605011,0.047949601,0.238280997
4786,0.262605011,0.047949601,0.246094003
4787,0.262605011,0.047949601,0.253906012
4788,0.262605011,0.047949601,0.261718988
4789,0.262605011,0.047949601,0.269531012
4790,0.262605011,0.047949601,0.277343988
4791,0.262605011,0.047949601,0.285156012
4792,0.262605011,0.047949601,0.292968988
4793,0.262605011,0.047949601,0.300781012
4794,0.262605011,0.047949601,0.308593988
4795,0.262605011,0.047949601,0.316406012
4796,0.262605011,0.047949601,0.324218988
4797,0.262605011,0.047949601,0.332031012
4798,0.262605011,0.047949601,0.339843988
4799,0.262605011,0.047949601,0.347656012
4800,0.262605011,0.047949601,0.355468988
4801,0.262605011,0.047949601,0.363281012
4802,0.262605011,0.047949601,0.371093988
4803,0.262605011,0.047949601,0.378906012
4804,0.262605011,0.047949601,0.386718988
4805,0.262620986,0.0479512997,-0.394304991
4806,0.262620986,0.0479512997,0.394304991
4807,0.266772002,0.0399242006,-0.397237003
4808,0.266772002,0.0399242006,0.397237003
4809,0.266916007,0.0399770997,-0.390625
4810,0.266916007,0.0399770997,-0.382813007
4811,0.266916007,0.0399770997,-0.375
4812,0.266916007,0.0399770997,-0.367188007
4813,0.266916007,0.0399770997,-0.359375
4814,0.266916007,0.0399770997,-0.351561993
4815,0.266916007,0.0399770997,-0.34375
4816,0.266916007,0.0399770997,-0.335938007
4817,0.266916007,0.0399770997,-0.328125
4818,0.266916007,0.0399770997,-0.320311993
4819,0.266916007,0.0399770997,-0.3125
4820,0.266916007,0.0399770997,-0.304688007
4821,0.266916007,0.0399770997,-0.296875
4822,0.266916007,0.0399770997,-0.289063007
4823,0.266916007,0.0399770997,-0.28125
4824,0.266916007,0.0399770997,-0.273438007
4825,0.266916007,0.0399770997,-0.265625
4826,0.266916007,0.0399770997,-0.257811993
4827,0.266916007,0.0399770997,-0.25
4828,0.266916007,0.0399770997,-0.242186993
4829,0.266916007,0.0399770997,-0.234375
4830,0.266916007,0.0399770997,-0.226561993
4831,0.266916007,0.0399770997,-0.21875
4832,0.266916007,0.0399770997,-0.210936993
4833,0.266916007,0.0399770997,-0.203125
4834,0.266916007,0.0399770997,-0.195311993
4835,0.266916007,0.0399770997,-0.1875
4836,0.266916007,0.0399770997,-0.179688007
4837,0.266916007,0.0399770997,-0.171875
4838,0.266916007,0.0399770997,-0.164061993
4839,0.266916007,0.0399770997,-0.15625
4840,0.266916007,0.0399770997,-0.148438007
4841,0.266916007,0.0399770997,-0.140625
4842,0.266916007,0.0399770997,-0.132811993
4843,0.266916007,0.0399770997,-0.125
4844,0.266916007,0.0399770997,-0.117187001
4845,0.266916007,0.0399770997,-0.109375
4846,0.266916007,0.0399770997,-0.101562001
4847,0.266916007,0.0399770997,-0.09375
4848,0.266916007,0.0399770997,-0.0859375
4849,0.266916007,0.0399770997,-0.078125
4850,0.266916007,0.0399770997,-0.0703125
4851,0.266916007,0.0399770997,-0.0625
4852,0.266916007,0.0399770997,-0.0546875
4853,0.266916007,0.0399770997,-0.046875
4854,0.266916007,0.0399770997,-0.0390625
4855,0.266916007,0.0399770997,-0.03125
4856,0.266916007,0.0399770997,-0.0234375
4857,0.266916007,0.0399770997,-0.015625
4858,0.266916007,0.0399770997,-0.0078125
4859,0.266916007,0.0399770997,0
4860,0.266916007,0.0399770997,0.0078125
4861,0.266916007,0.0399770997,0.015625
4862,0.266916007,0.0399770997,0.0234375
4863,0.266916007,0.0399770997,0.03125
4864,0.266916007,0.0399770997,0.0390625
4865,0.266916007,0.0399770997,0.046875
4866,0.266916007,0.0399770997,0.0546875
4867,0.266916007,0.0399770997,0.0625
4868,0.266916007,0.0399770997,0.0703125
4869,0.266916007,0.0399770997,0.078125
4870,0.266916007,0.0399770997,0.0859375
4871,0.266916007,0.0399770997,0.09375
4872,0.266916007,0.0399770997,0.101562001
4873,0.266916007,0.0399770997,0.109375
4874,0.266916007,0.0399770997,0.117187001
4875,0.266916007,0.0399770997,0.125
4876,0.266916007,0.0399770997,0.132813007
4877,0.266916007,0.0399770997,0.140625
4878,0.266916007,0.0399770997,0.148438007
4879,0.266916007,0.0399770997,0.15625
4880,0.266916007,0.0399770997,0.164061993
4881,0.266916007,0.0399770997,0.171875
4882,0.266916007,0.0399770997,0.179688007
4883,0.266916007,0.0399770997,0.1875
4884,0.266916007,0.0399770997,0.195311993
4885,0.266916007,0.0399770997,0.203125
4886,0.266916007,0.0399770997,0.210936993
4887,0.266916007,0.0399770997,0.21875
4888,0.266916007,0.0399770997,0.226563007
4889,0.266916007,0.0399770997,0.234375
4890,0.266916007,0.0399770997,0.242186993
4891,0.266916007,0.0399770997,0.25
4892,0.266916007,0.0399770997,0.257813007
4893,0.266916007,0.0399770997,0.265625
4894,0.266916007,0.0399770997,0.273436993
4895,0.266916007,0.0399770997,0.28125
4896,0.266916007,0.0399770997,0.289061993
4897,0.266916007,0.0399770997,0.296875
4898,0.266916007,0.0399770997,0.304688007
4899,0.266916007,0.0399770997,0.3125
4900,0.266916007,0.0399770997,0.320313007
4901,0.266916007,0.0399770997,0.328125
4902,0.266916007,0.0399770997,0.335938007
4903,0.266916007,0.0399770997,0.34375
4904,0.266916007,0.0399770997,0.351561993
4905,0.266916007,0.0399770997,0.359375
4906,0.266916007,0.0399770997,0.367188007
4907,0.266916007,0.0399770997,0.375
4908,0.266916007,0.0399770997,0.382811993
4909,0.266916007,0.0399770997,0.390625
4910,0.266921997,0.0399793014,-0.386718988
4911,0.266921997,0.0399793014,-0.378906012
4912,0.266921997,0.0399793014,-0.371093988
4913,0.266921997,0.0399793014,-0.363281012
4914,0.266921997,0.0399793014,-0.355468988
4915,0.266921997,0.0399793014,-0.347656012
4916,0.266921997,0.0399793014,-0.339843988
4917,0.266921997,0.0399793014,-0.332031012
4918,0.266921997,0.0399793014,-0.324218988
4919,0.266921997,0.0399793014,-0.316406012
4920,0.266921997,0.0399793014,-0.308593988
4921,0.266921997,0.0399793014,-0.300781012
4922,0.266921997,0.0399793014,-0.292968988
4923,0.266921997,0.0399793014,-0.285156012
4924,0.266921997,0.0399793014,-0.277343988
4925,0.266921997,0.0399793014,-0.269531012
4926,0.266921997,0.0399793014,-0.261718988
4927,0.266921997,0.0399793014,-0.253906012
4928,0.266921997,0.0399793014,-0.246094003
4929,0.266921997,0.0399793014,-0.238280997
4930,0.266921997,0.0399793014,-0.230469003
4931,0.266921997,0.0399793014,-0.222655997
4932,0.266921997,0.0399793014,-0.214844003
4933,0.266921997,0.0399793014,-0.207030997
4934,0.266921997,0.0399793014,-0.199219003
4935,0.266921997,0.0399793014,-0.191405997
4936,0.266921997,0.0399793014,-0.183594003
4937,0.266921997,0.0399793014,-0.175780997
4938,0.266921997,0.0399793014,-0.167969003
4939,0.266921997,0.0399793014,-0.160155997
4940,0.266921997,0.0399793014,-0.152344003
4941,0.266921997,0.0399793014,-0.144530997
4942,0.266921997,0.0399793014,-0.136719003
4943,0.266921997,0.0399793014,-0.128905997
4944,0.266921997,0.0399793014,-0.121094003
4945,0.266921997,0.0399793014,-0.113280997
4946,0.266921997,0.0399793014,-0.105469003
4947,0.266921997,0.0399793014,-0.0976561978
4948,0.266921997,0.0399793014,-0.0898436978
4949,0.266921997,0.0399793014,-0.0820311978
4950,0.266921997,0.0399793014,-0.0742188022
4951,0.266921997,0.0399793014,-0.0664061978
4952,0.266921997,0.0399793014,-0.0585937984
4953,0.266921997,0.0399793014,-0.0507812016
4954,0.266921997,0.0399793014,-0.0429687016
4955,0.266921997,0.0399793014,-0.0351562016
4956,0.266921997,0.0399793014,-0.0273436997
4957,0.266921997,0.0399793014,-0.0195311997
4958,0.266921997,0.0399793014,-0.0117186997
4959,0.266921997,0.0399793014,-0.00390625
4960,0.266921997,0.0399793014,0.00390625
4961,0.266921997,0.0399793014,0.0117186997
4962,0.266921997,0.0399793014,0.0195311997
4963,0.266921997,0.0399793014,0.0273438003
4964,0.266921997,0.0399793014,0.0351562016
4965,0.266921997,0.0399793014,0.0429687984
4966,0.266921997,0.0399793014,0.0507812016
4967,0.266921997,0.0399793014,0.0585937984
4968,0.266921997,0.0399793014,0.0664063022
4969,0.266921997,0.0399793014,0.0742188022
4970,0.266921997,0.0399793014,0.0820313022
4971,0.266921997,0.0399793014,0.0898436978
4972,0.266921997,0.0399793014,0.0976563022
4973,0.266921997,0.0399793014,0.105469003
4974,0.266921997,0.0399793014,0.113280997
4975,0.266921997,0.0399793014,0.121094003
4976,0.266921997,0.0399793014,0.128905997
4977,0.266921997,0.0399793014,0.136719003
4978,0.266921997,0.0399793014,0.144530997
4979,0.266921997,0.0399793014,0.152344003
4980,0.266921997,0.0399793014,0.160155997
4981,0.266921997,0.0399793014,0.167969003
4982,0.266921997,0.0399793014,0.175780997
4983,0.266921997,0.0399793014,0.183594003
4984,0.266921997,0.0399793014,0.191405997
4985,0.266921997,0.0399793014,0.199219003
4986,0.266921997,0.0399793014,0.207030997
4987,0.266921997,0.0399793014,0.214844003
4988,0.266921997,0.0399793014,0.222655997
4989,0.266921997,0.0399793014,0.230469003
4990,0.266921997,0.0399793014,0.238280997
4991,0.266921997,0.0399793014,0.246094003
4992,0.266921997,0.0399793014,0.253906012
4993,0.266921997,0.0399793014,0.261718988
4994,0.266921997,0.0399793014,0.269531012
4995,0.266921997,0.0399793014,0.277343988
4996,0.266921997,0.0399793014,0.285156012
4997,0.266921997,0.0399793014,0.292968988
4998,0.266921997,0.0399793014,0.300781012
4999,0.266921997,0.0399793014,0.308593988
5000,0.266921997,0.0399793014,0.316406012
5001,0.266921997,0.0399793014,0.324218988
5002,0.266921997,0.0399793014,0.332031012
5003,0.266921997,0.0399793014,0.339843988
5004,0.266921997,0.0399793014,0.347656012
5005,0.266921997,0.0399793014,0.355468988
5006,0.266921997,0.0399793014,0.363281012
5007,0.266921997,0.0399793014,0.371093988
5008,0.266921997,0.0399793014,0.378906012
5009,0.266921997,0.0399793014,0.386718988
5010,0.266932011,0.0399831012,-0.394374013
5011,0.266932011,0.0399831012,0.394374013
5012,0.268413991,0.0450066999,-0.397536993
5013,0.268570989,0.0443358012,0.397536993
5014,0.268685997,0.0485736988,-0.397394001
5015,0.268685997,0.0485736988,0.397394001
5016,0.268812001,0.0485864989,-0.390625
5017,0.268812001,0.0485864989,-0.382813007
5018,0.268812001,0.0485864989,-0.375
5019,0.268812001,0.0485864989,-0.367188007
5020,0.268812001,0.0485864989,-0.359375
5021,0.268812001,0.0485864989,-0.351561993
5022,0.268812001,0.0485864989,-0.34375
5023,0.268812001,0.0485864989,-0.335936993
5024,0.268812001,0.0485864989,-0.328125
5025,0.268812001,0.0485864989,-0.320313007
5026,0.268812001,0.0485864989,-0.3125
5027,0.268812001,0.0485864989,-0.304686993
5028,0.268812001,0.0485864989,-0.296875
5029,0.268812001,0.0485864989,-0.289063007
5030,0.268812001,0.0485864989,-0.28125
5031,0.268812001,0.0485864989,-0.273436993
5032,0.268812001,0.0485864989,-0.265625
5033,0.268812001,0.0485864989,-0.257813007
5034,0.268812001,0.0485864989,-0.25
5035,0.268812001,0.0485864989,-0.242186993
5036,0.268812001,0.0485864989,-0.234375
5037,0.268812001,0.0485864989,-0.226563007
5038,0.268812001,0.0485864989,-0.21875
5039,0.268812001,0.0485864989,-0.210938007
5040,0.268812001,0.0485864989,-0.203125
5041,0.268812001,0.0485864989,-0.195313007
5042,0.268812001,0.0485864989,-0.1875
5043,0.268812001,0.0485864989,-0.179686993
5044,0.268812001,0.0485864989,-0.171875
5045,0.268812001,0.0485864989,-0.164063007
5046,0.268812001,0.0485864989,-0.15625
5047,0.268812001,0.0485864989,-0.148438007
5048,0.268812001,0.0485864989,-0.140625
5049,0.268812001,0.0485864989,-0.132811993
5050,0.268812001,0.0485864989,-0.125
5051,0.268812001,0.0485864989,-0.117187001
5052,0.268812001,0.0485864989,-0.109375
5053,0.268812001,0.0485864989,-0.101562999
5054,0.268812001,0.0485864989,-0.09375
5055,0.268812001,0.0485864989,-0.0859375
5056,0.268812001,0.0485864989,-0.078125
5057,0.268812001,0.0485864989,-0.0703125
5058,0.268812001,0.0485864989,-0.0625
5059,0.268812001,0.0485864989,-0.0546875
5060,0.268812001,0.0485864989,-0.046875
5061,0.268812001,0.0485864989,-0.0390625
5062,0.268812001,0.0485864989,-0.03125
5063,0.268812001,0.0485864989,-0.0234375
5064,0.268812001,0.0485864989,-0.015625
5065,0.268812001,0.0485864989,-0.0078125
5066,0.268812001,0.0485864989,-0
5067,0.268812001,0.0485864989,0.0078125
5068,0.268812001,0.0485864989,0.015625
5069,0.268812001,0.0485864989,0.0234375
5070,0.268812001,0.0485864989,0.03125
5071,0.268812001,0.0485864989,0.0390625
5072,0.268812001,0.0485864989,0.046875
5073,0.268812001,0.0485864989,0.0546875
5074,0.268812001,0.0485864989,0.0625
5075,0.268812001,0.0485864989,0.0703125
5076,0.268812001,0.0485864989,0.078125
5077,0.268812001,0.0485864989,0.0859375
5078,0.268812001,0.0485864989,0.09375
5079,0.268812001,0.0485864989,0.101562001
5080,0.268812001,0.0485864989,0.109375
5081,0.268812001,0.0485864989,0.117187001
5082,0.268812001,0.0485864989,0.125
5083,0.268812001,0.0485864989,0.132811993
5084,0.268812001,0.0485864989,0.140625
5085,0.268812001,0.0485864989,0.148436993
5086,0.268812001,0.0485864989,0.15625
5087,0.268812001,0.0485864989,0.164063007
5088,0.268812001,0.0485864989,0.171875
5089,0.268812001,0.0485864989,0.179686993
5090,0.268812001,0.0485864989,0.1875
5091,0.268812001,0.0485864989,0.195313007
5092,0.268812001,0.0485864989,0.203125
5093,0.268812001,0.0485864989,0.210938007
5094,0.268812001,0.0485864989,0.21875
5095,0.268812001,0.0485864989,0.226563007
5096,0.268812001,0.0485864989,0.234375
5097,0.268812001,0.0485864989,0.242188007
5098,0.268812001,0.0485864989,0.25
5099,0.268812001,0.0485864989,0.257813007
5100,0.268812001,0.0485864989,0.265625
5101,0.268812001,0.0485864989,0.273436993
5102,0.268812001,0.0485864989,0.28125
5103,0.268812001,0.0485864989,0.289063007
5104,0.268812001,0.0485864989,0.296875
5105,0.268812001,0.0485864989,0.304688007
5106,0.268812001,0.0485864989,0.3125
5107,0.268812001,0.0485864989,0.320311993
5108,0.268812001,0.0485864989,0.328125
5109,0.268812001,0.0485864989,0.335938007
5110,0.268812001,0.0485864989,0.34375
5111,0.268812001,0.0485864989,0.351563007
5112,0.268812001,0.0485864989,0.359375
5113,0.268812001,0.0485864989,0.367186993
5114,0.268812001,0.0485864989,0.375
5115,0.268812001,0.0485864989,0.382811993
5116,0.268812001,0.0485864989,0.390625
5117,0.268819988,0.0485872999,-0.386718988
5118,0.268819988,0.0485872999,-0.378906012
5119,0.268819988,0.0485872999,-0.371093988
5120,0.268819988,0.0485872999,-0.363281012
5121,0.268819988,0.0485872999,-0.355468988
5122,0.268819988,0.0485872999,-0.347656012
5123,0.268819988,0.0485872999,-0.339843988
5124,0.268819988,0.0485872999,-0.332031012
5125,0.268819988,0.0485872999,-0.324218988
5126,0.268819988,0.0485872999,-0.316406012
5127,0.268819988,0.0485872999,-0.308593988
5128,0.268819988,0.0485872999,-0.300781012
5129,0.268819988,0.0485872999,-0.292968988
5130,0.268819988,0.0485872999,-0.285156012
5131,0.268819988,0.0485872999,-0.277343988
5132,0.268819988,0.0485872999,-0.269531012
5133,0.268819988,0.0485872999,-0.261718988
5134,0.268819988,0.0485872999,-0.253906012
5135,0.268819988,0.0485872999,-0.246094003
5136,0.268819988,0.0485872999,-0.238280997
5137,0.268819988,0.0485872999,-0.230469003
5138,0.268819988,0.0485872999,-0.222655997
5139,0.268819988,0.0485872999,-0.214844003
5140,0.268819988,0.0485872999,-0.207030997
5141,0.268819988,0.0485872999,-0.199219003
5142,0.268819988,0.0485872999,-0.191405997
5143,0.268819988,0.0485872999,-0.183594003
5144,0.268819988,0.0485872999,-0.175780997
5145,0.268819988,0.0485872999,-0.167969003
5146,0.268819988,0.0485872999,-0.160155997
5147,0.268819988,0.0485872999,-0.152344003
5148,0.268819988,0.0485872999,-0.144530997
5149,0.268819988,0.0485872999,-0.136719003
5150,0.268819988,0.0485872999,-0.128905997
5151,0.268819988,0.0485872999,-0.121094003
5152,0.268819988,0.0485872999,-0.113280997
5153,0.268819988,0.0485872999,-0.105469003
5154,0.268819988,0.0485872999,-0.0976561978
5155,0.268819988,0.0485872999,-0.0898436978
5156,0.268819988,0.0485872999,-0.0820311978
5157,0.268819988,0.0485872999,-0.0742186978
5158,0.268819988,0.0485872999,-0.0664061978
5159,0.268819988,0.0485872999,-0.0585937984
5160,0.268819988,0.0485872999,-0.0507812016
5161,0.268819988,0.0485872999,-0.0429687016
5162,0.268819988,0.0485872999,-0.0351562984
5163,0.268819988,0.0485872999,-0.0273436997
5164,0.268819988,0.0485872999,-0.0195311997
5165,0.268819988,0.0485872999,-0.0117188003
5166,0.268819988,0.0485872999,-0.00390625
5167,0.268819988,0.0485872999,0.00390625
5168,0.268819988,0.0485872999,0.0117186997
5169,0.268819988,0.0485872999,0.0195311997
5170,0.268819988,0.0485872999,0.0273438003
5171,0.268819988,0.0485872999,0.0351562016
5172,0.268819988,0.0485872999,0.0429687016
5173,0.268819988,0.0485872999,0.0507812016
5174,0.268819988,0.0485872999,0.0585937016
5175,0.268819988,0.0485872999,0.0664063022
5176,0.268819988,0.0485872999,0.0742186978
5177,0.268819988,0.0485872999,0.0820311978
5178,0.268819988,0.0485872999,0.0898436978
5179,0.268819988,0.0485872999,0.0976563022
5180,0.268819988,0.0485872999,0.105469003
5181,0.268819988,0.0485872999,0.113280997
5182,0.268819988,0.0485872999,0.121094003
5183,0.268819988,0.0485872999,0.128905997
5184,0.268819988,0.0485872999,0.136719003
5185,0.268819988,0.0485872999,0.144530997
5186,0.268819988,0.0485872999,0.152344003
5187,0.268819988,0.0485872999,0.160155997
5188,0.268819988,0.0485872999,0.167969003
5189,0.268819988,0.0485872999,0.175780997
5190,0.268819988,0.0485872999,0.183594003
5191,0.268819988,0.0485872999,0.191405997
5192,0.268819988,0.0485872999,0.199219003
5193,0.268819988,0.0485872999,0.207030997
5194,0.268819988,0.0485872999,0.214844003
5195,0.268819988,0.0485872999,0.222655997
5196,0.268819988,0.0485872999,0.230469003
5197,0.268819988,0.0485872999,0.238280997
5198,0.268819988,0.0485872999,0.246094003
5199,0.268819988,0.0485872999,0.253906012
5200,0.268819988,0.0485872999,0.261718988
5201,0.268819988,0.0485872999,0.269531012
5202,0.268819988,0.0485872999,0.277343988
5203,0.268819988,0.0485872999,0.285156012
5204,0.268819988,0.0485872999,0.292968988
5205,0.268819988,0.0485872999,0.300781012
5206,0.268819988,0.0485872999,0.308593988
5207,0.268819988,0.0485872999,0.316406012
5208,0.268819988,0.0485872999,0.324218988
5209,0.268819988,0.0485872999,0.332031012
5210,0.268819988,0.0485872999,0.339843988
5211,0.268819988,0.0485872999,0.347656012
5212,0.268819988,0.0485872999,0.355468988
5213,0.268819988,0.0485872999,0.363281012
5214,0.268819988,0.0485872999,0.371093988
5215,0.268819988,0.0485872999,0.378906012
5216,0.268819988,0.0485872999,0.386718988
5217,0.268842995,0.0485895984,-0.39437899
5218,0.268842995,0.0485895984,0.39437899
5219,0.274670005,0.0464592986,-0.397403002
5220,0.27483201,0.0457727984,0.397403002
5221,0.274933994,0.0491776988,-0.397383988
5222,0.274933994,0.0491776988,0.397383988
5223,0.275105,0.0492123999,-0.394405007
5224,0.275105,0.0492123999,0.394405007
5225,0.275130987,0.0492148995,-0.390625
5226,0.275130987,0.0492148995,-0.386718988
5227,0.275130987,0.0492148995,-0.382811993
5228,0.275130987,0.0492148995,-0.378906012
5229,0.275130987,0.0492148995,-0.375
5230,0.275130987,0.0492148995,-0.371093988
5231,0.275130987,0.0492148995,-0.367188007
5232,0.275130987,0.0492148995,-0.363281012
5233,0.275130987,0.0492148995,-0.359375
5234,0.275130987,0.0492148995,-0.355468988
5235,0.275130987,0.0492148995,-0.351561993
5236,0.275130987,0.0492148995,-0.347656012
5237,0.275130987,0.0492148995,-0.34375
5238,0.275130987,0.0492148995,-0.339843988
5239,0.275130987,0.0492148995,-0.335938007
5240,0.275130987,0.0492148995,-0.332031012
5241,0.275130987,0.0492148995,-0.328125
5242,0.275130987,0.0492148995,-0.324218988
5243,0.275130987,0.0492148995,-0.320311993
5244,0.275130987,0.0492148995,-0.316406012
5245,0.275130987,0.0492148995,-0.3125
5246,0.275130987,0.0492148995,-0.308593988
5247,0.275130987,0.0492148995,-0.304688007
5248,0.275130987,0.0492148995,-0.300781012
5249,0.275130987,0.0492148995,-0.296875
5250,0.275130987,0.0492148995,-0.292968988
5251,0.275130987,0.0492148995,-0.289063007
5252,0.275130987,0.0492148995,-0.285156012
5253,0.275130987,0.0492148995,-0.28125
5254,0.275130987,0.0492148995,-0.277343988
5255,0.275130987,0.0492148995,-0.273438007
5256,0.275130987,0.0492148995,-0.269531012
5257,0.275130987,0.0492148995,-0.265625
5258,0.275130987,0.0492148995,-0.261718988
5259,0.275130987,0.0492148995,-0.257811993
5260,0.275130987,0.0492148995,-0.253906012
5261,0.275130987,0.0492148995,-0.25
5262,0.275130987,0.0492148995,-0.246094003
5263,0.275130987,0.0492148995,-0.242188007
5264,0.275130987,0.0492148995,-0.238280997
5265,0.275130987,0.0492148995,-0.234375
5266,0.275130987,0.0492148995,-0.230469003
5267,0.275130987,0.0492148995,-0.226563007
5268,0.275130987,0.0492148995,-0.222655997
5269,0.275130987,0.0492148995,-0.21875
5270,0.275130987,0.0492148995,-0.214844003
5271,0.275130987,0.0492148995,-0.210936993
5272,0.275130987,0.0492148995,-0.207030997
5273,0.275130987,0.0492148995,-0.203125
5274,0.275130987,0.0492148995,-0.199219003
5275,0.275130987,0.0492148995,-0.195311993
5276,0.275130987,0.0492148995,-0.191405997
5277,0.275130987,0.0492148995,-0.1875
5278,0.275130987,0.0492148995,-0.183594003
5279,0.275130987,0.0492148995,-0.179686993
5280,0.275130987,0.0492148995,-0.175780997
5281,0.275130987,0.0492148995,-0.171875
5282,0.275130987,0.0492148995,-0.167969003
5283,0.275130987,0.0492148995,-0.164063007
5284,0.275130987,0.0492148995,-0.160155997
5285,0.275130987,0.0492148995,-0.15625
5286,0.275130987,0.0492148995,-0.152344003
5287,0.275130987,0.0492148995,-0.148438007
5288,0.275130987,0.0492148995,-0.144530997
5289,0.275130987,0.0492148995,-0.140625
5290,0.275130987,0.0492148995,-0.136719003
5291,0.275130987,0.0492148995,-0.132813007
5292,0.275130987,0.0492148995,-0.128905997
5293,0.275130987,0.0492148995,-0.125
5294,0.275130987,0.0492148995,-0.121094003
5295,0.275130987,0.0492148995,-0.117187999
5296,0.275130987,0.0492148995,-0.113280997
5297,0.275130987,0.0492148995,-0.109375
5298,0.275130987,0.0492148995,-0.105469003
5299,0.275130987,0.0492148995,-0.101562999
5300,0.275130987,0.0492148995,-0.0976563022
5301,0.275130987,0.0492148995,-0.09375
5302,0.275130987,0.0492148995,-0.0898438022
5303,0.275130987,0.0492148995,-0.0859375
5304,0.275130987,0.0492148995,-0.0820313022
5305,0.275130987,0.0492148995,-0.078125
5306,0.275130987,0.0492148995,-0.0742188022
5307,0.275130987,0.0492148995,-0.0703125
5308,0.275130987,0.0492148995,-0.0664063022
5309,0.275130987,0.0492148995,-0.0625
5310,0.275130987,0.0492148995,-0.0585937984
5311,0.275130987,0.0492148995,-0.0546875
5312,0.275130987,0.0492148995,-0.0507812984
5313,0.275130987,0.0492148995,-0.046875
5314,0.275130987,0.0492148995,-0.0429687016
5315,0.275130987,0.0492148995,-0.0390625
5316,0.275130987,0.0492148995,-0.0351562016
5317,0.275130987,0.0492148995,-0.03125
5318,0.275130987,0.0492148995,-0.0273438003
5319,0.275130987,0.0492148995,-0.0234375
5320,0.275130987,0.0492148995,-0.0195311997
5321,0.275130987,0.0492148995,-0.015625
5322,0.275130987,0.0492148995,-0.0117188003
5323,0.275130987,0.0492148995,-0.0078125
5324,0.275130987,0.0492148995,-0.00390625
5325,0.275130987,0.0492148995,0
5326,0.275130987,0.0492148995,0.00390625
5327,0.275130987,0.0492148995,0.0078125
5328,0.275130987,0.0492148995,0.0117186997
5329,0.275130987,0.0492148995,0.015625
5330,0.275130987,0.0492148995,0.0195311997
5331,0.275130987,0.0492148995,0.0234375
5332,0.275130987,0.0492148995,0.0273436997
5333,0.275130987,0.0492148995,0.03125
5334,0.275130987,0.0492148995,0.0351562016
5335,0.275130987,0.0492148995,0.0390625
5336,0.275130987,0.0492148995,0.0429687016
5337,0.275130987,0.0492148995,0.046875
5338,0.275130987,0.0492148995,0.0507812016
5339,0.275130987,0.0492148995,0.0546875
5340,0.275130987,0.0492148995,0.0585937016
5341,0.275130987,0.0492148995,0.0625
5342,0.275130987,0.0492148995,0.0664063022
5343,0.275130987,0.0492148995,0.0703125
5344,0.275130987,0.0492148995,0.0742186978
5345,0.275130987,0.0492148995,0.078125
5346,0.275130987,0.0492148995,0.0820311978
5347,0.275130987,0.0492148995,0.0859375
5348,0.275130987,0.0492148995,0.0898438022
5349,0.275130987,0.0492148995,0.09375
5350,0.275130987,0.0492148995,0.0976561978
5351,0.275130987,0.0492148995,0.101562999
5352,0.275130987,0.0492148995,0.105469003
5353,0.275130987,0.0492148995,0.109375
5354,0.275130987,0.0492148995,0.113280997
5355,0.275130987,0.0492148995,0.117187001
5356,0.275130987,0.0492148995,0.121094003
5357,0.275130987,0.0492148995,0.125
5358,0.275130987,0.0492148995,0.128905997
5359,0.275130987,0.0492148995,0.132811993
5360,0.275130987,0.0492148995,0.136719003
5361,0.275130987,0.0492148995,0.140625
5362,0.275130987,0.0492148995,0.144530997
5363,0.275130987,0.0492148995,0.148438007
5364,0.275130987,0.0492148995,0.152344003
5365,0.275130987,0.0492148995,0.15625
5366,0.275130987,0.0492148995,0.160155997
5367,0.275130987,0.0492148995,0.164063007
5368,0.275130987,0.0492148995,0.167969003
5369,0.275130987,0.0492148995,0.171875
5370,0.275130987,0.0492148995,0.175780997
5371,0.275130987,0.0492148995,0.179688007
5372,0.275130987,0.0492148995,0.183594003
5373,0.275130987,0.0492148995,0.1875
5374,0.275130987,0.0492148995,0.191405997
5375,0.275130987,0.0492148995,0.195311993
5376,0.275130987,0.0492148995,0.199219003
5377,0.275130987,0.0492148995,0.203125
5378,0.275130987,0.0492148995,0.207030997
5379,0.275130987,0.0492148995,0.210938007
5380,0.275130987,0.0492148995,0.214844003
5381,0.275130987,0.0492148995,0.21875
5382,0.275130987,0.0492148995,0.222655997
5383,0.275130987,0.0492148995,0.226563007
5384,0.275130987,0.0492148995,0.230469003
5385,0.275130987,0.0492148995,0.234375
5386,0.275130987,0.0492148995,0.238280997
5387,0.275130987,0.0492148995,0.242186993
5388,0.275130987,0.0492148995,0.246094003
5389,0.275130987,0.0492148995,0.25
5390,0.275130987,0.0492148995,0.253906012
5391,0.275130987,0.0492148995,0.257811993
5392,0.275130987,0.0492148995,0.261718988
5393,0.275130987,0.0492148995,0.265625
5394,0.275130987,0.0492148995,0.269531012
5395,0.275130987,0.0492148995,0.273436993
5396,0.275130987,0.0492148995,0.277343988
5397,0.275130987,0.0492148995,0.28125
5398,0.275130987,0.0492148995,0.285156012
5399,0.275130987,0.0492148995,0.289061993
5400,0.275130987,0.0492148995,0.292968988
5401,0.275130987,0.0492148995,0.296875
5402,0.275130987,0.0492148995,0.300781012
5403,0.275130987,0.0492148995,0.304688007
5404,0.275130987,0.0492148995,0.308593988
5405,0.275130987,0.0492148995,0.3125
5406,0.275130987,0.0492148995,0.316406012
5407,0.275130987,0.0492148995,0.320311993
5408,0.275130987,0.0492148995,0.324218988
5409,0.275130987,0.0492148995,0.328125
5410,0.275130987,0.0492148995,0.332031012
5411,0.275130987,0.0492148995,0.335936993
5412,0.275130987,0.0492148995,0.339843988
5413,0.275130987,0.0492148995,0.34375
5414,0.275130987,0.0492148995,0.347656012
5415,0.275130987,0.0492148995,0.351563007
5416,0.275130987,0.0492148995,0.355468988
5417,0.275130987,0.0492148995,0.359375
5418,0.275130987,0.0492148995,0.363281012
5419,0.275130987,0.0492148995,0.367186993
5420,0.275130987,0.0492148995,0.371093988
5421,0.275130987,0.0492148995,0.375
5422,0.275130987,0.0492148995,0.378906012
5423,0.275130987,0.0492148995,0.382811993
5424,0.275130987,0.0492148995,0.386718988
5425,0.275130987,0.0492148995,0.390625
5426,0.275263011,0.0430557989,-0.390625
5427,0.275263011,0.0430557989,-0.386718988
5428,0.275263011,0.0430557989,-0.382811993
5429,0.275263011,0.0430557989,-0.378906012
5430,0.275263011,0.0430557989,-0.375
5431,0.275263011,0.0430557989,-0.371093988
5432,0.275263011,0.0430557989,-0.367188007
5433,0.275263011,0.0430557989,-0.363281012
5434,0.275263011,0.0430557989,-0.359375
5435,0.275263011,0.0430557989,-0.355468988
5436,0.275263011,0.0430557989,-0.351561993
5437,0.275263011,0.0430557989,-0.347656012
5438,0.275263011,0.0430557989,-0.34375
5439,0.275263011,0.0430557989,-0.339843988
5440,0.275263011,0.0430557989,-0.335938007
5441,0.275263011,0.0430557989,-0.332031012
5442,0.275263011,0.0430557989,-0.328125
5443,0.275263011,0.0430557989,-0.324218988
5444,0.275263011,0.0430557989,-0.320311993
5445,0.275263011,0.0430557989,-0.316406012
5446,0.275263011,0.0430557989,-0.3125
5447,0.275263011,0.0430557989,-0.308593988
5448,0.275263011,0.0430557989,-0.304688007
5449,0.275263011,0.0430557989,-0.300781012
5450,0.275263011,0.0430557989,-0.296875
5451,0.275263011,0.0430557989,-0.292968988
5452,0.275263011,0.0430557989,-0.289063007
5453,0.275263011,0.0430557989,-0.285156012
5454,0.275263011,0.0430557989,-0.28125
5455,0.275263011,0.0430557989,-0.277343988
5456,0.275263011,0.0430557989,-0.273436993
5457,0.275263011,0.0430557989,-0.269531012
5458,0.275263011,0.0430557989,-0.265625
5459,0.275263011,0.0430557989,-0.261718988
5460,0.275263011,0.0430557989,-0.257811993
5461,0.275263011,0.0430557989,-0.253906012
5462,0.275263011,0.0430557989,-0.25
5463,0.275263011,0.0430557989,-0.246094003
5464,0.275263011,0.0430557989,-0.242186993
5465,0.275263011,0.0430557989,-0.238280997
5466,0.275263011,0.0430557989,-0.234375
5467,0.275263011,0.0430557989,-0.230469003
5468,0.275263011,0.0430557989,-0.226561993
5469,0.275263011,0.0430557989,-0.222655997
5470,0.275263011,0.0430557989,-0.21875
5471,0.275263011,0.0430557989,-0.214844003
5472,0.275263011,0.0430557989,-0.210938007
5473,0.275263011,0.0430557989,-0.207030997
5474,0.275263011,0.0430557989,-0.203125
5475,0.275263011,0.0430557989,-0.199219003
5476,0.275263011,0.0430557989,-0.195311993
5477,0.275263011,0.0430557989,-0.191405997
5478,0.275263011,0.0430557989,-0.1875
5479,0.275263011,0.0430557989,-0.183594003
5480,0.275263011,0.0430557989,-0.179688007
5481,0.275263011,0.0430557989,-0.175780997
5482,0.275263011,0.0430557989,-0.171875
5483,0.275263011,0.0430557989,-0.167969003
5484,0.275263011,0.0430557989,-0.164061993
5485,0.275263011,0.0430557989,-0.160155997
5486,0.275263011,0.0430557989,-0.15625
5487,0.275263011,0.0430557989,-0.152344003
5488,0.275263011,0.0430557989,-0.148438007
5489,0.275263011,0.0430557989,-0.144530997
5490,0.275263011,0.0430557989,-0.140625
5491,0.275263011,0.0430557989,-0.136719003
5492,0.275263011,0.0430557989,-0.132813007
5493,0.275263011,0.0430557989,-0.128905997
5494,0.275263011,0.0430557989,-0.125
5495,0.275263011,0.0430557989,-0.121094003
5496,0.275263011,0.0430557989,-0.117187001
5497,0.275263011,0.0430557989,-0.113280997
5498,0.275263011,0.0430557989,-0.109375
5499,0.275263011,0.0430557989,-0.105469003
5500,0.275263011,0.0430557989,-0.101562999
5501,0.275263011,0.0430557989,-0.0976561978
5502,0.275263011,0.0430557989,-0.09375
5503,0.275263011,0.0430557989,-0.0898438022
5504,0.275263011,0.0430557989,-0.0859375
5505,0.275263011,0.0430557989,-0.0820313022
5506,0.275263011,0.0430557989,-0.078125
5507,0.275263011,0.0430557989,-0.0742188022
5508,0.275263011,0.0430557989,-0.0703125
5509,0.275263011,0.0430557989,-0.0664063022
5510,0.275263011,0.0430557989,-0.0625
5511,0.275263011,0.0430557989,-0.0585937984
5512,0.275263011,0.0430557989,-0.0546875
5513,0.275263011,0.0430557989,-0.0507812016
5514,0.275263011,0.0430557989,-0.046875
5515,0.275263011,0.0430557989,-0.0429687984
5516,0.275263011,0.0430557989,-0.0390625
5517,0.275263011,0.0430557989,-0.0351562984
5518,0.275263011,0.0430557989,-0.03125
5519,0.275263011,0.0430557989,-0.0273438003
5520,0.275263011,0.0430557989,-0.0234375
5521,0.275263011,0.0430557989,-0.0195311997
5522,0.275263011,0.0430557989,-0.015625
5523,0.275263011,0.0430557989,-0.0117186997
5524,0.275263011,0.0430557989,-0.0078125
5525,0.275263011,0.0430557989,-0.00390625
5526,0.275263011,0.0430557989,-0
5527,0.275263011,0.0430557989,0.00390625
5528,0.275263011,0.0430557989,0.0078125
5529,0.275263011,0.0430557989,0.0117188003
5530,0.275263011,0.0430557989,0.015625
5531,0.275263011,0.0430557989,0.0195311997
5532,0.275263011,0.0430557989,0.0234375
5533,0.275263011,0.0430557989,0.0273438003
5534,0.275263011,0.0430557989,0.03125
5535,0.275263011,0.0430557989,0.0351562984
5536,0.275263011,0.0430557989,0.0390625
5537,0.275263011,0.0430557989,0.0429687984
5538,0.275263011,0.0430557989,0.046875
5539,0.275263011,0.0430557989,0.0507812984
5540,0.275263011,0.0430557989,0.0546875
5541,0.275263011,0.0430557989,0.0585937016
5542,0.275263011,0.0430557989,0.0625
5543,0.275263011,0.0430557989,0.0664061978
5544,0.275263011,0.0430557989,0.0703125
5545,0.275263011,0.0430557989,0.0742186978
5546,0.275263011,0.0430557989,0.078125
5547,0.275263011,0.0430557989,0.0820311978
5548,0.275263011,0.0430557989,0.0859375
5549,0.275263011,0.0430557989,0.0898436978
5550,0.275263011,0.0430557989,0.09375
5551,0.275263011,0.0430557989,0.0976563022
5552,0.275263011,0.0430557989,0.101562999
5553,0.275263011,0.0430557989,0.105469003
5554,0.275263011,0.0430557989,0.109375
5555,0.275263011,0.0430557989,0.113280997
5556,0.275263011,0.0430557989,0.117187001
5557,0.275263011,0.0430557989,0.121094003
5558,0.275263011,0.0430557989,0.125
5559,0.275263011,0.0430557989,0.128905997
5560,0.275263011,0.0430557989,0.132813007
5561,0.275263011,0.0430557989,0.136719003
5562,0.275263011,0.0430557989,0.140625
5563,0.275263011,0.0430557989,0.144530997
5564,0.275263011,0.0430557989,0.148438007
5565,0.275263011,0.0430557989,0.152344003
5566,0.275263011,0.0430557989,0.15625
5567,0.275263011,0.0430557989,0.160155997
5568,0.275263011,0.0430557989,0.164063007
5569,0.275263011,0.0430557989,0.167969003
5570,0.275263011,0.0430557989,0.171875
5571,0.275263011,0.0430557989,0.175780997
5572,0.275263011,0.0430557989,0.179686993
5573,0.275263011,0.0430557989,0.183594003
5574,0.275263011,0.0430557989,0.1875
5575,0.275263011,0.0430557989,0.191405997
5576,0.275263011,0.0430557989,0.195313007
5577,0.275263011,0.0430557989,0.199219003
5578,0.275263011,0.0430557989,0.203125
5579,0.275263011,0.0430557989,0.207030997
5580,0.275263011,0.0430557989,0.210936993
5581,0.275263011,0.0430557989,0.214844003
5582,0.275263011,0.0430557989,0.21875
5583,0.275263011,0.0430557989,0.222655997
5584,0.275263011,0.0430557989,0.226563007
5585,0.275263011,0.0430557989,0.230469003
5586,0.275263011,0.0430557989,0.234375
5587,0.275263011,0.0430557989,0.238280997
5588,0.275263011,0.0430557989,0.242188007
5589,0.275263011,0.0430557989,0.246094003
5590,0.275263011,0.0430557989,0.25
5591,0.275263011,0.0430557989,0.253906012
5592,0.275263011,0.0430557989,0.257813007
5593,0.275263011,0.0430557989,0.261718988
5594,0.275263011,0.0430557989,0.265625
5595,0.275263011,0.0430557989,0.269531012
5596,0.275263011,0.0430557989,0.273436993
5597,0.275263011,0.0430557989,0.277343988
5598,0.275263011,0.0430557989,0.28125
5599,0.275263011,0.0430557989,0.285156012
5600,0.275263011,0.0430557989,0.289063007
5601,0.275263011,0.0430557989,0.292968988
5602,0.275263011,0.0430557989,0.296875
5603,0.275263011,0.0430557989,0.300781012
5604,0.275263011,0.0430557989,0.304686993
5605,0.275263011,0.0430557989,0.308593988
5606,0.275263011,0.0430557989,0.3125
5607,0.275263011,0.0430557989,0.316406012
5608,0.275263011,0.0430557989,0.320311993
5609,0.275263011,0.0430557989,0.324218988
5610,0.275263011,0.0430557989,0.328125
5611,0.275263011,0.0430557989,0.332031012
5612,0.275263011,0.0430557989,0.335936993
5613,0.275263011,0.0430557989,0.339843988
5614,0.275263011,0.0430557989,0.34375
5615,0.275263011,0.0430557989,0.347656012
5616,0.275263011,0.0430557989,0.351563007
5617,0.275263011,0.0430557989,0.355468988
5618,0.275263011,0.0430557989,0.359375
5619,0.275263011,0.0430557989,0.363281012
5620,0.275263011,0.0430557989,0.367188007
5621,0.275263011,0.0430557989,0.371093988
5622,0.275263011,0.0430557989,0.375
5623,0.275263011,0.0430557989,0.378906012
5624,0.275263011,0.0430557989,0.382811993
5625,0.275263011,0.0430557989,0.386718988
5626,0.275263011,0.0430557989,0.390625
5627,0.275265008,0.0431067012,-0.394423008
5628,0.275265008,0.0431067012,0.394423008
5629,0.28047201,0.0449981987,-0.390625
5630,0.28047201,0.0449981987,-0.386718988
5631,0.28047201,0.0449981987,-0.382811993
5632,0.28047201,0.0449981987,-0.378906012
5633,0.28047201,0.0449981987,-0.375
5634,0.28047201,0.0449981987,-0.371093988
5635,0.28047201,0.0449981987,-0.367188007
5636,0.28047201,0.0449981987,-0.363281012
5637,0.28047201,0.0449981987,-0.359375
5638,0.28047201,0.0449981987,-0.355468988
5639,0.28047201,0.0449981987,-0.351561993
5640,0.28047201,0.0449981987,-0.347656012
5641,0.28047201,0.0449981987,-0.34375
5642,0.28047201,0.0449981987,-0.339843988
5643,0.28047201,0.0449981987,-0.335938007
5644,0.28047201,0.0449981987,-0.332031012
5645,0.28047201,0.0449981987,-0.328125
5646,0.28047201,0.0449981987,-0.324218988
5647,0.28047201,0.0449981987,-0.320311993
5648,0.28047201,0.0449981987,-0.316406012
5649,0.28047201,0.0449981987,-0.3125
5650,0.28047201,0.0449981987,-0.308593988
5651,0.28047201,0.0449981987,-0.304688007
5652,0.28047201,0.0449981987,-0.300781012
5653,0.28047201,0.0449981987,-0.296875
5654,0.28047201,0.0449981987,-0.292968988
5655,0.28047201,0.0449981987,-0.289061993
5656,0.28047201,0.0449981987,-0.285156012
5657,0.28047201,0.0449981987,-0.28125
5658,0.28047201,0.0449981987,-0.277343988
5659,0.28047201,0.0449981987,-0.273438007
5660,0.28047201,0.0449981987,-0.269531012
5661,0.28047201,0.0449981987,-0.265625
5662,0.28047201,0.0449981987,-0.261718988
5663,0.28047201,0.0449981987,-0.257811993
5664,0.28047201,0.0449981987,-0.253906012
5665,0.28047201,0.0449981987,-0.25
5666,0.28047201,0.0449981987,-0.246094003
5667,0.28047201,0.0449981987,-0.242188007
5668,0.28047201,0.0449981987,-0.238280997
5669,0.28047201,0.0449981987,-0.234375
5670,0.28047201,0.0449981987,-0.230469003
5671,0.28047201,0.0449981987,-0.226561993
5672,0.28047201,0.0449981987,-0.222655997
5673,0.28047201,0.0449981987,-0.21875
5674,0.28047201,0.0449981987,-0.214844003
5675,0.28047201,0.0449981987,-0.210936993
5676,0.28047201,0.0449981987,-0.207030997
5677,0.28047201,0.0449981987,-0.203125
5678,0.28047201,0.0449981987,-0.199219003
5679,0.28047201,0.0449981987,-0.195311993
5680,0.28047201,0.0449981987,-0.191405997
5681,0.28047201,0.0449981987,-0.1875
5682,0.28047201,0.0449981987,-0.183594003
5683,0.28047201,0.0449981987,-0.179688007
5684,0.28047201,0.0449981987,-0.175780997
5685,0.28047201,0.0449981987,-0.171875
5686,0.28047201,0.0449981987,-0.167969003
5687,0.28047201,0.0449981987,-0.164061993
5688,0.28047201,0.0449981987,-0.160155997
5689,0.28047201,0.0449981987,-0.15625
5690,0.28047201,0.0449981987,-0.152344003
5691,0.28047201,0.0449981987,-0.148438007
5692,0.28047201,0.0449981987,-0.144530997
5693,0.28047201,0.0449981987,-0.140625
5694,0.28047201,0.0449981987,-0.136719003
5695,0.28047201,0.0449981987,-0.132813007
5696,0.28047201,0.0449981987,-0.128905997
5697,0.28047201,0.0449981987,-0.125
5698,0.28047201,0.0449981987,-0.121094003
5699,0.28047201,0.0449981987,-0.117187999
5700,0.28047201,0.0449981987,-0.113280997
5701,0.28047201,0.0449981987,-0.109375
5702,0.28047201,0.0449981987,-0.105469003
5703,0.28047201,0.0449981987,-0.101562001
5704,0.28047201,0.0449981987,-0.0976561978
5705,0.28047201,0.0449981987,-0.09375
5706,0.28047201,0.0449981987,-0.0898438022
5707,0.28047201,0.0449981987,-0.0859375
5708,0.28047201,0.0449981987,-0.0820311978
5709,0.28047201,0.0449981987,-0.078125
5710,0.28047201,0.0449981987,-0.0742186978
5711,0.28047201,0.0449981987,-0.0703125
5712,0.28047201,0.0449981987,-0.0664063022
5713,0.28047201,0.0449981987,-0.0625
5714,0.28047201,0.0449981987,-0.0585937984
5715,0.28047201,0.0449981987,-0.0546875
5716,0.28047201,0.0449981987,-0.0507812984
5717,0.28047201,0.0449981987,-0.046875
5718,0.28047201,0.0449981987,-0.0429687984
5719,0.28047201,0.0449981987,-0.0390625
5720,0.28047201,0.0449981987,-0.0351562016
5721,0.28047201,0.0449981987,-0.03125
5722,0.28047201,0.0449981987,-0.0273436997
5723,0.28047201,0.0449981987,-0.0234375
5724,0.28047201,0.0449981987,-0.0195311997
5725,0.28047201,0.0449981987,-0.015625
5726,0.28047201,0.0449981987,-0.0117188003
5727,0.28047201,0.0449981987,-0.0078125
5728,0.28047201,0.0449981987,-0.00390625
5729,0.28047201,0.0449981987,0
5730,0.28047201,0.0449981987,0.00390625
5731,0.28047201,0.0449981987,0.0078125
5732,0.28047201,0.0449981987,0.0117186997
5733,0.28047201,0.0449981987,0.015625
5734,0.28047201,0.0449981987,0.0195311997
5735,0.28047201,0.0449981987,0.0234375
5736,0.28047201,0.0449981987,0.0273436997
5737,0.28047201,0.0449981987,0.03125
5738,0.28047201,0.0449981987,0.0351562016
5739,0.28047201,0.0449981987,0.0390625
5740,0.28047201,0.0449981987,0.0429687016
5741,0.28047201,0.0449981987,0.046875
5742,0.28047201,0.0449981987,0.0507812016
5743,0.28047201,0.0449981987,0.0546875
5744,0.28047201,0.0449981987,0.0585937016
5745,0.28047201,0.0449981987,0.0625
5746,0.28047201,0.0449981987,0.0664063022
5747,0.28047201,0.0449981987,0.0703125
5748,0.28047201,0.0449981987,0.0742186978
5749,0.28047201,0.0449981987,0.078125
5750,0.28047201,0.0449981987,0.0820311978
5751,0.28047201,0.0449981987,0.0859375
5752,0.28047201,0.0449981987,0.0898436978
5753,0.28047201,0.0449981987,0.09375
5754,0.28047201,0.0449981987,0.0976561978
5755,0.28047201,0.0449981987,0.101562001
5756,0.28047201,0.0449981987,0.105469003
5757,0.28047201,0.0449981987,0.109375
5758,0.28047201,0.0449981987,0.113280997
5759,0.28047201,0.0449981987,0.117187001
5760,0.28047201,0.0449981987,0.121094003
5761,0.28047201,0.0449981987,0.125
5762,0.28047201,0.0449981987,0.128905997
5763,0.28047201,0.0449981987,0.132811993
5764,0.28047201,0.0449981987,0.136719003
5765,0.28047201,0.0449981987,0.140625
5766,0.28047201,0.0449981987,0.144530997
5767,0.28047201,0.0449981987,0.148436993
5768,0.28047201,0.0449981987,0.152344003
5769,0.28047201,0.0449981987,0.15625
5770,0.28047201,0.0449981987,0.160155997
5771,0.28047201,0.0449981987,0.164063007
5772,0.28047201,0.0449981987,0.167969003
5773,0.28047201,0.0449981987,0.171875
5774,0.28047201,0.0449981987,0.175780997
5775,0.28047201,0.0449981987,0.179686993
5776,0.28047201,0.0449981987,0.183594003
5777,0.28047201,0.0449981987,0.1875
5778,0.28047201,0.0449981987,0.191405997
5779,0.28047201,0.0449981987,0.195313007
5780,0.28047201,0.0449981987,0.199219003
5781,0.28047201,0.0449981987,0.203125
5782,0.28047201,0.0449981987,0.207030997
5783,0.28047201,0.0449981987,0.210936993
5784,0.28047201,0.0449981987,0.214844003
5785,0.28047201,0.0449981987,0.21875
5786,0.28047201,0.0449981987,0.222655997
5787,0.28047201,0.0449981987,0.226561993
5788,0.28047201,0.0449981987,0.230469003
5789,0.28047201,0.0449981987,0.234375
5790,0.28047201,0.0449981987,0.238280997
5791,0.28047201,0.0449981987,0.242186993
5792,0.28047201,0.0449981987,0.246094003
5793,0.28047201,0.0449981987,0.25
5794,0.28047201,0.0449981987,0.253906012
5795,0.28047201,0.0449981987,0.257813007
5796,0.28047201,0.0449981987,0.261718988
5797,0.28047201,0.0449981987,0.265625
5798,0.28047201,0.0449981987,0.269531012
5799,0.28047201,0.0449981987,0.273436993
5800,0.28047201,0.0449981987,0.277343988
5801,0.28047201,0.0449981987,0.28125
5802,0.28047201,0.0449981987,0.285156012
5803,0.28047201,0.0449981987,0.289061993
5804,0.28047201,0.0449981987,0.292968988
5805,0.28047201,0.0449981987,0.296875
5806,0.28047201,0.0449981987,0.300781012
5807,0.28047201,0.0449981987,0.304686993
5808,0.28047201,0.0449981987,0.308593988
5809,0.28047201,0.0449981987,0.3125
5810,0.28047201,0.0449981987,0.316406012
5811,0.28047201,0.0449981987,0.320311993
5812,0.28047201,0.0449981987,0.324218988
5813,0.28047201,0.0449981987,0.328125
5814,0.28047201,0.0449981987,0.332031012
5815,0.28047201,0.0449981987,0.335938007
5816,0.28047201,0.0449981987,0.339843988
5817,0.28047201,0.0449981987,0.34375
5818,0.28047201,0.0449981987,0.347656012
5819,0.28047201,0.0449981987,0.351561993
5820,0.28047201,0.0449981987,0.355468988
5821,0.28047201,0.0449981987,0.359375
5822,0.28047201,0.0449981987,0.363281012
5823,0.28047201,0.0449981987,0.367186993
5824,0.28047201,0.0449981987,0.371093988
5825,0.28047201,0.0449981987,0.375
5826,0.28047201,0.0449981987,0.378906012
5827,0.28047201,0.0449981987,0.382811993
5828,0.28047201,0.0449981987,0.386718988
5829,0.28047201,0.0449981987,0.390625
5830,0.280519992,0.0450160988,-0.394392014
5831,0.280519992,0.0450160988,0.394392014
5832,0.280957997,0.0451807007,-0.397354007
5833,0.280957997,0.0451807007,0.397354007
5834,0.280957997,0.0497629009,0.397314996
5835,0.281222999,0.0479810983,-0.397320986
5836,0.281269014,0.0498065017,-0.394327015
5837,0.281269014,0.0498065017,0.394327015
5838,0.281358987,0.0498150997,-0.386718988
5839,0.281358987,0.0498150997,-0.382811993
5840,0.281358987,0.0498150997,-0.378906012
5841,0.281358987,0.0498150997,-0.375
5842,0.281358987,0.0498150997,-0.371093988
5843,0.281358987,0.0498150997,-0.367188007
5844,0.281358987,0.0498150997,-0.363281012
5845,0.281358987,0.0498150997,-0.359375
5846,0.281358987,0.0498150997,-0.355468988
5847,0.281358987,0.0498150997,-0.351561993
5848,0.281358987,0.0498150997,-0.347656012
5849,0.281358987,0.0498150997,-0.34375
5850,0.281358987,0.0498150997,-0.339843988
5851,0.281358987,0.0498150997,-0.335938007
5852,0.281358987,0.0498150997,-0.332031012
5853,0.281358987,0.0498150997,-0.328125
5854,0.281358987,0.0498150997,-0.324218988
5855,0.281358987,0.0498150997,-0.320311993
5856,0.281358987,0.0498150997,-0.316406012
5857,0.281358987,0.0498150997,-0.3125
5858,0.281358987,0.0498150997,-0.308593988
5859,0.281358987,0.0498150997,-0.304686993
5860,0.281358987,0.0498150997,-0.300781012
5861,0.281358987,0.0498150997,-0.296875
5862,0.281358987,0.0498150997,-0.292968988
5863,0.281358987,0.0498150997,-0.289061993
5864,0.281358987,0.0498150997,-0.285156012
5865,0.281358987,0.0498150997,-0.28125
5866,0.281358987,0.0498150997,-0.277343988
5867,0.281358987,0.0498150997,-0.273436993
5868,0.281358987,0.0498150997,-0.269531012
5869,0.281358987,0.0498150997,-0.265625
5870,0.281358987,0.0498150997,-0.261718988
5871,0.281358987,0.0498150997,-0.257811993
5872,0.281358987,0.0498150997,-0.253906012
5873,0.281358987,0.0498150997,-0.25
5874,0.281358987,0.0498150997,-0.246094003
5875,0.281358987,0.0498150997,-0.242188007
5876,0.281358987,0.0498150997,-0.238280997
5877,0.281358987,0.0498150997,-0.234375
5878,0.281358987,0.0498150997,-0.230469003
5879,0.281358987,0.0498150997,-0.226563007
5880,0.281358987,0.0498150997,-0.222655997
5881,0.281358987,0.0498150997,-0.21875
5882,0.281358987,0.0498150997,-0.214844003
5883,0.281358987,0.0498150997,-0.210936993
5884,0.281358987,0.0498150997,-0.207030997
5885,0.281358987,0.0498150997,-0.203125
5886,0.281358987,0.0498150997,-0.199219003
5887,0.281358987,0.0498150997,-0.195313007
5888,0.281358987,0.0498150997,-0.191405997
5889,0.281358987,0.0498150997,-0.1875
5890,0.281358987,0.0498150997,-0.183594003
5891,0.281358987,0.0498150997,-0.179688007
5892,0.281358987,0.0498150997,-0.175780997
5893,0.281358987,0.0498150997,-0.171875
5894,0.281358987,0.0498150997,-0.167969003
5895,0.281358987,0.0498150997,-0.164061993
5896,0.281358987,0.0498150997,-0.160155997
5897,0.281358987,0.0498150997,-0.15625
5898,0.281358987,0.0498150997,-0.152344003
5899,0.281358987,0.0498150997,-0.148438007
5900,0.281358987,0.0498150997,-0.144530997
5901,0.281358987,0.0498150997,-0.140625
5902,0.281358987,0.0498150997,-0.136719003
5903,0.281358987,0.0498150997,-0.132813007
5904,0.281358987,0.0498150997,-0.128905997
5905,0.281358987,0.0498150997,-0.125
5906,0.281358987,0.0498150997,-0.121094003
5907,0.281358987,0.0498150997,-0.117187999
5908,0.281358987,0.0498150997,-0.113280997
5909,0.281358987,0.0498150997,-0.109375
5910,0.281358987,0.0498150997,-0.105469003
5911,0.281358987,0.0498150997,-0.101562001
5912,0.281358987,0.0498150997,-0.0976561978
5913,0.281358987,0.0498150997,-0.09375
5914,0.281358987,0.0498150997,-0.0898438022
5915,0.281358987,0.0498150997,-0.0859375
5916,0.281358987,0.0498150997,-0.0820311978
5917,0.281358987,0.0498150997,-0.078125
5918,0.281358987,0.0498150997,-0.0742186978
5919,0.281358987,0.0498150997,-0.0703125
5920,0.281358987,0.0498150997,-0.0664063022
5921,0.281358987,0.0498150997,-0.0625
5922,0.281358987,0.0498150997,-0.0585937016
5923,0.281358987,0.0498150997,-0.0546875
5924,0.281358987,0.0498150997,-0.0507812016
5925,0.281358987,0.0498150997,-0.046875
5926,0.281358987,0.0498150997,-0.0429687984
5927,0.281358987,0.0498150997,-0.0390625
5928,0.281358987,0.0498150997,-0.0351562016
5929,0.281358987,0.0498150997,-0.03125
5930,0.281358987,0.0498150997,-0.0273438003
5931,0.281358987,0.0498150997,-0.0234375
5932,0.281358987,0.0498150997,-0.0195313003
5933,0.281358987,0.0498150997,-0.015625
5934,0.281358987,0.0498150997,-0.0117188003
5935,0.281358987,0.0498150997,-0.0078125
5936,0.281358987,0.0498150997,-0.00390625
5937,0.281358987,0.0498150997,0
5938,0.281358987,0.0498150997,0.00390625
5939,0.281358987,0.0498150997,0.0078125
5940,0.281358987,0.0498150997,0.0117188003
5941,0.281358987,0.0498150997,0.015625
5942,0.281358987,0.0498150997,0.0195311997
5943,0.281358987,0.0498150997,0.0234375
5944,0.281358987,0.0498150997,0.0273438003
5945,0.281358987,0.0498150997,0.03125
5946,0.281358987,0.0498150997,0.0351562016
5947,0.281358987,0.0498150997,0.0390625
5948,0.281358987,0.0498150997,0.0429687016
5949,0.281358987,0.0498150997,0.046875
5950,0.281358987,0.0498150997,0.0507812984
5951,0.281358987,0.0498150997,0.0546875
5952,0.281358987,0.0498150997,0.0585937016
5953,0.281358987,0.0498150997,0.0625
5954,0.281358987,0.0498150997,0.0664061978
5955,0.281358987,0.0498150997,0.0703125
5956,0.281358987,0.0498150997,0.0742186978
5957,0.281358987,0.0498150997,0.078125
5958,0.281358987,0.0498150997,0.0820311978
5959,0.281358987,0.0498150997,0.0859375
5960,0.281358987,0.0498150997,0.0898436978
5961,0.281358987,0.0498150997,0.09375
5962,0.281358987,0.0498150997,0.0976563022
5963,0.281358987,0.0498150997,0.101562999
5964,0.281358987,0.0498150997,0.105469003
5965,0.281358987,0.0498150997,0.109375
5966,0.281358987,0.0498150997,0.113280997
5967,0.281358987,0.0498150997,0.117187999
5968,0.281358987,0.0498150997,0.121094003
5969,0.281358987,0.0498150997,0.125
5970,0.281358987,0.0498150997,0.128905997
5971,0.281358987,0.0498150997,0.132813007
5972,0.281358987,0.0498150997,0.136719003
5973,0.281358987,0.0498150997,0.140625
5974,0.281358987,0.0498150997,0.144530997
5975,0.281358987,0.0498150997,0.148436993
5976,0.281358987,0.0498150997,0.152344003
5977,0.281358987,0.0498150997,0.15625
5978,0.281358987,0.0498150997,0.160155997
5979,0.281358987,0.0498150997,0.164061993
5980,0.281358987,0.0498150997,0.167969003
5981,0.281358987,0.0498150997,0.171875
5982,0.281358987,0.0498150997,0.175780997
5983,0.281358987,0.0498150997,0.179688007
5984,0.281358987,0.0498150997,0.183594003
5985,0.281358987,0.0498150997,0.1875
5986,0.281358987,0.0498150997,0.191405997
5987,0.281358987,0.0498150997,0.195313007
5988,0.281358987,0.0498150997,0.199219003
5989,0.281358987,0.0498150997,0.203125
5990,0.281358987,0.0498150997,0.207030997
5991,0.281358987,0.0498150997,0.210938007
5992,0.281358987,0.0498150997,0.214844003
5993,0.281358987,0.0498150997,0.21875
5994,0.281358987,0.0498150997,0.222655997
5995,0.281358987,0.0498150997,0.226563007
5996,0.281358987,0.0498150997,0.230469003
5997,0.281358987,0.0498150997,0.234375
5998,0.281358987,0.0498150997,0.238280997
5999,0.281358987,0.0498150997,0.242188007
6000,0.281358987,0.0498150997,0.246094003
6001,0.281358987,0.0498150997,0.25
6002,0.281358987,0.0498150997,0.253906012
6003,0.281358987,0.0498150997,0.257811993
6004,0.281358987,0.0498150997,0.261718988
6005,0.281358987,0.0498150997,0.265625
6006,0.281358987,0.0498150997,0.269531012
6007,0.281358987,0.0498150997,0.273438007
6008,0.281358987,0.0498150997,0.277343988
6009,0.281358987,0.0498150997,0.28125
6010,0.281358987,0.0498150997,0.285156012
6011,0.281358987,0.0498150997,0.289061993
6012,0.281358987,0.0498150997,0.292968988
6013,0.281358987,0.0498150997,0.296875
6014,0.281358987,0.0498150997,0.300781012
6015,0.281358987,0.0498150997,0.304686993
6016,0.281358987,0.0498150997,0.308593988
6017,0.281358987,0.0498150997,0.3125
6018,0.281358987,0.0498150997,0.316406012
6019,0.281358987,0.0498150997,0.320311993
6020,0.281358987,0.0498150997,0.324218988
6021,0.281358987,0.0498150997,0.328125
6022,0.281358987,0.0498150997,0.332031012
6023,0.281358987,0.0498150997,0.335936993
6024,0.281358987,0.0498150997,0.339843988
6025,0.281358987,0.0498150997,0.34375
6026,0.281358987,0.0498150997,0.347656012
6027,0.281358987,0.0498150997,0.351561993
6028,0.281358987,0.0498150997,0.355468988
6029,0.281358987,0.0498150997,0.359375
6030,0.281358987,0.0498150997,0.363281012
6031,0.281358987,0.0498150997,0.367188007
6032,0.281358987,0.0498150997,0.371093988
6033,0.281358987,0.0498150997,0.375
6034,0.281358987,0.0498150997,0.378906012
6035,0.281358987,0.0498150997,0.382813007
6036,0.281358987,0.0498150997,0.386718988
6037,0.281367987,0.0498159006,-0.390597999
6038,0.281367987,0.0498159006,0.390597999
6039,0.285070986,0.0467275009,-0.397147
6040,0.285070986,0.0467275009,0.397147
6041,0.285374999,0.0468424,-0.394318998
6042,0.285374999,0.0468424,0.394318998
6043,0.285560995,0.0489883013,-0.397080004
6044,0.285584003,0.046921201,-0.390603989
6045,0.285584003,0.046921201,0.390603989
6046,0.285650015,0.0469463989,-0.386718988
6047,0.285650015,0.0469463989,-0.382813007
6048,0.285650015,0.0469463989,-0.378906012
6049,0.285650015,0.0469463989,-0.375
6050,0.285650015,0.0469463989,-0.371093988
6051,0.285650015,0.0469463989,-0.367188007
6052,0.285650015,0.0469463989,-0.363281012
6053,0.285650015,0.0469463989,-0.359375
6054,0.285650015,0.0469463989,-0.355468988
6055,0.285650015,0.0469463989,-0.351561993
6056,0.285650015,0.0469463989,-0.347656012
6057,0.285650015,0.0469463989,-0.34375
6058,0.285650015,0.0469463989,-0.339843988
6059,0.285650015,0.0469463989,-0.335938007
6060,0.285650015,0.0469463989,-0.332031012
6061,0.285650015,0.0469463989,-0.328125
6062,0.285650015,0.0469463989,-0.324218988
6063,0.285650015,0.0469463989,-0.320311993
6064,0.285650015,0.0469463989,-0.316406012
6065,0.285650015,0.0469463989,-0.3125
6066,0.285650015,0.0469463989,-0.308593988
6067,0.285650015,0.0469463989,-0.304688007
6068,0.285650015,0.0469463989,-0.300781012
6069,0.285650015,0.0469463989,-0.296875
6070,0.285650015,0.0469463989,-0.292968988
6071,0.285650015,0.0469463989,-0.289061993
6072,0.285650015,0.0469463989,-0.285156012
6073,0.285650015,0.0469463989,-0.28125
6074,0.285650015,0.0469463989,-0.277343988
6075,0.285650015,0.0469463989,-0.273438007
6076,0.285650015,0.0469463989,-0.269531012
6077,0.285650015,0.0469463989,-0.265625
6078,0.285650015,0.0469463989,-0.261718988
6079,0.285650015,0.0469463989,-0.257811993
6080,0.285650015,0.0469463989,-0.253906012
6081,0.285650015,0.0469463989,-0.25
6082,0.285650015,0.0469463989,-0.246094003
6083,0.285650015,0.0469463989,-0.242188007
6084,0.285650015,0.0469463989,-0.238280997
6085,0.285650015,0.0469463989,-0.234375
6086,0.285650015,0.0469463989,-0.230469003
6087,0.285650015,0.0469463989,-0.226563007
6088,0.285650015,0.0469463989,-0.222655997
6089,0.285650015,0.0469463989,-0.21875
6090,0.285650015,0.0469463989,-0.214844003
6091,0.285650015,0.0469463989,-0.210938007
6092,0.285650015,0.0469463989,-0.207030997
6093,0.285650015,0.0469463989,-0.203125
6094,0.285650015,0.0469463989,-0.199219003
6095,0.285650015,0.0469463989,-0.195311993
6096,0.285650015,0.0469463989,-0.191405997
6097,0.285650015,0.0469463989,-0.1875
6098,0.285650015,0.0469463989,-0.183594003
6099,0.285650015,0.0469463989,-0.179688007
6100,0.285650015,0.0469463989,-0.175780997
6101,0.285650015,0.0469463989,-0.171875
6102,0.285650015,0.0469463989,-0.167969003
6103,0.285650015,0.0469463989,-0.164061993
6104,0.285650015,0.0469463989,-0.160155997
6105,0.285650015,0.0469463989,-0.15625
6106,0.285650015,0.0469463989,-0.152344003
6107,0.285650015,0.0469463989,-0.148438007
6108,0.285650015,0.0469463989,-0.144530997
6109,0.285650015,0.0469463989,-0.140625
6110,0.285650015,0.0469463989,-0.136719003
6111,0.285650015,0.0469463989,-0.132813007
6112,0.285650015,0.0469463989,-0.128905997
6113,0.285650015,0.0469463989,-0.125
6114,0.285650015,0.0469463989,-0.121094003
6115,0.285650015,0.0469463989,-0.117187001
6116,0.285650015,0.0469463989,-0.113280997
6117,0.285650015,0.0469463989,-0.109375
6118,0.285650015,0.0469463989,-0.105469003
6119,0.285650015,0.0469463989,-0.101562001
6120,0.285650015,0.0469463989,-0.0976561978
6121,0.285650015,0.0469463989,-0.09375
6122,0.285650015,0.0469463989,-0.0898438022
6123,0.285650015,0.0469463989,-0.0859375
6124,0.285650015,0.0469463989,-0.0820313022
6125,0.285650015,0.0469463989,-0.078125
6126,0.285650015,0.0469463989,-0.0742188022
6127,0.285650015,0.0469463989,-0.0703125
6128,0.285650015,0.0469463989,-0.0664061978
6129,0.285650015,0.0469463989,-0.0625
6130,0.285650015,0.0469463989,-0.0585937016
6131,0.285650015,0.0469463989,-0.0546875
6132,0.285650015,0.0469463989,-0.0507812984
6133,0.285650015,0.0469463989,-0.046875
6134,0.285650015,0.0469463989,-0.0429687984
6135,0.285650015,0.0469463989,-0.0390625
6136,0.285650015,0.0469463989,-0.0351562984
6137,0.285650015,0.0469463989,-0.03125
6138,0.285650015,0.0469463989,-0.0273436997
6139,0.285650015,0.0469463989,-0.0234375
6140,0.285650015,0.0469463989,-0.0195311997
6141,0.285650015,0.0469463989,-0.015625
6142,0.285650015,0.0469463989,-0.0117186997
6143,0.285650015,0.0469463989,-0.0078125
6144,0.285650015,0.0469463989,-0.00390625
6145,0.285650015,0.0469463989,0
6146,0.285650015,0.0469463989,0.00390625
6147,0.285650015,0.0469463989,0.0078125
6148,0.285650015,0.0469463989,0.0117186997
6149,0.285650015,0.0469463989,0.015625
6150,0.285650015,0.0469463989,0.0195311997
6151,0.285650015,0.0469463989,0.0234375
6152,0.285650015,0.0469463989,0.0273436997
6153,0.285650015,0.0469463989,0.03125
6154,0.285650015,0.0469463989,0.0351562016
6155,0.285650015,0.0469463989,0.0390625
6156,0.285650015,0.0469463989,0.0429687016
6157,0.285650015,0.0469463989,0.046875
6158,0.285650015,0.0469463989,0.0507812016
6159,0.285650015,0.0469463989,0.0546875
6160,0.285650015,0.0469463989,0.0585937016
6161,0.285650015,0.0469463989,0.0625
6162,0.285650015,0.0469463989,0.0664061978
6163,0.285650015,0.0469463989,0.0703125
6164,0.285650015,0.0469463989,0.0742186978
6165,0.285650015,0.0469463989,0.078125
6166,0.285650015,0.0469463989,0.0820311978
6167,0.285650015,0.0469463989,0.0859375
6168,0.285650015,0.0469463989,0.0898436978
6169,0.285650015,0.0469463989,0.09375
6170,0.285650015,0.0469463989,0.0976561978
6171,0.285650015,0.0469463989,0.101562001
6172,0.285650015,0.0469463989,0.105469003
6173,0.285650015,0.0469463989,0.109375
6174,0.285650015,0.0469463989,0.113280997
6175,0.285650015,0.0469463989,0.117187001
6176,0.285650015,0.0469463989,0.121094003
6177,0.285650015,0.0469463989,0.125
6178,0.285650015,0.0469463989,0.128905997
6179,0.285650015,0.0469463989,0.132811993
6180,0.285650015,0.0469463989,0.136719003
6181,0.285650015,0.0469463989,0.140625
6182,0.285650015,0.0469463989,0.144530997
6183,0.285650015,0.0469463989,0.148438007
6184,0.285650015,0.0469463989,0.152344003
6185,0.285650015,0.0469463989,0.15625
6186,0.285650015,0.0469463989,0.160155997
6187,0.285650015,0.0469463989,0.164061993
6188,0.285650015,0.0469463989,0.167969003
6189,0.285650015,0.0469463989,0.171875
6190,0.285650015,0.0469463989,0.175780997
6191,0.285650015,0.0469463989,0.179686993
6192,0.285650015,0.0469463989,0.183594003
6193,0.285650015,0.0469463989,0.1875
6194,0.285650015,0.0469463989,0.191405997
6195,0.285650015,0.0469463989,0.195311993
6196,0.285650015,0.0469463989,0.199219003
6197,0.285650015,0.0469463989,0.203125
6198,0.285650015,0.0469463989,0.207030997
6199,0.285650015,0.0469463989,0.210938007
6200,0.285650015,0.0469463989,0.214844003
6201,0.285650015,0.0469463989,0.21875
6202,0.285650015,0.0469463989,0.222655997
6203,0.285650015,0.0469463989,0.226563007
6204,0.285650015,0.0469463989,0.230469003
6205,0.285650015,0.0469463989,0.234375
6206,0.285650015,0.0469463989,0.238280997
6207,0.285650015,0.0469463989,0.242186993
6208,0.285650015,0.0469463989,0.246094003
6209,0.285650015,0.0469463989,0.25
6210,0.285650015,0.0469463989,0.253906012
6211,0.285650015,0.0469463989,0.257813007
6212,0.285650015,0.0469463989,0.261718988
6213,0.285650015,0.0469463989,0.265625
6214,0.285650015,0.0469463989,0.269531012
6215,0.285650015,0.0469463989,0.273438007
6216,0.285650015,0.0469463989,0.277343988
6217,0.285650015,0.0469463989,0.28125
6218,0.285650015,0.0469463989,0.285156012
6219,0.285650015,0.0469463989,0.289061993
6220,0.285650015,0.0469463989,0.292968988
6221,0.285650015,0.0469463989,0.296875
6222,0.285650015,0.0469463989,0.300781012
6223,0.285650015,0.0469463989,0.304688007
6224,0.285650015,0.0469463989,0.308593988
6225,0.285650015,0.0469463989,0.3125
6226,0.285650015,0.0469463989,0.316406012
6227,0.285650015,0.0469463989,0.320313007
6228,0.285650015,0.0469463989,0.324218988
6229,0.285650015,0.0469463989,0.328125
6230,0.285650015,0.0469463989,0.332031012
6231,0.285650015,0.0469463989,0.335936993
6232,0.285650015,0.0469463989,0.339843988
6233,0.285650015,0.0469463989,0.34375
6234,0.285650015,0.0469463989,0.347656012
6235,0.285650015,0.0469463989,0.351563007
6236,0.285650015,0.0469463989,0.355468988
6237,0.285650015,0.0469463989,0.359375
6238,0.285650015,0.0469463989,0.363281012
6239,0.285650015,0.0469463989,0.367188007
6240,0.285650015,0.0469463989,0.371093988
6241,0.285650015,0.0469463989,0.375
6242,0.285650015,0.0469463989,0.378906012
6243,0.285650015,0.0469463989,0.382811993
6244,0.285650015,0.0469463989,0.386718988
6245,0.285726011,0.0482736006,0.397080004
6246,0.287117988,0.0503515005,-0.386718988
6247,0.287117988,0.0503515005,-0.382811993
6248,0.287117988,0.0503515005,-0.378906012
6249,0.287117988,0.0503515005,-0.375
6250,0.287117988,0.0503515005,-0.371093988
6251,0.287117988,0.0503515005,-0.367188007
6252,0.287117988,0.0503515005,-0.363281012
6253,0.287117988,0.0503515005,-0.359375
6254,0.287117988,0.0503515005,-0.355468988
6255,0.287117988,0.0503515005,-0.351561993
6256,0.287117988,0.0503515005,-0.347656012
6257,0.287117988,0.0503515005,-0.34375
6258,0.287117988,0.0503515005,-0.339843988
6259,0.287117988,0.0503515005,-0.335938007
6260,0.287117988,0.0503515005,-0.332031012
6261,0.287117988,0.0503515005,-0.328125
6262,0.287117988,0.0503515005,-0.324218988
6263,0.287117988,0.0503515005,-0.320311993
6264,0.287117988,0.0503515005,-0.316406012
6265,0.287117988,0.0503515005,-0.3125
6266,0.287117988,0.0503515005,-0.308593988
6267,0.287117988,0.0503515005,-0.304688007
6268,0.287117988,0.0503515005,-0.300781012
6269,0.287117988,0.0503515005,-0.296875
6270,0.287117988,0.0503515005,-0.292968988
6271,0.287117988,0.0503515005,-0.289063007
6272,0.287117988,0.0503515005,-0.285156012
6273,0.287117988,0.0503515005,-0.28125
6274,0.287117988,0.0503515005,-0.277343988
6275,0.287117988,0.0503515005,-0.273438007
6276,0.287117988,0.0503515005,-0.269531012
6277,0.287117988,0.0503515005,-0.265625
6278,0.287117988,0.0503515005,-0.261718988
6279,0.287117988,0.0503515005,-0.257811993
6280,0.287117988,0.0503515005,-0.253906012
6281,0.287117988,0.0503515005,-0.25
6282,0.287117988,0.0503515005,-0.246094003
6283,0.287117988,0.0503515005,-0.242188007
6284,0.287117988,0.0503515005,-0.238280997
6285,0.287117988,0.0503515005,-0.234375
6286,0.287117988,0.0503515005,-0.230469003
6287,0.287117988,0.0503515005,-0.226563007
6288,0.287117988,0.0503515005,-0.222655997
6289,0.287117988,0.0503515005,-0.21875
6290,0.287117988,0.0503515005,-0.214844003
6291,0.287117988,0.0503515005,-0.210936993
6292,0.287117988,0.0503515005,-0.207030997
6293,0.287117988,0.0503515005,-0.203125
6294,0.287117988,0.0503515005,-0.199219003
6295,0.287117988,0.0503515005,-0.195311993
6296,0.287117988,0.0503515005,-0.191405997
6297,0.287117988,0.0503515005,-0.1875
6298,0.287117988,0.0503515005,-0.183594003
6299,0.287117988,0.0503515005,-0.179688007
6300,0.287117988,0.0503515005,-0.175780997
6301,0.287117988,0.0503515005,-0.171875
6302,0.287117988,0.0503515005,-0.167969003
6303,0.287117988,0.0503515005,-0.164063007
6304,0.287117988,0.0503515005,-0.160155997
6305,0.287117988,0.0503515005,-0.15625
6306,0.287117988,0.0503515005,-0.152344003
6307,0.287117988,0.0503515005,-0.148436993
6308,0.287117988,0.0503515005,-0.144530997
6309,0.287117988,0.0503515005,-0.140625
6310,0.287117988,0.0503515005,-0.136719003
6311,0.287117988,0.0503515005,-0.132813007
6312,0.287117988,0.0503515005,-0.128905997
6313,0.287117988,0.0503515005,-0.125
6314,0.287117988,0.0503515005,-0.121094003
6315,0.287117988,0.0503515005,-0.117187999
6316,0.287117988,0.0503515005,-0.113280997
6317,0.287117988,0.0503515005,-0.109375
6318,0.287117988,0.0503515005,-0.105469003
6319,0.287117988,0.0503515005,-0.101562001
6320,0.287117988,0.0503515005,-0.0976561978
6321,0.287117988,0.0503515005,-0.09375
6322,0.287117988,0.0503515005,-0.0898438022
6323,0.287117988,0.0503515005,-0.0859375
6324,0.287117988,0.0503515005,-0.0820311978
6325,0.287117988,0.0503515005,-0.078125
6326,0.287117988,0.0503515005,-0.0742186978
6327,0.287117988,0.0503515005,-0.0703125
6328,0.287117988,0.0503515005,-0.0664061978
6329,0.287117988,0.0503515005,-0.0625
6330,0.287117988,0.0503515005,-0.0585937984
6331,0.287117988,0.0503515005,-0.0546875
6332,0.287117988,0.0503515005,-0.0507812016
6333,0.287117988,0.0503515005,-0.046875
6334,0.287117988,0.0503515005,-0.0429687016
6335,0.287117988,0.0503515005,-0.0390625
6336,0.287117988,0.0503515005,-0.0351562016
6337,0.287117988,0.0503515005,-0.03125
6338,0.287117988,0.0503515005,-0.0273438003
6339,0.287117988,0.0503515005,-0.0234375
6340,0.287117988,0.0503515005,-0.0195313003
6341,0.287117988,0.0503515005,-0.015625
6342,0.287117988,0.0503515005,-0.0117188003
6343,0.287117988,0.0503515005,-0.0078125
6344,0.287117988,0.0503515005,-0.00390625
6345,0.287117988,0.0503515005,0
6346,0.287117988,0.0503515005,0.00390625
6347,0.287117988,0.0503515005,0.0078125
6348,0.287117988,0.0503515005,0.0117186997
6349,0.287117988,0.0503515005,0.015625
6350,0.287117988,0.0503515005,0.0195311997
6351,0.287117988,0.0503515005,0.0234375
6352,0.287117988,0.0503515005,0.0273436997
6353,0.287117988,0.0503515005,0.03125
6354,0.287117988,0.0503515005,0.0351562016
6355,0.287117988,0.0503515005,0.0390625
6356,0.287117988,0.0503515005,0.0429687016
6357,0.287117988,0.0503515005,0.046875
6358,0.287117988,0.0503515005,0.0507812016
6359,0.287117988,0.0503515005,0.0546875
6360,0.287117988,0.0503515005,0.0585937016
6361,0.287117988,0.0503515005,0.0625
6362,0.287117988,0.0503515005,0.0664061978
6363,0.287117988,0.0503515005,0.0703125
6364,0.287117988,0.0503515005,0.0742186978
6365,0.287117988,0.0503515005,0.078125
6366,0.287117988,0.0503515005,0.0820313022
6367,0.287117988,0.0503515005,0.0859375
6368,0.287117988,0.0503515005,0.0898436978
6369,0.287117988,0.0503515005,0.09375
6370,0.287117988,0.0503515005,0.0976561978
6371,0.287117988,0.0503515005,0.101562999
6372,0.287117988,0.0503515005,0.105469003
6373,0.287117988,0.0503515005,0.109375
6374,0.287117988,0.0503515005,0.113280997
6375,0.287117988,0.0503515005,0.117187001
6376,0.287117988,0.0503515005,0.121094003
6377,0.287117988,0.0503515005,0.125
6378,0.287117988,0.0503515005,0.128905997
6379,0.287117988,0.0503515005,0.132811993
6380,0.287117988,0.0503515005,0.136719003
6381,0.287117988,0.0503515005,0.140625
6382,0.287117988,0.0503515005,0.144530997
6383,0.287117988,0.0503515005,0.148436993
6384,0.287117988,0.0503515005,0.152344003
6385,0.287117988,0.0503515005,0.15625
6386,0.287117988,0.0503515005,0.160155997
6387,0.287117988,0.0503515005,0.164061993
6388,0.287117988,0.0503515005,0.167969003
6389,0.287117988,0.0503515005,0.171875
6390,0.287117988,0.0503515005,0.175780997
6391,0.287117988,0.0503515005,0.179686993
6392,0.287117988,0.0503515005,0.183594003
6393,0.287117988,0.0503515005,0.1875
6394,0.287117988,0.0503515005,0.191405997
6395,0.287117988,0.0503515005,0.195313007
6396,0.287117988,0.0503515005,0.199219003
6397,0.287117988,0.0503515005,0.203125
6398,0.287117988,0.0503515005,0.207030997
6399,0.287117988,0.0503515005,0.210938007
6400,0.287117988,0.0503515005,0.214844003
6401,0.287117988,0.0503515005,0.21875
6402,0.287117988,0.0503515005,0.222655997
6403,0.287117988,0.0503515005,0.226561993
6404,0.287117988,0.0503515005,0.230469003
6405,0.287117988,0.0503515005,0.234375
6406,0.287117988,0.0503515005,0.238280997
6407,0.287117988,0.0503515005,0.242186993
6408,0.287117988,0.0503515005,0.246094003
6409,0.287117988,0.0503515005,0.25
6410,0.287117988,0.0503515005,0.253906012
6411,0.287117988,0.0503515005,0.257811993
6412,0.287117988,0.0503515005,0.261718988
6413,0.287117988,0.0503515005,0.265625
6414,0.287117988,0.0503515005,0.269531012
6415,0.287117988,0.0503515005,0.273436993
6416,0.287117988,0.0503515005,0.277343988
6417,0.287117988,0.0503515005,0.28125
6418,0.287117988,0.0503515005,0.285156012
6419,0.287117988,0.0503515005,0.289063007
6420,0.287117988,0.0503515005,0.292968988
6421,0.287117988,0.0503515005,0.296875
6422,0.287117988,0.0503515005,0.300781012
6423,0.287117988,0.0503515005,0.304686993
6424,0.287117988,0.0503515005,0.308593988
6425,0.287117988,0.0503515005,0.3125
6426,0.287117988,0.0503515005,0.316406012
6427,0.287117988,0.0503515005,0.320311993
6428,0.287117988,0.0503515005,0.324218988
6429,0.287117988,0.0503515005,0.328125
6430,0.287117988,0.0503515005,0.332031012
6431,0.287117988,0.0503515005,0.335936993
6432,0.287117988,0.0503515005,0.339843988
6433,0.287117988,0.0503515005,0.34375
6434,0.287117988,0.0503515005,0.347656012
6435,0.287117988,0.0503515005,0.351563007
6436,0.287117988,0.0503515005,0.355468988
6437,0.287117988,0.0503515005,0.359375
6438,0.287117988,0.0503515005,0.363281012
6439,0.287117988,0.0503515005,0.367186993
6440,0.287117988,0.0503515005,0.371093988
6441,0.287117988,0.0503515005,0.375
6442,0.287117988,0.0503515005,0.378906012
6443,0.287117988,0.0503515005,0.382811993
6444,0.287117988,0.0503515005,0.386718988
6445,0.287236989,0.0503624007,-0.390581012
6446,0.287236989,0.0503624007,0.390581012
6447,0.287447989,0.0494264998,-0.393754005
6448,0.287613988,0.0487067997,0.393754005
6449,0.293383002,0.0498876981,-0.386718988
6450,0.293383002,0.0498876981,-0.382813007
6451,0.293383002,0.0498876981,-0.378906012
6452,0.293383002,0.0498876981,-0.375
6453,0.293383002,0.0498876981,-0.371093988
6454,0.293383002,0.0498876981,-0.367188007
6455,0.293383002,0.0498876981,-0.363281012
6456,0.293383002,0.0498876981,-0.359375
6457,0.293383002,0.0498876981,-0.355468988
6458,0.293383002,0.0498876981,-0.351561993
6459,0.293383002,0.0498876981,-0.347656012
6460,0.293383002,0.0498876981,-0.34375
6461,0.293383002,0.0498876981,-0.339843988
6462,0.293383002,0.0498876981,-0.335938007
6463,0.293383002,0.0498876981,-0.332031012
6464,0.293383002,0.0498876981,-0.328125
6465,0.293383002,0.0498876981,-0.324218988
6466,0.293383002,0.0498876981,-0.320311993
6467,0.293383002,0.0498876981,-0.316406012
6468,0.293383002,0.0498876981,-0.3125
6469,0.293383002,0.0498876981,-0.308593988
6470,0.293383002,0.0498876981,-0.304688007
6471,0.293383002,0.0498876981,-0.300781012
6472,0.293383002,0.0498876981,-0.296875
6473,0.293383002,0.0498876981,-0.292968988
6474,0.293383002,0.0498876981,-0.289063007
6475,0.293383002,0.0498876981,-0.285156012
6476,0.293383002,0.0498876981,-0.28125
6477,0.293383002,0.0498876981,-0.277343988
6478,0.293383002,0.0498876981,-0.273438007
6479,0.293383002,0.0498876981,-0.269531012
6480,0.293383002,0.0498876981,-0.265625
6481,0.293383002,0.0498876981,-0.261718988
6482,0.293383002,0.0498876981,-0.257811993
6483,0.293383002,0.0498876981,-0.253906012
6484,0.293383002,0.0498876981,-0.25
6485,0.293383002,0.0498876981,-0.246094003
6486,0.293383002,0.0498876981,-0.242188007
6487,0.293383002,0.0498876981,-0.238280997
6488,0.293383002,0.0498876981,-0.234375
6489,0.293383002,0.0498876981,-0.230469003
6490,0.293383002,0.0498876981,-0.226563007
6491,0.293383002,0.0498876981,-0.222655997
6492,0.293383002,0.0498876981,-0.21875
6493,0.293383002,0.0498876981,-0.214844003
6494,0.293383002,0.0498876981,-0.210936993
6495,0.293383002,0.0498876981,-0.207030997
6496,0.293383002,0.0498876981,-0.203125
6497,0.293383002,0.0498876981,-0.199219003
6498,0.293383002,0.0498876981,-0.195311993
6499,0.293383002,0.0498876981,-0.191405997
6500,0.293383002,0.0498876981,-0.1875
6501,0.293383002,0.0498876981,-0.183594003
6502,0.293383002,0.0498876981,-0.179688007
6503,0.293383002,0.0498876981,-0.175780997
6504,0.293383002,0.0498876981,-0.171875
6505,0.293383002,0.0498876981,-0.167969003
6506,0.293383002,0.0498876981,-0.164061993
6507,0.293383002,0.0498876981,-0.160155997
6508,0.293383002,0.0498876981,-0.15625
6509,0.293383002,0.0498876981,-0.152344003
6510,0.293383002,0.0498876981,-0.148436993
6511,0.293383002,0.0498876981,-0.144530997
6512,0.293383002,0.0498876981,-0.140625
6513,0.293383002,0.0498876981,-0.136719003
6514,0.293383002,0.0498876981,-0.132813007
6515,0.293383002,0.0498876981,-0.128905997
6516,0.293383002,0.0498876981,-0.125
6517,0.293383002,0.0498876981,-0.121094003
6518,0.293383002,0.0498876981,-0.117187001
6519,0.293383002,0.0498876981,-0.113280997
6520,0.293383002,0.0498876981,-0.109375
6521,0.293383002,0.0498876981,-0.105469003
6522,0.293383002,0.0498876981,-0.101562001
6523,0.293383002,0.0498876981,-0.0976561978
6524,0.293383002,0.0498876981,-0.09375
6525,0.293383002,0.0498876981,-0.0898438022
6526,0.293383002,0.0498876981,-0.0859375
6527,0.293383002,0.0498876981,-0.0820311978
6528,0.293383002,0.0498876981,-0.078125
6529,0.293383002,0.0498876981,-0.0742188022
6530,0.293383002,0.0498876981,-0.0703125
6531,0.293383002,0.0498876981,-0.0664063022
6532,0.293383002,0.0498876981,-0.0625
6533,0.293383002,0.0498876981,-0.0585937016
6534,0.293383002,0.0498876981,-0.0546875
6535,0.293383002,0.0498876981,-0.0507812016
6536,0.293383002,0.0498876981,-0.046875
6537,0.293383002,0.0498876981,-0.0429687984
6538,0.293383002,0.0498876981,-0.0390625
6539,0.293383002,0.0498876981,-0.0351562016
6540,0.293383002,0.0498876981,-0.03125
6541,0.293383002,0.0498876981,-0.0273436997
6542,0.293383002,0.0498876981,-0.0234375
6543,0.293383002,0.0498876981,-0.0195311997
6544,0.293383002,0.0498876981,-0.015625
6545,0.293383002,0.0498876981,-0.0117186997
6546,0.293383002,0.0498876981,-0.0078125
6547,0.293383002,0.0498876981,-0.00390625
6548,0.293383002,0.0498876981,-0
6549,0.293383002,0.0498876981,0.00390625
6550,0.293383002,0.0498876981,0.0078125
6551,0.293383002,0.0498876981,0.0117188003
6552,0.293383002,0.0498876981,0.015625
6553,0.293383002,0.0498876981,0.0195311997
6554,0.293383002,0.0498876981,0.0234375
6555,0.293383002,0.0498876981,0.0273438003
6556,0.293383002,0.0498876981,0.03125
6557,0.293383002,0.0498876981,0.0351562016
6558,0.293383002,0.0498876981,0.0390625
6559,0.293383002,0.0498876981,0.0429687984
6560,0.293383002,0.0498876981,0.046875
6561,0.293383002,0.0498876981,0.0507812984
6562,0.293383002,0.0498876981,0.0546875
6563,0.293383002,0.0498876981,0.0585937984
6564,0.293383002,0.0498876981,0.0625
6565,0.293383002,0.0498876981,0.0664063022
6566,0.293383002,0.0498876981,0.0703125
6567,0.293383002,0.0498876981,0.0742188022
6568,0.293383002,0.0498876981,0.078125
6569,0.293383002,0.0498876981,0.0820313022
6570,0.293383002,0.0498876981,0.0859375
6571,0.293383002,0.0498876981,0.0898436978
6572,0.293383002,0.0498876981,0.09375
6573,0.293383002,0.0498876981,0.0976561978
6574,0.293383002,0.0498876981,0.101562999
6575,0.293383002,0.0498876981,0.105469003
6576,0.293383002,0.0498876981,0.109375
6577,0.293383002,0.0498876981,0.113280997
6578,0.293383002,0.0498876981,0.117187001
6579,0.293383002,0.0498876981,0.121094003
6580,0.293383002,0.0498876981,0.125
6581,0.293383002,0.0498876981,0.128905997
6582,0.293383002,0.0498876981,0.132811993
6583,0.293383002,0.0498876981,0.136719003
6584,0.293383002,0.0498876981,0.140625
6585,0.293383002,0.0498876981,0.144530997
6586,0.293383002,0.0498876981,0.148436993
6587,0.293383002,0.0498876981,0.152344003
6588,0.293383002,0.0498876981,0.15625
6589,0.293383002,0.0498876981,0.160155997
6590,0.293383002,0.0498876981,0.164063007
6591,0.293383002,0.0498876981,0.167969003
6592,0.293383002,0.0498876981,0.171875
6593,0.293383002,0.0498876981,0.175780997
6594,0.293383002,0.0498876981,0.179688007
6595,0.293383002,0.0498876981,0.183594003
6596,0.293383002,0.0498876981,0.1875
6597,0.293383002,0.0498876981,0.191405997
6598,0.293383002,0.0498876981,0.195313007
6599,0.293383002,0.0498876981,0.199219003
6600,0.293383002,0.0498876981,0.203125
6601,0.293383002,0.0498876981,0.207030997
6602,0.293383002,0.0498876981,0.210936993
6603,0.293383002,0.0498876981,0.214844003
6604,0.293383002,0.0498876981,0.21875
6605,0.293383002,0.0498876981,0.222655997
6606,0.293383002,0.0498876981,0.226563007
6607,0.293383002,0.0498876981,0.230469003
6608,0.293383002,0.0498876981,0.234375
6609,0.293383002,0.0498876981,0.238280997
6610,0.293383002,0.0498876981,0.242188007
6611,0.293383002,0.0498876981,0.246094003
6612,0.293383002,0.0498876981,0.25
6613,0.293383002,0.0498876981,0.253906012
6614,0.293383002,0.0498876981,0.257813007
6615,0.293383002,0.0498876981,0.261718988
6616,0.293383002,0.0498876981,0.265625
6617,0.293383002,0.0498876981,0.269531012
6618,0.293383002,0.0498876981,0.273438007
6619,0.293383002,0.0498876981,0.277343988
6620,0.293383002,0.0498876981,0.28125
6621,0.293383002,0.0498876981,0.285156012
6622,0.293383002,0.0498876981,0.289061993
6623,0.293383002,0.0498876981,0.292968988
6624,0.293383002,0.0498876981,0.296875
6625,0.293383002,0.0498876981,0.300781012
6626,0.293383002,0.0498876981,0.304688007
6627,0.293383002,0.0498876981,0.308593988
6628,0.293383002,0.0498876981,0.3125
6629,0.293383002,0.0498876981,0.316406012
6630,0.293383002,0.0498876981,0.320311993
6631,0.293383002,0.0498876981,0.324218988
6632,0.293383002,0.0498876981,0.328125
6633,0.293383002,0.0498876981,0.332031012
6634,0.293383002,0.0498876981,0.335938007
6635,0.293383002,0.0498876981,0.339843988
6636,0.293383002,0.0498876981,0.34375
6637,0.293383002,0.0498876981,0.347656012
6638,0.293383002,0.0498876981,0.351561993
6639,0.293383002,0.0498876981,0.355468988
6640,0.293383002,0.0498876981,0.359375
6641,0.293383002,0.0498876981,0.363281012
6642,0.293383002,0.0498876981,0.367186993
6643,0.293383002,0.0498876981,0.371093988
6644,0.293383002,0.0498876981,0.375
6645,0.293383002,0.0498876981,0.378906012
6646,0.293383002,0.0498876981,0.382811993
6647,0.293383002,0.0498876981,0.386718988
6648,0.293401003,0.0498943999,-0.390574008
6649,0.293401003,0.0498943999,0.390574008
6650,0.293603987,0.0509341992,-0.393739998
6651,0.293603987,0.0509341992,0.393739998
6652,0.294317991,0.0545082986,-0.397116989
6653,0.294317991,0.0545082986,0.397116989
6654,0.294317991,0.0547495,-0.394309014
6655,0.294317991,0.0547495,0.394309014
6656,0.294317991,0.0549884997,-0.390603989
6657,0.294317991,0.0549884997,0.390603989
6658,0.294317991,0.0550925992,-0.386718988
6659,0.294317991,0.0550925992,-0.382813007
6660,0.294317991,0.0550925992,-0.378906012
6661,0.294317991,0.0550925992,-0.375
6662,0.294317991,0.0550925992,-0.371093988
6663,0.294317991,0.0550925992,-0.367188007
6664,0.294317991,0.0550925992,-0.363281012
6665,0.294317991,0.0550925992,-0.359375
6666,0.294317991,0.0550925992,-0.355468988
6667,0.294317991,0.0550925992,-0.351561993
6668,0.294317991,0.0550925992,-0.347656012
6669,0.294317991,0.0550925992,-0.34375
6670,0.294317991,0.0550925992,-0.339843988
6671,0.294317991,0.0550925992,-0.335938007
6672,0.294317991,0.0550925992,-0.332031012
6673,0.294317991,0.0550925992,-0.328125
6674,0.294317991,0.0550925992,-0.324218988
6675,0.294317991,0.0550925992,-0.320311993
6676,0.294317991,0.0550925992,-0.316406012
6677,0.294317991,0.0550925992,-0.3125
6678,0.294317991,0.0550925992,-0.308593988
6679,0.294317991,0.0550925992,-0.304688007
6680,0.294317991,0.0550925992,-0.300781012
6681,0.294317991,0.0550925992,-0.296875
6682,0.294317991,0.0550925992,-0.292968988
6683,0.294317991,0.0550925992,-0.289061993
6684,0.294317991,0.0550925992,-0.285156012
6685,0.294317991,0.0550925992,-0.28125
6686,0.294317991,0.0550925992,-0.277343988
6687,0.294317991,0.0550925992,-0.273438007
6688,0.294317991,0.0550925992,-0.269531012
6689,0.294317991,0.0550925992,-0.265625
6690,0.294317991,0.0550925992,-0.261718988
6691,0.294317991,0.0550925992,-0.257813007
6692,0.294317991,0.0550925992,-0.253906012
6693,0.294317991,0.0550925992,-0.25
6694,0.294317991,0.0550925992,-0.246094003
6695,0.294317991,0.0550925992,-0.242188007
6696,0.294317991,0.0550925992,-0.238280997
6697,0.294317991,0.0550925992,-0.234375
6698,0.294317991,0.0550925992,-0.230469003
6699,0.294317991,0.0550925992,-0.226563007
6700,0.294317991,0.0550925992,-0.222655997
6701,0.294317991,0.0550925992,-0.21875
6702,0.294317991,0.0550925992,-0.214844003
6703,0.294317991,0.0550925992,-0.210936993
6704,0.294317991,0.0550925992,-0.207030997
6705,0.294317991,0.0550925992,-0.203125
6706,0.294317991,0.0550925992,-0.199219003
6707,0.294317991,0.0550925992,-0.195311993
6708,0.294317991,0.0550925992,-0.191405997
6709,0.294317991,0.0550925992,-0.1875
6710,0.294317991,0.0550925992,-0.183594003
6711,0.294317991,0.0550925992,-0.179688007
6712,0.294317991,0.0550925992,-0.175780997
6713,0.294317991,0.0550925992,-0.171875
6714,0.294317991,0.0550925992,-0.167969003
6715,0.294317991,0.0550925992,-0.164063007
6716,0.294317991,0.0550925992,-0.160155997
6717,0.294317991,0.0550925992,-0.15625
6718,0.294317991,0.0550925992,-0.152344003
6719,0.294317991,0.0550925992,-0.148438007
6720,0.294317991,0.0550925992,-0.144530997
6721,0.294317991,0.0550925992,-0.140625
6722,0.294317991,0.0550925992,-0.136719003
6723,0.294317991,0.0550925992,-0.132813007
6724,0.294317991,0.0550925992,-0.128905997
6725,0.294317991,0.0550925992,-0.125
6726,0.294317991,0.0550925992,-0.121094003
6727,0.294317991,0.0550925992,-0.117187999
6728,0.294317991,0.0550925992,-0.113280997
6729,0.294317991,0.0550925992,-0.109375
6730,0.294317991,0.0550925992,-0.105469003
6731,0.294317991,0.0550925992,-0.101562999
6732,0.294317991,0.0550925992,-0.0976561978
6733,0.294317991,0.0550925992,-0.09375
6734,0.294317991,0.0550925992,-0.0898438022
6735,0.294317991,0.0550925992,-0.0859375
6736,0.294317991,0.0550925992,-0.0820311978
6737,0.294317991,0.0550925992,-0.078125
6738,0.294317991,0.0550925992,-0.0742186978
6739,0.294317991,0.0550925992,-0.0703125
6740,0.294317991,0.0550925992,-0.0664061978
6741,0.294317991,0.0550925992,-0.0625
6742,0.294317991,0.0550925992,-0.0585937016
6743,0.294317991,0.0550925992,-0.0546875
6744,0.294317991,0.0550925992,-0.0507812016
6745,0.294317991,0.0550925992,-0.046875
6746,0.294317991,0.0550925992,-0.0429687016
6747,0.294317991,0.0550925992,-0.0390625
6748,0.294317991,0.0550925992,-0.0351562016
6749,0.294317991,0.0550925992,-0.03125
6750,0.294317991,0.0550925992,-0.0273438003
6751,0.294317991,0.0550925992,-0.0234375
6752,0.294317991,0.0550925992,-0.0195311997
6753,0.294317991,0.0550925992,-0.015625
6754,0.294317991,0.0550925992,-0.0117186997
6755,0.294317991,0.0550925992,-0.0078125
6756,0.294317991,0.0550925992,-0.00390625
6757,0.294317991,0.0550925992,0
6758,0.294317991,0.0550925992,0.00390625
6759,0.294317991,0.0550925992,0.0078125
6760,0.294317991,0.0550925992,0.0117186997
6761,0.294317991,0.0550925992,0.015625
6762,0.294317991,0.0550925992,0.0195311997
6763,0.294317991,0.0550925992,0.0234375
6764,0.294317991,0.0550925992,0.0273436997
6765,0.294317991,0.0550925992,0.03125
6766,0.294317991,0.0550925992,0.0351562016
6767,0.294317991,0.0550925992,0.0390625
6768,0.294317991,0.0550925992,0.0429687984
6769,0.294317991,0.0550925992,0.046875
6770,0.294317991,0.0550925992,0.0507812984
6771,0.294317991,0.0550925992,0.0546875
6772,0.294317991,0.0550925992,0.0585937984
6773,0.294317991,0.0550925992,0.0625
6774,0.294317991,0.0550925992,0.0664063022
6775,0.294317991,0.0550925992,0.0703125
6776,0.294317991,0.0550925992,0.0742186978
6777,0.294317991,0.0550925992,0.078125
6778,0.294317991,0.0550925992,0.0820311978
6779,0.294317991,0.0550925992,0.0859375
6780,0.294317991,0.0550925992,0.0898436978
6781,0.294317991,0.0550925992,0.09375
6782,0.294317991,0.0550925992,0.0976561978
6783,0.294317991,0.0550925992,0.101562999
6784,0.294317991,0.0550925992,0.105469003
6785,0.294317991,0.0550925992,0.109375
6786,0.294317991,0.0550925992,0.113280997
6787,0.294317991,0.0550925992,0.117187001
6788,0.294317991,0.0550925992,0.121094003
6789,0.294317991,0.0550925992,0.125
6790,0.294317991,0.0550925992,0.128905997
6791,0.294317991,0.0550925992,0.132813007
6792,0.294317991,0.0550925992,0.136719003
6793,0.294317991,0.0550925992,0.140625
6794,0.294317991,0.0550925992,0.144530997
6795,0.294317991,0.0550925992,0.148438007
6796,0.294317991,0.0550925992,0.152344003
6797,0.294317991,0.0550925992,0.15625
6798,0.294317991,0.0550925992,0.160155997
6799,0.294317991,0.0550925992,0.164061993
6800,0.294317991,0.0550925992,0.167969003
6801,0.294317991,0.0550925992,0.171875
6802,0.294317991,0.0550925992,0.175780997
6803,0.294317991,0.0550925992,0.179686993
6804,0.294317991,0.0550925992,0.183594003
6805,0.294317991,0.0550925992,0.1875
6806,0.294317991,0.0550925992,0.191405997
6807,0.294317991,0.0550925992,0.195311993
6808,0.294317991,0.0550925992,0.199219003
6809,0.294317991,0.0550925992,0.203125
6810,0.294317991,0.0550925992,0.207030997
6811,0.294317991,0.0550925992,0.210936993
6812,0.294317991,0.0550925992,0.214844003
6813,0.294317991,0.0550925992,0.21875
6814,0.294317991,0.0550925992,0.222655997
6815,0.294317991,0.0550925992,0.226563007
6816,0.294317991,0.0550925992,0.230469003
6817,0.294317991,0.0550925992,0.234375
6818,0.294317991,0.0550925992,0.238280997
6819,0.294317991,0.0550925992,0.242186993
6820,0.294317991,0.0550925992,0.246094003
6821,0.294317991,0.0550925992,0.25
6822,0.294317991,0.0550925992,0.253906012
6823,0.294317991,0.0550925992,0.257811993
6824,0.294317991,0.0550925992,0.261718988
6825,0.294317991,0.0550925992,0.265625
6826,0.294317991,0.0550925992,0.269531012
6827,0.294317991,0.0550925992,0.273436993
6828,0.294317991,0.0550925992,0.277343988
6829,0.294317991,0.0550925992,0.28125
6830,0.294317991,0.0550925992,0.285156012
6831,0.294317991,0.0550925992,0.289063007
6832,0.294317991,0.0550925992,0.292968988
6833,0.294317991,0.0550925992,0.296875
6834,0.294317991,0.0550925992,0.300781012
6835,0.294317991,0.0550925992,0.304686993
6836,0.294317991,0.0550925992,0.308593988
6837,0.294317991,0.0550925992,0.3125
6838,0.294317991,0.0550925992,0.316406012
6839,0.294317991,0.0550925992,0.320311993
6840,0.294317991,0.0550925992,0.324218988
6841,0.294317991,0.0550925992,0.328125
6842,0.294317991,0.0550925992,0.332031012
6843,0.294317991,0.0550925992,0.335938007
6844,0.294317991,0.0550925992,0.339843988
6845,0.294317991,0.0550925992,0.34375
6846,0.294317991,0.0550925992,0.347656012
6847,0.294317991,0.0550925992,0.351561993
6848,0.294317991,0.0550925992,0.355468988
6849,0.294317991,0.0550925992,0.359375
6850,0.294317991,0.0550925992,0.363281012
6851,0.294317991,0.0550925992,0.367186993
6852,0.294317991,0.0550925992,0.371093988
6853,0.294317991,0.0550925992,0.375
6854,0.294317991,0.0550925992,0.378906012
6855,0.294317991,0.0550925992,0.382813007
6856,0.294317991,0.0550925992,0.386718988
6857,0.295266002,0.0509823002,-0.397047013
6858,0.295266002,0.0509823002,0.397047013
6859,0.297318012,0.0509823002,-0.390592992
6860,0.297318012,0.0509823002,-0.386718988
6861,0.297318012,0.0509823002,-0.382813007
6862,0.297318012,0.0509823002,-0.378906012
6863,0.297318012,0.0509823002,-0.375
6864,0.297318012,0.0509823002,-0.371093988
6865,0.297318012,0.0509823002,-0.367188007
6866,0.297318012,0.0509823002,-0.363281012
6867,0.297318012,0.0509823002,-0.359375
6868,0.297318012,0.0509823002,-0.355468988
6869,0.297318012,0.0509823002,-0.351561993
6870,0.297318012,0.0509823002,-0.347656012
6871,0.297318012,0.0509823002,-0.34375
6872,0.297318012,0.0509823002,-0.339843988
6873,0.297318012,0.0509823002,-0.335938007
6874,0.297318012,0.0509823002,-0.332031012
6875,0.297318012,0.0509823002,-0.328125
6876,0.297318012,0.0509823002,-0.324218988
6877,0.297318012,0.0509823002,-0.320311993
6878,0.297318012,0.0509823002,-0.316406012
6879,0.297318012,0.0509823002,-0.3125
6880,0.297318012,0.0509823002,-0.308593988
6881,0.297318012,0.0509823002,-0.304688007
6882,0.297318012,0.0509823002,-0.300781012
6883,0.297318012,0.0509823002,-0.296875
6884,0.297318012,0.0509823002,-0.292968988
6885,0.297318012,0.0509823002,-0.289063007
6886,0.297318012,0.0509823002,-0.285156012
6887,0.297318012,0.0509823002,-0.28125
6888,0.297318012,0.0509823002,-0.277343988
6889,0.297318012,0.0509823002,-0.273438007
6890,0.297318012,0.0509823002,-0.269531012
6891,0.297318012,0.0509823002,-0.265625
6892,0.297318012,0.0509823002,-0.261718988
6893,0.297318012,0.0509823002,-0.257811993
6894,0.297318012,0.0509823002,-0.253906012
6895,0.297318012,0.0509823002,-0.25
6896,0.297318012,0.0509823002,-0.246094003
6897,0.297318012,0.0509823002,-0.242188007
6898,0.297318012,0.0509823002,-0.238280997
6899,0.297318012,0.0509823002,-0.234375
6900,0.297318012,0.0509823002,-0.230469003
6901,0.297318012,0.0509823002,-0.226563007
6902,0.297318012,0.0509823002,-0.222655997
6903,0.297318012,0.0509823002,-0.21875
6904,0.297318012,0.0509823002,-0.214844003
6905,0.297318012,0.0509823002,-0.210938007
6906,0.297318012,0.0509823002,-0.207030997
6907,0.297318012,0.0509823002,-0.203125
6908,0.297318012,0.0509823002,-0.199219003
6909,0.297318012,0.0509823002,-0.195311993
6910,0.297318012,0.0509823002,-0.191405997
6911,0.297318012,0.0509823002,-0.1875
6912,0.297318012,0.0509823002,-0.183594003
6913,0.297318012,0.0509823002,-0.179688007
6914,0.297318012,0.0509823002,-0.175780997
6915,0.297318012,0.0509823002,-0.171875
6916,0.297318012,0.0509823002,-0.167969003
6917,0.297318012,0.0509823002,-0.164063007
6918,0.297318012,0.0509823002,-0.160155997
6919,0.297318012,0.0509823002,-0.15625
6920,0.297318012,0.0509823002,-0.152344003
6921,0.297318012,0.0509823002,-0.148438007
6922,0.297318012,0.0509823002,-0.144530997
6923,0.297318012,0.0509823002,-0.140625
6924,0.297318012,0.0509823002,-0.136719003
6925,0.297318012,0.0509823002,-0.132813007
6926,0.297318012,0.0509823002,-0.128905997
6927,0.297318012,0.0509823002,-0.125
6928,0.297318012,0.0509823002,-0.121094003
6929,0.297318012,0.0509823002,-0.117187999
6930,0.297318012,0.0509823002,-0.113280997
6931,0.297318012,0.0509823002,-0.109375
6932,0.297318012,0.0509823002,-0.105469003
6933,0.297318012,0.0509823002,-0.101562999
6934,0.297318012,0.0509823002,-0.0976561978
6935,0.297318012,0.0509823002,-0.09375
6936,0.297318012,0.0509823002,-0.0898436978
6937,0.297318012,0.0509823002,-0.0859375
6938,0.297318012,0.0509823002,-0.0820311978
6939,0.297318012,0.0509823002,-0.078125
6940,0.297318012,0.0509823002,-0.0742186978
6941,0.297318012,0.0509823002,-0.0703125
6942,0.297318012,0.0509823002,-0.0664061978
6943,0.297318012,0.0509823002,-0.0625
6944,0.297318012,0.0509823002,-0.0585937016
6945,0.297318012,0.0509823002,-0.0546875
6946,0.297318012,0.0509823002,-0.0507812016
6947,0.297318012,0.0509823002,-0.046875
6948,0.297318012,0.0509823002,-0.0429687016
6949,0.297318012,0.0509823002,-0.0390625
6950,0.297318012,0.0509823002,-0.0351562016
6951,0.297318012,0.0509823002,-0.03125
6952,0.297318012,0.0509823002,-0.0273436997
6953,0.297318012,0.0509823002,-0.0234375
6954,0.297318012,0.0509823002,-0.0195311997
6955,0.297318012,0.0509823002,-0.015625
6956,0.297318012,0.0509823002,-0.0117186997
6957,0.297318012,0.0509823002,-0.0078125
6958,0.297318012,0.0509823002,-0.00390625
6959,0.297318012,0.0509823002,0
6960,0.297318012,0.0509823002,0.00390625
6961,0.297318012,0.0509823002,0.0078125
6962,0.297318012,0.0509823002,0.0117186997
6963,0.297318012,0.0509823002,0.015625
6964,0.297318012,0.0509823002,0.0195311997
6965,0.297318012,0.0509823002,0.0234375
6966,0.297318012,0.0509823002,0.0273436997
6967,0.297318012,0.0509823002,0.03125
6968,0.297318012,0.0509823002,0.0351562016
6969,0.297318012,0.0509823002,0.0390625
6970,0.297318012,0.0509823002,0.0429687016
6971,0.297318012,0.0509823002,0.046875
6972,0.297318012,0.0509823002,0.0507812016
6973,0.297318012,0.0509823002,0.0546875
6974,0.297318012,0.0509823002,0.0585937016
6975,0.297318012,0.0509823002,0.0625
6976,0.297318012,0.0509823002,0.0664061978
6977,0.297318012,0.0509823002,0.0703125
6978,0.297318012,0.0509823002,0.0742186978
6979,0.297318012,0.0509823002,0.078125
6980,0.297318012,0.0509823002,0.0820311978
6981,0.297318012,0.0509823002,0.0859375
6982,0.297318012,0.0509823002,0.0898436978
6983,0.297318012,0.0509823002,0.09375
6984,0.297318012,0.0509823002,0.0976561978
6985,0.297318012,0.0509823002,0.101562001
6986,0.297318012,0.0509823002,0.105469003
6987,0.297318012,0.0509823002,0.109375
6988,0.297318012,0.0509823002,0.113280997
6989,0.297318012,0.0509823002,0.117187001
6990,0.297318012,0.0509823002,0.121094003
6991,0.297318012,0.0509823002,0.125
6992,0.297318012,0.0509823002,0.128905997
6993,0.297318012,0.0509823002,0.132811993
6994,0.297318012,0.0509823002,0.136719003
6995,0.297318012,0.0509823002,0.140625
6996,0.297318012,0.0509823002,0.144530997
6997,0.297318012,0.0509823002,0.148436993
6998,0.297318012,0.0509823002,0.152344003
6999,0.297318012,0.0509823002,0.15625
7000,0.297318012,0.0509823002,0.160155997
7001,0.297318012,0.0509823002,0.164061993
7002,0.297318012,0.0509823002,0.167969003
7003,0.297318012,0.0509823002,0.171875
7004,0.297318012,0.0509823002,0.175780997
7005,0.297318012,0.0509823002,0.179686993
7006,0.297318012,0.0509823002,0.183594003
7007,0.297318012,0.0509823002,0.1875
7008,0.297318012,0.0509823002,0.191405997
7009,0.297318012,0.0509823002,0.195311993
7010,0.297318012,0.0509823002,0.199219003
7011,0.297318012,0.0509823002,0.203125
7012,0.297318012,0.0509823002,0.207030997
7013,0.297318012,0.0509823002,0.210938007
7014,0.297318012,0.0509823002,0.214844003
7015,0.297318012,0.0509823002,0.21875
7016,0.297318012,0.0509823002,0.222655997
7017,0.297318012,0.0509823002,0.226563007
7018,0.297318012,0.0509823002,0.230469003
7019,0.297318012,0.0509823002,0.234375
7020,0.297318012,0.0509823002,0.238280997
7021,0.297318012,0.0509823002,0.242188007
7022,0.297318012,0.0509823002,0.246094003
7023,0.297318012,0.0509823002,0.25
7024,0.297318012,0.0509823002,0.253906012
7025,0.297318012,0.0509823002,0.257813007
7026,0.297318012,0.0509823002,0.261718988
7027,0.297318012,0.0509823002,0.265625
7028,0.297318012,0.0509823002,0.269531012
7029,0.297318012,0.0509823002,0.273438007
7030,0.297318012,0.0509823002,0.277343988
7031,0.297318012,0.0509823002,0.28125
7032,0.297318012,0.0509823002,0.285156012
7033,0.297318012,0.0509823002,0.289061993
7034,0.297318012,0.0509823002,0.292968988
7035,0.297318012,0.0509823002,0.296875
7036,0.297318012,0.0509823002,0.300781012
7037,0.297318012,0.0509823002,0.304688007
7038,0.297318012,0.0509823002,0.308593988
7039,0.297318012,0.0509823002,0.3125
7040,0.297318012,0.0509823002,0.316406012
7041,0.297318012,0.0509823002,0.320311993
7042,0.297318012,0.0509823002,0.324218988
7043,0.297318012,0.0509823002,0.328125
7044,0.297318012,0.0509823002,0.332031012
7045,0.297318012,0.0509823002,0.335938007
7046,0.297318012,0.0509823002,0.339843988
7047,0.297318012,0.0509823002,0.34375
7048,0.297318012,0.0509823002,0.347656012
7049,0.297318012,0.0509823002,0.351561993
7050,0.297318012,0.0509823002,0.355468988
7051,0.297318012,0.0509823002,0.359375
7052,0.297318012,0.0509823002,0.363281012
7053,0.297318012,0.0509823002,0.367188007
7054,0.297318012,0.0509823002,0.371093988
7055,0.297318012,0.0509823002,0.375
7056,0.297318012,0.0509823002,0.378906012
7057,0.297318012,0.0509823002,0.382811993
7058,0.297318012,0.0509823002,0.386718988
7059,0.297318012,0.0509823002,0.390592992
7060,0.297318012,0.0513264984,-0.394293994
7061,0.297318012,0.0513264984,0.394293994
7062,0.297318012,0.0516832992,-0.397114009
7063,0.297318012,0.0516832992,0.397114009
7064,0.297318012,0.0545488,-0.397156
7065,0.297318012,0.0545488,0.397156
7066,0.297318012,0.0547233,-0.394363999
7067,0.297318012,0.0547233,0.394363999
7068,0.297318012,0.0547477007,-0.390625
7069,0.297318012,0.0547477007,-0.386718988
7070,0.297318012,0.0547477007,-0.382813007
7071,0.297318012,0.0547477007,-0.378906012
7072,0.297318012,0.0547477007,-0.375
7073,0.297318012,0.0547477007,-0.371093988
7074,0.297318012,0.0547477007,-0.367188007
7075,0.297318012,0.0547477007,-0.363281012
7076,0.297318012,0.0547477007,-0.359375
7077,0.297318012,0.0547477007,-0.355468988
7078,0.297318012,0.0547477007,-0.351561993
7079,0.297318012,0.0547477007,-0.347656012
7080,0.297318012,0.0547477007,-0.34375
7081,0.297318012,0.0547477007,-0.339843988
7082,0.297318012,0.0547477007,-0.335938007
7083,0.297318012,0.0547477007,-0.332031012
7084,0.297318012,0.0547477007,-0.328125
7085,0.297318012,0.0547477007,-0.324218988
7086,0.297318012,0.0547477007,-0.320311993
7087,0.297318012,0.0547477007,-0.316406012
7088,0.297318012,0.0547477007,-0.3125
7089,0.297318012,0.0547477007,-0.308593988
7090,0.297318012,0.0547477007,-0.304688007
7091,0.297318012,0.0547477007,-0.300781012
7092,0.297318012,0.0547477007,-0.296875
7093,0.297318012,0.0547477007,-0.292968988
7094,0.297318012,0.0547477007,-0.289063007
7095,0.297318012,0.0547477007,-0.285156012
7096,0.297318012,0.0547477007,-0.28125
7097,0.297318012,0.0547477007,-0.277343988
7098,0.297318012,0.0547477007,-0.273438007
7099,0.297318012,0.0547477007,-0.269531012
7100,0.297318012,0.0547477007,-0.265625
7101,0.297318012,0.0547477007,-0.261718988
7102,0.297318012,0.0547477007,-0.257811993
7103,0.297318012,0.0547477007,-0.253906012
7104,0.297318012,0.0547477007,-0.25
7105,0.297318012,0.0547477007,-0.246094003
7106,0.297318012,0.0547477007,-0.242188007
7107,0.297318012,0.0547477007,-0.238280997
7108,0.297318012,0.0547477007,-0.234375
7109,0.297318012,0.0547477007,-0.230469003
7110,0.297318012,0.0547477007,-0.226563007
7111,0.297318012,0.0547477007,-0.222655997
7112,0.297318012,0.0547477007,-0.21875
7113,0.297318012,0.0547477007,-0.214844003
7114,0.297318012,0.0547477007,-0.210938007
7115,0.297318012,0.0547477007,-0.207030997
7116,0.297318012,0.0547477007,-0.203125
7117,0.297318012,0.0547477007,-0.199219003
7118,0.297318012,0.0547477007,-0.195311993
7119,0.297318012,0.0547477007,-0.191405997
7120,0.297318012,0.0547477007,-0.1875
7121,0.297318012,0.0547477007,-0.183594003
7122,0.297318012,0.0547477007,-0.179688007
7123,0.297318012,0.0547477007,-0.175780997
7124,0.297318012,0.0547477007,-0.171875
7125,0.297318012,0.0547477007,-0.167969003
7126,0.297318012,0.0547477007,-0.164061993
7127,0.297318012,0.0547477007,-0.160155997
7128,0.297318012,0.0547477007,-0.15625
7129,0.297318012,0.0547477007,-0.152344003
7130,0.297318012,0.0547477007,-0.148436993
7131,0.297318012,0.0547477007,-0.144530997
7132,0.297318012,0.0547477007,-0.140625
7133,0.297318012,0.0547477007,-0.136719003
7134,0.297318012,0.0547477007,-0.132813007
7135,0.297318012,0.0547477007,-0.128905997
7136,0.297318012,0.0547477007,-0.125
7137,0.297318012,0.0547477007,-0.121094003
7138,0.297318012,0.0547477007,-0.117187999
7139,0.297318012,0.0547477007,-0.113280997
7140,0.297318012,0.0547477007,-0.109375
7141,0.297318012,0.0547477007,-0.105469003
7142,0.297318012,0.0547477007,-0.101562999
7143,0.297318012,0.0547477007,-0.0976561978
7144,0.297318012,0.0547477007,-0.09375
7145,0.297318012,0.0547477007,-0.0898438022
7146,0.297318012,0.0547477007,-0.0859375
7147,0.297318012,0.0547477007,-0.0820311978
7148,0.297318012,0.0547477007,-0.078125
7149,0.297318012,0.0547477007,-0.0742186978
7150,0.297318012,0.0547477007,-0.0703125
7151,0.297318012,0.0547477007,-0.0664061978
7152,0.297318012,0.0547477007,-0.0625
7153,0.297318012,0.0547477007,-0.0585937984
7154,0.297318012,0.0547477007,-0.0546875
7155,0.297318012,0.0547477007,-0.0507812016
7156,0.297318012,0.0547477007,-0.046875
7157,0.297318012,0.0547477007,-0.0429687016
7158,0.297318012,0.0547477007,-0.0390625
7159,0.297318012,0.0547477007,-0.0351562016
7160,0.297318012,0.0547477007,-0.03125
7161,0.297318012,0.0547477007,-0.0273436997
7162,0.297318012,0.0547477007,-0.0234375
7163,0.297318012,0.0547477007,-0.0195311997
7164,0.297318012,0.0547477007,-0.015625
7165,0.297318012,0.0547477007,-0.0117186997
7166,0.297318012,0.0547477007,-0.0078125
7167,0.297318012,0.0547477007,-0.00390625
7168,0.297318012,0.0547477007,0
7169,0.297318012,0.0547477007,0.00390625
7170,0.297318012,0.0547477007,0.0078125
7171,0.297318012,0.0547477007,0.0117188003
7172,0.297318012,0.0547477007,0.015625
7173,0.297318012,0.0547477007,0.0195313003
7174,0.297318012,0.0547477007,0.0234375
7175,0.297318012,0.0547477007,0.0273436997
7176,0.297318012,0.0547477007,0.03125
7177,0.297318012,0.0547477007,0.0351562016
7178,0.297318012,0.0547477007,0.0390625
7179,0.297318012,0.0547477007,0.0429687984
7180,0.297318012,0.0547477007,0.046875
7181,0.297318012,0.0547477007,0.0507812016
7182,0.297318012,0.0547477007,0.0546875
7183,0.297318012,0.0547477007,0.0585937984
7184,0.297318012,0.0547477007,0.0625
7185,0.297318012,0.0547477007,0.0664061978
7186,0.297318012,0.0547477007,0.0703125
7187,0.297318012,0.0547477007,0.0742188022
7188,0.297318012,0.0547477007,0.078125
7189,0.297318012,0.0547477007,0.0820313022
7190,0.297318012,0.0547477007,0.0859375
7191,0.297318012,0.0547477007,0.0898436978
7192,0.297318012,0.0547477007,0.09375
7193,0.297318012,0.0547477007,0.0976561978
7194,0.297318012,0.0547477007,0.101562001
7195,0.297318012,0.0547477007,0.105469003
7196,0.297318012,0.0547477007,0.109375
7197,0.297318012,0.0547477007,0.113280997
7198,0.297318012,0.0547477007,0.117187999
7199,0.297318012,0.0547477007,0.121094003
7200,0.297318012,0.0547477007,0.125
7201,0.297318012,0.0547477007,0.128905997
7202,0.297318012,0.0547477007,0.132811993
7203,0.297318012,0.0547477007,0.136719003
7204,0.297318012,0.0547477007,0.140625
7205,0.297318012,0.0547477007,0.144530997
7206,0.297318012,0.0547477007,0.148436993
7207,0.297318012,0.0547477007,0.152344003
7208,0.297318012,0.0547477007,0.15625
7209,0.297318012,0.0547477007,0.160155997
7210,0.297318012,0.0547477007,0.164061993
7211,0.297318012,0.0547477007,0.167969003
7212,0.297318012,0.0547477007,0.171875
7213,0.297318012,0.0547477007,0.175780997
7214,0.297318012,0.0547477007,0.179688007
7215,0.297318012,0.0547477007,0.183594003
7216,0.297318012,0.0547477007,0.1875
7217,0.297318012,0.0547477007,0.191405997
7218,0.297318012,0.0547477007,0.195313007
7219,0.297318012,0.0547477007,0.199219003
7220,0.297318012,0.0547477007,0.203125
7221,0.297318012,0.0547477007,0.207030997
7222,0.297318012,0.0547477007,0.210936993
7223,0.297318012,0.0547477007,0.214844003
7224,0.297318012,0.0547477007,0.21875
7225,0.297318012,0.0547477007,0.222655997
7226,0.297318012,0.0547477007,0.226563007
7227,0.297318012,0.0547477007,0.230469003
7228,0.297318012,0.0547477007,0.234375
7229,0.297318012,0.0547477007,0.238280997
7230,0.297318012,0.0547477007,0.242186993
7231,0.297318012,0.0547477007,0.246094003
7232,0.297318012,0.0547477007,0.25
7233,0.297318012,0.0547477007,0.253906012
7234,0.297318012,0.0547477007,0.257813007
7235,0.297318012,0.0547477007,0.261718988
7236,0.297318012,0.0547477007,0.265625
7237,0.297318012,0.0547477007,0.269531012
7238,0.297318012,0.0547477007,0.273436993
7239,0.297318012,0.0547477007,0.277343988
7240,0.297318012,0.0547477007,0.28125
7241,0.297318012,0.0547477007,0.285156012
7242,0.297318012,0.0547477007,0.289061993
7243,0.297318012,0.0547477007,0.292968988
7244,0.297318012,0.0547477007,0.296875
7245,0.297318012,0.0547477007,0.300781012
7246,0.297318012,0.0547477007,0.304688007
7247,0.297318012,0.0547477007,0.308593988
7248,0.297318012,0.0547477007,0.3125
7249,0.297318012,0.0547477007,0.316406012
7250,0.297318012,0.0547477007,0.320313007
7251,0.297318012,0.0547477007,0.324218988
7252,0.297318012,0.0547477007,0.328125
7253,0.297318012,0.0547477007,0.332031012
7254,0.297318012,0.0547477007,0.335936993
7255,0.297318012,0.0547477007,0.339843988
7256,0.297318012,0.0547477007,0.34375
7257,0.297318012,0.0547477007,0.347656012
7258,0.297318012,0.0547477007,0.351561993
7259,0.297318012,0.0547477007,0.355468988
7260,0.297318012,0.0547477007,0.359375
7261,0.297318012,0.0547477007,0.363281012
7262,0.297318012,0.0547477007,0.367186993
7263,0.297318012,0.0547477007,0.371093988
7264,0.297318012,0.0547477007,0.375
7265,0.297318012,0.0547477007,0.378906012
7266,0.297318012,0.0547477007,0.382813007
7267,0.297318012,0.0547477007,0.386718988
7268,0.297318012,0.0547477007,0.390625
*ELEMENT, TYPE=S3, ELSET=ALL_SHELL
1,1041,833,1252
2,1252,1249,1041
3,1042,1250,1251
4,1251,834,1042
5,1241,1252,833
6,833,938,1241
7,1249,1252,1363
8,1363,1360,1249
9,1242,939,834
10,834,1251,1242
11,1250,1361,1362
12,1362,1251,1250
13,832,937,1042
14,1042,624,832
15,833,1041,623
16,623,625,833
17,831,623,1041
18,1041,936,831
19,2723,2827,2516
20,2516,2619,2723
21,834,626,624
22,624,1042,834
23,2724,2618,2515
24,2515,2826,2724
25,937,1044,1250
26,1250,1042,937
27,1679,1676,1467
28,1467,1487,1679
29,936,1041,1249
30,1249,1043,936
31,2619,2516,2307
32,2307,2411,2619
33,1678,1486,1468
34,1468,1677,1678
35,2618,2410,2308
36,2308,2515,2618
37,4182,4077,4079
38,4184,4185,4182
39,4182,4079,4184
40,4181,4321,4183
41,4183,4078,4181
42,4078,4076,4181
43,104,207,209
44,209,103,104
45,413,209,514
46,514,415,413
47,625,728,938
48,938,833,625
49,415,514,625
50,625,623,415
51,2930,2828,2621
52,2621,2722,2930
53,3453,3450,3242
54,3242,3347,3453
55,3450,3556,3141
56,3141,3242,3450
57,2722,2516,2827
58,2827,2930,2722
59,105,102,210
60,210,208,105
61,414,416,515
62,515,210,414
63,626,834,939
64,939,729,626
65,416,624,626
66,626,515,416
67,3454,3348,3245
68,3245,3452,3454
69,3452,3245,3142
70,3142,3451,3452
71,1044,1254,1361
72,1361,1250,1044
73,1360,1363,1487
74,1487,1467,1360
75,1358,1253,1360
76,1467,1469,1465
77,1467,1465,1358
78,1358,1360,1467
79,1885,1882,1680
80,1680,1675,1885
81,1043,1249,1360
82,1360,1253,1043
83,2513,2305,2722
84,2722,2621,2513
85,1882,1885,2091
86,2091,1985,1882
87,2516,2722,2305
88,2305,2307,2516
89,2411,2307,2299
90,2299,2303,2411
91,1361,1468,1486
92,1486,1362,1361
93,1883,1986,2090
94,2090,1884,1883
95,2300,2093,2090
96,2298,2302,2300
97,2300,2090,2298
98,2410,2302,2298
99,2298,2308,2410
100,3762,3764,3452
101,3452,3451,3762
102,3972,4079,4077
103,4077,3869,3972
104,3556,3450,3763
105,3763,3761,3556
106,3971,3866,4076
107,4076,4078,3971
108,3351,3563,3562
109,3562,3350,3351
110,3367,3579,3578
111,3578,3366,3367
112,3595,3594,3382
113,3382,3383,3595
114,3610,3398,3399
115,3399,3611,3610
116,3415,3627,3626
117,3626,3414,3415
118,3431,3643,3642
119,3642,3430,3431
120,3659,3658,3446
121,3446,3447,3659
122,84,82,313
123,313,314,84
124,328,329,7
125,7,6,328
126,3351,3350,3144
127,3144,3145,3351
128,3365,3159,3160
129,3160,3366,3365
130,8,7,329
131,329,330,8
132,22,344,345
133,345,23,22
134,3367,3366,3160
135,3160,3161,3367
136,3176,3382,3381
137,3381,3175,3176
138,24,23,345
139,345,346,24
140,39,38,360
141,360,361,39
142,3383,3382,3176
143,3176,3177,3383
144,3192,3398,3397
145,3397,3191,3192
146,361,362,40
147,40,39,361
148,55,54,376
149,376,377,55
150,3398,3192,3193
151,3193,3399,3398
152,3208,3414,3413
153,3413,3207,3208
154,377,378,56
155,56,55,377
156,71,70,392
157,392,393,71
158,3415,3414,3208
159,3208,3209,3415
160,3224,3430,3429
161,3429,3223,3224
162,72,71,393
163,393,394,72
164,85,408,409
165,409,83,85
166,3225,3431,3430
167,3430,3224,3225
168,3240,3446,3445
169,3445,3239,3240
170,82,80,312
171,312,313,82
172,3144,3350,3349
173,3349,3143,3144
174,3365,3366,3578
175,3578,3577,3365
176,3381,3382,3594
177,3594,3593,3381
178,3398,3610,3609
179,3609,3397,3398
180,3413,3414,3626
181,3626,3625,3413
182,3429,3430,3642
183,3642,3641,3429
184,3445,3446,3658
185,3658,3657,3445
186,83,409,410
187,410,81,83
188,3241,3447,3446
189,3446,3240,3241
190,98,96,320
191,320,321,98
192,100,98,321
193,321,322,100
194,3152,3358,3357
195,3357,3151,3152
196,3359,3358,3152
197,3152,3153,3359
198,336,337,15
199,15,14,336
200,337,338,16
201,16,15,337
202,3168,3374,3373
203,3373,3167,3168
204,3375,3374,3168
205,3168,3169,3375
206,31,30,352
207,352,353,31
208,32,31,353
209,353,354,32
210,3184,3390,3389
211,3389,3183,3184
212,3391,3390,3184
213,3184,3185,3391
214,47,46,368
215,368,369,47
216,48,47,369
217,369,370,48
218,3200,3406,3405
219,3405,3199,3200
220,3407,3406,3200
221,3200,3201,3407
222,384,385,63
223,63,62,384
224,64,63,385
225,385,386,64
226,3215,3216,3422
227,3422,3421,3215
228,3423,3422,3216
229,3216,3217,3423
230,101,400,401
231,401,99,101
232,99,401,402
233,402,97,99
234,3437,3231,3232
235,3232,3438,3437
236,3439,3438,3232
237,3232,3233,3439
238,3349,3350,3562
239,3562,3561,3349
240,3570,3569,3357
241,3357,3358,3570
242,3373,3374,3586
243,3586,3585,3373
244,3602,3601,3389
245,3389,3390,3602
246,3618,3617,3405
247,3405,3406,3618
248,3634,3633,3421
249,3421,3422,3634
250,3437,3438,3650
251,3650,3649,3437
252,90,88,316
253,316,317,90
254,2727,2726,2518
255,2518,2519,2727
256,2522,2730,2729
257,2729,2521,2522
258,4,3,325
259,325,326,4
260,2741,2533,2534
261,2534,2742,2741
262,2530,2531,2739
263,2739,2738,2530
264,2838,2630,2629
265,2629,2837,2838
266,3526,3528,3250
267,3250,3249,3526
268,3148,3354,3353
269,3353,3147,3148
270,2627,2626,2834
271,2834,2835,2627
272,3532,3534,3253
273,3253,3252,3532
274,2847,2639,2638
275,2638,2846,2847
276,3363,3362,3156
277,3156,3157,3363
278,3457,3458,3265
279,3265,3264,3457
280,3550,3552,3262
281,3262,3261,3550
282,2850,2642,2641
283,2641,2849,2850
284,332,333,11
285,11,10,332
286,2534,2535,2743
287,2743,2742,2534
288,2745,2537,2538
289,2538,2746,2745
290,20,19,341
291,341,342,20
292,2550,2758,2757
293,2757,2549,2550
294,2546,2547,2755
295,2755,2754,2546
296,2854,2646,2645
297,2645,2853,2854
298,3265,3458,3459
299,3459,3266,3265
300,3164,3370,3369
301,3369,3163,3164
302,3461,3462,3269
303,3269,3268,3461
304,2643,2642,2850
305,2850,2851,2643
306,2655,2654,2862
307,2862,2863,2655
308,3379,3378,3172
309,3172,3173,3379
310,3473,3474,3281
311,3281,3280,3473
312,3277,3470,3471
313,3471,3278,3277
314,2866,2658,2657
315,2657,2865,2866
316,26,348,349
317,349,27,26
318,2550,2551,2759
319,2759,2758,2550
320,2761,2553,2554
321,2554,2762,2761
322,36,35,357
323,357,358,36
324,2566,2774,2773
325,2773,2565,2566
326,2562,2563,2771
327,2771,2770,2562
328,2870,2662,2661
329,2661,2869,2870
330,3475,3282,3281
331,3281,3474,3475
332,3180,3386,3385
333,3385,3179,3180
334,3284,3477,3478
335,3478,3285,3284
336,2659,2658,2866
337,2866,2867,2659
338,2671,2670,2878
339,2878,2879,2671
340,3395,3394,3188
341,3188,3189,3395
342,3297,3296,3489
343,3489,3490,3297
344,3293,3486,3487
345,3487,3294,3293
346,2674,2673,2881
347,2881,2882,2674
348,43,42,364
349,364,365,43
350,2774,2566,2567
351,2567,2775,2774
352,2570,2778,2777
353,2777,2569,2570
354,52,51,373
355,373,374,52
356,2581,2582,2790
357,2790,2789,2581
358,2578,2579,2787
359,2787,2786,2578
360,2886,2678,2677
361,2677,2885,2886
362,3490,3491,3298
363,3298,3297,3490
364,3196,3402,3401
365,3401,3195,3196
366,3493,3494,3301
367,3301,3300,3493
368,2882,2883,2675
369,2675,2674,2882
370,2687,2686,2894
371,2894,2895,2687
372,3411,3410,3204
373,3204,3205,3411
374,3505,3506,3313
375,3313,3312,3505
376,3310,3309,3502
377,3502,3503,3310
378,2898,2690,2689
379,2689,2897,2898
380,59,58,380
381,380,381,59
382,2791,2790,2582
383,2582,2583,2791
384,2585,2586,2794
385,2794,2793,2585
386,68,67,389
387,389,390,68
388,2598,2806,2805
389,2805,2597,2598
390,2594,2595,2803
391,2803,2802,2594
392,2902,2694,2693
393,2693,2901,2902
394,3507,3314,3313
395,3313,3506,3507
396,3212,3418,3417
397,3417,3211,3212
398,3509,3510,3317
399,3317,3316,3509
400,2691,2690,2898
401,2898,2899,2691
402,2703,2702,2910
403,2910,2911,2703
404,3427,3426,3220
405,3220,3221,3427
406,3328,3521,3522
407,3522,3329,3328
408,3519,3326,3325
409,3325,3518,3519
410,2913,2914,2706
411,2706,2705,2913
412,75,74,396
413,396,397,75
414,2598,2599,2807
415,2807,2806,2598
416,2601,2602,2810
417,2810,2809,2601
418,91,405,406
419,406,89,91
420,2613,2517,2822
421,2822,2821,2613
422,2611,2819,2818
423,2818,2610,2611
424,2918,2710,2709
425,2709,2917,2918
426,3329,3522,3523
427,3523,3330,3329
428,3433,3227,3228
429,3228,3434,3433
430,3551,3333,3332
431,3332,3553,3551
432,2707,2706,2914
433,2914,2915,2707
434,2719,2718,2926
435,2926,2927,2719
436,3443,3442,3236
437,3236,3237,3443
438,3527,3345,3344
439,3344,3529,3527
440,3533,3342,3341
441,3341,3535,3533
442,2625,2929,2833
443,2833,2624,2625
444,3570,3358,3359
445,3359,3571,3570
446,3375,3587,3586
447,3586,3374,3375
448,3602,3390,3391
449,3391,3603,3602
450,3618,3406,3407
451,3407,3619,3618
452,3634,3422,3423
453,3423,3635,3634
454,3650,3438,3439
455,3439,3651,3650
456,92,90,317
457,317,318,92
458,2316,2311,2519
459,2519,2518,2316
460,2522,2521,2319
461,2319,2320,2522
462,2733,2525,2526
463,2526,2734,2733
464,2731,2730,2522
465,2522,2523,2731
466,2323,2324,2526
467,2526,2525,2323
468,2321,2523,2522
469,2522,2320,2321
470,3,2,324
471,324,325,3
472,2526,2527,2735
473,2735,2734,2526
474,2529,2530,2738
475,2738,2737,2529
476,2331,2332,2534
477,2534,2533,2331
478,2530,2328,2329
479,2329,2531,2530
480,2526,2324,2325
481,2325,2527,2526
482,2529,2327,2328
483,2328,2530,2529
484,2629,2630,2417
485,2417,2416,2629
486,2413,2626,2627
487,2627,2414,2413
488,2631,2630,2838
489,2838,2839,2631
490,3355,3354,3148
491,3148,3149,3355
492,3540,3542,3257
493,3257,3256,3540
494,3534,3536,3254
495,3254,3253,3534
496,2842,2634,2633
497,2633,2841,2842
498,2417,2630,2631
499,2631,2418,2417
500,2633,2634,2421
501,2421,2420,2633
502,2846,2638,2637
503,2637,2845,2846
504,3156,3362,3361
505,3361,3155,3156
506,3542,3544,3258
507,3258,3257,3542
508,3548,3550,3261
509,3261,3260,3548
510,2635,2634,2842
511,2842,2843,2635
512,2425,2638,2639
513,2639,2426,2425
514,2641,2642,2429
515,2429,2428,2641
516,2424,2637,2638
517,2638,2425,2424
518,2421,2634,2635
519,2635,2422,2421
520,12,11,333
521,333,334,12
522,2534,2332,2333
523,2333,2535,2534
524,2335,2336,2538
525,2538,2537,2335
526,2542,2750,2749
527,2749,2541,2542
528,2539,2747,2746
529,2746,2538,2539
530,2542,2541,2339
531,2339,2340,2542
532,2539,2538,2336
533,2336,2337,2539
534,19,18,340
535,340,341,19
536,2542,2543,2751
537,2751,2750,2542
538,2753,2545,2546
539,2546,2754,2753
540,2347,2348,2550
541,2550,2549,2347
542,2546,2344,2345
543,2345,2547,2546
544,2542,2340,2341
545,2341,2543,2542
546,2546,2545,2343
547,2343,2344,2546
548,2645,2646,2433
549,2433,2432,2645
550,2430,2429,2642
551,2642,2643,2430
552,2647,2646,2854
553,2854,2855,2647
554,3371,3370,3164
555,3164,3165,3371
556,3465,3466,3273
557,3273,3272,3465
558,3463,3270,3269
559,3269,3462,3463
560,2858,2650,2649
561,2649,2857,2858
562,2433,2646,2647
563,2647,2434,2433
564,2649,2650,2437
565,2437,2436,2649
566,2862,2654,2653
567,2653,2861,2862
568,3377,3171,3172
569,3172,3378,3377
570,3274,3273,3466
571,3466,3467,3274
572,3276,3469,3470
573,3470,3277,3276
574,2651,2650,2858
575,2858,2859,2651
576,2441,2654,2655
577,2655,2442,2441
578,2444,2657,2658
579,2658,2445,2444
580,2653,2654,2441
581,2441,2440,2653
582,2438,2437,2650
583,2650,2651,2438
584,28,27,349
585,349,350,28
586,2551,2550,2348
587,2348,2349,2551
588,2554,2553,2351
589,2351,2352,2554
590,2558,2766,2765
591,2765,2557,2558
592,2554,2555,2763
593,2763,2762,2554
594,2558,2557,2355
595,2355,2356,2558
596,2554,2352,2353
597,2353,2555,2554
598,35,34,356
599,356,357,35
600,2558,2559,2767
601,2767,2766,2558
602,2562,2770,2769
603,2769,2561,2562
604,2566,2565,2363
605,2363,2364,2566
606,2562,2360,2361
607,2361,2563,2562
608,2558,2356,2357
609,2357,2559,2558
610,2562,2561,2359
611,2359,2360,2562
612,2661,2662,2449
613,2449,2448,2661
614,2446,2445,2658
615,2658,2659,2446
616,2663,2662,2870
617,2870,2871,2663
618,3387,3386,3180
619,3180,3181,3387
620,3481,3482,3289
621,3289,3288,3481
622,3285,3478,3479
623,3479,3286,3285
624,2874,2666,2665
625,2665,2873,2874
626,2449,2662,2663
627,2663,2450,2449
628,2665,2666,2453
629,2453,2452,2665
630,2878,2670,2669
631,2669,2877,2878
632,3188,3394,3393
633,3393,3187,3188
634,3289,3482,3483
635,3483,3290,3289
636,3485,3486,3293
637,3293,3292,3485
638,2667,2666,2874
639,2874,2875,2667
640,2457,2670,2671
641,2671,2458,2457
642,2674,2461,2460
643,2460,2673,2674
644,2669,2670,2457
645,2457,2456,2669
646,2453,2666,2667
647,2667,2454,2453
648,44,43,365
649,365,366,44
650,2364,2365,2567
651,2567,2566,2364
652,2570,2569,2367
653,2367,2368,2570
654,2574,2782,2781
655,2781,2573,2574
656,2570,2571,2779
657,2779,2778,2570
658,2574,2573,2371
659,2371,2372,2574
660,2570,2368,2369
661,2369,2571,2570
662,51,50,372
663,372,373,51
664,2574,2575,2783
665,2783,2782,2574
666,2578,2786,2785
667,2785,2577,2578
668,2581,2379,2380
669,2380,2582,2581
670,2578,2376,2377
671,2377,2579,2578
672,2574,2372,2373
673,2373,2575,2574
674,2578,2577,2375
675,2375,2376,2578
676,2677,2678,2465
677,2465,2464,2677
678,2461,2674,2675
679,2675,2462,2461
680,2679,2678,2886
681,2886,2887,2679
682,3403,3402,3196
683,3196,3197,3403
684,3497,3498,3305
685,3305,3304,3497
686,3301,3494,3495
687,3495,3302,3301
688,2890,2682,2681
689,2681,2889,2890
690,2465,2678,2679
691,2679,2466,2465
692,2681,2682,2469
693,2469,2468,2681
694,2894,2686,2685
695,2685,2893,2894
696,3204,3410,3409
697,3409,3203,3204
698,3305,3498,3499
699,3499,3306,3305
700,3501,3502,3309
701,3309,3308,3501
702,2683,2682,2890
703,2890,2891,2683
704,2473,2686,2687
705,2687,2474,2473
706,2689,2690,2477
707,2477,2476,2689
708,2685,2686,2473
709,2473,2472,2685
710,2469,2682,2683
711,2683,2470,2469
712,60,59,381
713,381,382,60
714,2582,2380,2381
715,2381,2583,2582
716,2585,2383,2384
717,2384,2586,2585
718,2590,2798,2797
719,2797,2589,2590
720,2586,2587,2795
721,2795,2794,2586
722,2590,2589,2387
723,2387,2388,2590
724,2586,2384,2385
725,2385,2587,2586
726,67,66,388
727,388,389,67
728,2590,2591,2799
729,2799,2798,2590
730,2593,2594,2802
731,2802,2801,2593
732,2598,2597,2395
733,2395,2396,2598
734,2594,2392,2393
735,2393,2595,2594
736,2389,2591,2590
737,2590,2388,2389
738,2594,2593,2391
739,2391,2392,2594
740,2480,2693,2694
741,2694,2481,2480
742,2691,2478,2477
743,2477,2690,2691
744,2695,2694,2902
745,2902,2903,2695
746,3419,3418,3212
747,3212,3213,3419
748,3513,3514,3321
749,3321,3320,3513
750,3317,3510,3511
751,3511,3318,3317
752,2906,2698,2697
753,2697,2905,2906
754,2695,2482,2481
755,2481,2694,2695
756,2484,2697,2698
757,2698,2485,2484
758,2909,2910,2702
759,2702,2701,2909
760,3425,3219,3220
761,3220,3426,3425
762,3321,3514,3515
763,3515,3322,3321
764,3324,3517,3518
765,3518,3325,3324
766,2699,2698,2906
767,2906,2907,2699
768,2489,2702,2703
769,2703,2490,2489
770,2705,2706,2493
771,2493,2492,2705
772,2488,2701,2702
773,2702,2489,2488
774,2485,2698,2699
775,2699,2486,2485
776,76,75,397
777,397,398,76
778,2599,2598,2396
779,2396,2397,2599
780,2602,2601,2399
781,2399,2400,2602
782,2606,2814,2813
783,2813,2605,2606
784,2603,2811,2810
785,2810,2602,2603
786,2605,2403,2404
787,2404,2606,2605
788,2602,2400,2401
789,2401,2603,2602
790,93,404,405
791,405,91,93
792,2607,2815,2814
793,2814,2606,2607
794,2609,2610,2818
795,2818,2817,2609
796,2315,2517,2613
797,2613,2312,2315
798,2610,2408,2409
799,2409,2611,2610
800,2607,2606,2404
801,2404,2405,2607
802,2609,2407,2408
803,2408,2610,2609
804,2709,2710,2497
805,2497,2496,2709
806,2493,2706,2707
807,2707,2494,2493
808,2919,2711,2710
809,2710,2918,2919
810,3435,3434,3228
811,3228,3229,3435
812,3543,3337,3336
813,3336,3545,3543
814,3549,3334,3333
815,3333,3551,3549
816,2922,2714,2713
817,2713,2921,2922
818,2498,2497,2710
819,2710,2711,2498
820,2713,2714,2501
821,2501,2500,2713
822,2717,2925,2926
823,2926,2718,2717
824,3235,3236,3442
825,3442,3441,3235
826,3541,3338,3337
827,3337,3543,3541
828,3535,3341,3340
829,3340,3537,3535
830,2715,2714,2922
831,2922,2923,2715
832,2505,2718,2719
833,2719,2506,2505
834,2509,2625,2624
835,2624,2412,2509
836,2717,2718,2505
837,2505,2504,2717
838,2501,2714,2715
839,2715,2502,2501
840,508,510,314
841,314,313,508
842,510,512,315
843,315,314,510
844,3528,3526,3707
845,3707,3709,3528
846,3566,3565,3353
847,3353,3354,3566
848,3534,3532,3713
849,3713,3715,3534
850,428,429,330
851,330,329,428
852,430,331,330
853,330,429,430
854,3739,3741,3459
855,3459,3458,3739
856,3582,3581,3369
857,3369,3370,3582
858,3745,3747,3462
859,3462,3461,3745
860,346,345,444
861,444,445,346
862,445,446,347
863,347,346,445
864,3475,3474,3665
865,3665,3666,3475
866,3598,3597,3385
867,3385,3386,3598
868,3668,3669,3478
869,3478,3477,3668
870,460,461,362
871,362,361,460
872,462,363,362
873,362,461,462
874,3681,3682,3491
875,3491,3490,3681
876,3614,3613,3401
877,3401,3402,3614
878,3493,3684,3685
879,3685,3494,3493
880,476,477,378
881,378,377,476
882,478,379,378
883,378,477,478
884,3697,3698,3507
885,3507,3506,3697
886,3630,3629,3417
887,3417,3418,3630
888,3509,3700,3701
889,3701,3510,3509
890,493,394,393
891,393,492,493
892,394,493,494
893,494,395,394
894,3738,3523,3522
895,3522,3740,3738
896,3433,3434,3646
897,3646,3645,3433
898,3553,3734,3732
899,3732,3551,3553
900,86,84,314
901,314,315,86
902,6,5,327
903,327,328,6
904,3061,3058,3145
905,3145,3144,3061
906,3146,3352,3351
907,3351,3145,3146
908,3159,3365,3364
909,3364,3158,3159
910,3068,3069,3160
911,3160,3159,3068
912,330,331,9
913,9,8,330
914,344,22,21
915,21,343,344
916,3070,3161,3160
917,3160,3069,3070
918,3161,3162,3368
919,3368,3367,3161
920,3174,3175,3381
921,3381,3380,3174
922,3175,3084,3085
923,3085,3176,3175
924,346,347,25
925,25,24,346
926,359,360,38
927,38,37,359
928,3086,3177,3176
929,3176,3085,3086
930,3178,3384,3383
931,3383,3177,3178
932,3190,3191,3397
933,3397,3396,3190
934,3192,3191,3100
935,3100,3101,3192
936,362,363,41
937,41,40,362
938,375,376,54
939,54,53,375
940,3101,3102,3193
941,3193,3192,3101
942,3194,3400,3399
943,3399,3193,3194
944,3206,3207,3413
945,3413,3412,3206
946,3116,3117,3208
947,3208,3207,3116
948,378,379,57
949,57,56,378
950,391,392,70
951,70,69,391
952,3118,3209,3208
953,3208,3117,3118
954,3209,3210,3416
955,3416,3415,3209
956,3222,3223,3429
957,3429,3428,3222
958,3132,3133,3224
959,3224,3223,3132
960,394,395,73
961,73,72,394
962,87,407,408
963,408,85,87
964,3134,3225,3224
965,3224,3133,3134
966,3431,3225,3226
967,3226,3432,3431
968,3238,3239,3445
969,3445,3444,3238
970,3060,3240,3239
971,3239,3059,3060
972,2615,2518,2726
973,2726,2823,2615
974,3524,3526,3249
975,3249,3248,3524
976,2721,2832,2834
977,2834,2626,2721
978,420,321,320
979,320,419,420
980,418,419,320
981,320,319,418
982,3574,3362,3363
983,3363,3575,3574
984,3737,3739,3458
985,3458,3457,3737
986,3552,3550,3731
987,3731,3733,3552
988,436,337,336
989,336,435,436
990,434,435,336
991,336,335,434
992,3379,3591,3590
993,3590,3378,3379
994,3665,3474,3473
995,3473,3664,3665
996,3471,3470,3661
997,3661,3662,3471
998,452,353,352
999,352,451,452
1000,450,451,352
1001,352,351,450
1002,3606,3394,3395
1003,3395,3607,3606
1004,3490,3489,3680
1005,3680,3681,3490
1006,3487,3486,3677
1007,3677,3678,3487
1008,468,369,368
1009,368,467,468
1010,466,467,368
1011,368,367,466
1012,3622,3410,3411
1013,3411,3623,3622
1014,3697,3506,3505
1015,3505,3696,3697
1016,3694,3503,3502
1017,3502,3693,3694
1018,483,484,385
1019,385,384,483
1020,384,383,482
1021,482,483,384
1022,3638,3426,3427
1023,3427,3639,3638
1024,3740,3522,3521
1025,3521,3742,3740
1026,3746,3519,3518
1027,3518,3748,3746
1028,500,401,400
1029,400,499,500
1030,498,499,400
1031,400,399,498
1032,3443,3655,3654
1033,3654,3442,3443
1034,3529,3710,3708
1035,3708,3527,3529
1036,3535,3716,3714
1037,3714,3533,3535
1038,2822,2517,2614
1039,2614,2824,2822
1040,3525,3346,3345
1041,3345,3527,3525
1042,2622,2624,2833
1043,2833,2831,2622
1044,1478,1261,1262
1045,1262,1476,1478
1046,1480,1260,1261
1047,1261,1478,1480
1048,96,94,319
1049,319,320,96
1050,1266,1267,1490
1051,1490,1489,1266
1052,2100,1886,1887
1053,1887,2101,2100
1054,1891,1892,2106
1055,2106,2105,1891
1056,100,322,323
1057,323,1,100
1058,1498,1497,1274
1059,1274,1275,1498
1060,1276,1499,1498
1061,1498,1275,1276
1062,1493,1492,1269
1063,1269,1270,1493
1064,2114,2113,1899
1065,1899,1900,2114
1066,2108,1894,1895
1067,1895,2109,2108
1068,3150,3151,3357
1069,3357,3356,3150
1070,3045,3042,3152
1071,3152,3151,3045
1072,3154,3360,3359
1073,3359,3153,3154
1074,3042,2941,3153
1075,3153,3152,3042
1076,1500,1277,1278
1077,1278,1501,1500
1078,14,13,335
1079,335,336,14
1080,1283,1506,1505
1081,1505,1282,1283
1082,1506,1283,1284
1083,1284,1507,1506
1084,1902,1903,2117
1085,2117,2116,1902
1086,1907,1908,2122
1087,2122,2121,1907
1088,17,16,338
1089,338,339,17
1090,1291,1514,1513
1091,1513,1290,1291
1092,1514,1291,1292
1093,1292,1515,1514
1094,1509,1508,1285
1095,1285,1286,1509
1096,1284,1285,1508
1097,1508,1507,1284
1098,2130,2129,1915
1099,1915,1916,2130
1100,1910,1911,2125
1101,2125,2124,1910
1102,3166,3167,3373
1103,3373,3372,3166
1104,3076,3077,3168
1105,3168,3167,3076
1106,3170,3376,3375
1107,3375,3169,3170
1108,3078,3169,3168
1109,3168,3077,3078
1110,1517,1516,1293
1111,1293,1294,1517
1112,1292,1293,1516
1113,1516,1515,1292
1114,30,29,351
1115,351,352,30
1116,1298,1299,1522
1117,1522,1521,1298
1118,1918,1919,2133
1119,2133,2132,1918
1120,1923,1924,2138
1121,2138,2137,1923
1122,33,32,354
1123,354,355,33
1124,1530,1529,1306
1125,1306,1307,1530
1126,1531,1530,1307
1127,1307,1308,1531
1128,1525,1524,1301
1129,1301,1302,1525
1130,1931,1932,2146
1131,2146,2145,1931
1132,2140,1926,1927
1133,1927,2141,2140
1134,3182,3183,3389
1135,3389,3388,3182
1136,3092,3093,3184
1137,3184,3183,3092
1138,3186,3392,3391
1139,3391,3185,3186
1140,3094,3185,3184
1141,3184,3093,3094
1142,1533,1532,1309
1143,1309,1310,1533
1144,46,45,367
1145,367,368,46
1146,1314,1315,1538
1147,1538,1537,1314
1148,1316,1539,1538
1149,1538,1315,1316
1150,2148,1934,1935
1151,1935,2149,2148
1152,1939,1940,2154
1153,2154,2153,1939
1154,49,48,370
1155,370,371,49
1156,1546,1545,1322
1157,1322,1323,1546
1158,1324,1547,1546
1159,1546,1323,1324
1160,1541,1540,1317
1161,1317,1318,1541
1162,1316,1317,1540
1163,1540,1539,1316
1164,2162,2161,1947
1165,1947,1948,2162
1166,2156,1942,1943
1167,1943,2157,2156
1168,3198,3199,3405
1169,3405,3404,3198
1170,3108,3109,3200
1171,3200,3199,3108
1172,3202,3408,3407
1173,3407,3201,3202
1174,3110,3201,3200
1175,3200,3109,3110
1176,1325,1326,1549
1177,1549,1548,1325
1178,1548,1547,1324
1179,1324,1325,1548
1180,62,61,383
1181,383,384,62
1182,1554,1553,1330
1183,1330,1331,1554
1184,1950,1951,2165
1185,2165,2164,1950
1186,1955,1956,2170
1187,2170,2169,1955
1188,65,64,386
1189,386,387,65
1190,1562,1561,1338
1191,1338,1339,1562
1192,1340,1563,1562
1193,1562,1339,1340
1194,1557,1556,1333
1195,1333,1334,1557
1196,2178,2177,1963
1197,1963,1964,2178
1198,2172,1958,1959
1199,1959,2173,2172
1200,3421,3420,3214
1201,3214,3215,3421
1202,3215,3124,3125
1203,3125,3216,3215
1204,3218,3424,3423
1205,3423,3217,3218
1206,3126,3217,3216
1207,3216,3125,3126
1208,1565,1564,1341
1209,1341,1342,1565
1210,101,77,399
1211,399,400,101
1212,1346,1347,1570
1213,1570,1569,1346
1214,1348,1571,1570
1215,1570,1347,1348
1216,2180,1966,1967
1217,1967,2181,2180
1218,1971,1972,2186
1219,2186,2185,1971
1220,97,402,403
1221,403,95,97
1222,1479,1477,1354
1223,1354,1355,1479
1224,1481,1479,1355
1225,1355,1356,1481
1226,1572,1349,1350
1227,1350,1573,1572
1228,1349,1572,1571
1229,1571,1348,1349
1230,1979,1980,2194
1231,2194,2193,1979
1232,2188,1974,1975
1233,1975,2189,2188
1234,3231,3437,3436
1235,3436,3230,3231
1236,3043,3232,3231
1237,3231,2942,3043
1238,3234,3440,3439
1239,3439,3233,3234
1240,3046,3233,3232
1241,3232,3043,3046
1242,508,731,732
1243,732,510,508
1244,510,732,733
1245,733,512,510
1246,316,619,621
1247,621,317,316
1248,512,619,316
1249,316,315,512
1250,3566,3354,3355
1251,3355,3567,3566
1252,3542,3540,3721
1253,3721,3723,3542
1254,3536,3534,3715
1255,3715,3717,3536
1256,4711,4504,4216
1257,4503,4711,4216
1258,4216,4215,4503
1259,4714,4507,4219
1260,4506,4714,4219
1261,4219,4218,4506
1262,6863,6452,6453
1263,6453,6864,6863
1264,6871,6870,6459
1265,6459,6460,6871
1266,430,429,748
1267,748,749,430
1268,332,431,432
1269,432,333,332
1270,431,332,331
1271,331,430,431
1272,432,431,750
1273,750,751,432
1274,430,749,750
1275,750,431,430
1276,3371,3583,3582
1277,3582,3370,3371
1278,3753,3755,3466
1279,3466,3465,3753
1280,3747,3749,3463
1281,3463,3462,3747
1282,4727,4520,4232
1283,4519,4727,4232
1284,4232,4231,4519
1285,4730,4523,4235
1286,4522,4730,4235
1287,4235,4234,4522
1288,6895,6484,6485
1289,6485,6896,6895
1290,6903,6902,6491
1291,6491,6492,6903
1292,444,763,764
1293,764,445,444
1294,446,445,764
1295,764,765,446
1296,448,349,348
1297,348,447,448
1298,446,447,348
1299,348,347,446
1300,3598,3386,3387
1301,3387,3599,3598
1302,3481,3672,3673
1303,3673,3482,3481
1304,3479,3478,3669
1305,3669,3670,3479
1306,4743,4536,4248
1307,4535,4743,4248
1308,4248,4247,4535
1309,4746,4539,4251
1310,4538,4746,4251
1311,4251,4250,4538
1312,6927,6516,6517
1313,6517,6928,6927
1314,6935,6934,6523
1315,6523,6524,6935
1316,462,461,780
1317,780,781,462
1318,464,365,364
1319,364,463,464
1320,462,463,364
1321,364,363,462
1322,3614,3402,3403
1323,3403,3615,3614
1324,3497,3688,3689
1325,3689,3498,3497
1326,3495,3494,3685
1327,3685,3686,3495
1328,4759,4552,4264
1329,4551,4759,4264
1330,4264,4263,4551
1331,4762,4555,4267
1332,4554,4762,4267
1333,4267,4266,4554
1334,6959,6548,6549
1335,6549,6960,6959
1336,6555,6556,6967
1337,6967,6966,6555
1338,380,479,480
1339,480,381,380
1340,479,380,379
1341,379,478,479
1342,3631,3630,3418
1343,3418,3419,3631
1344,3756,3514,3513
1345,3513,3758,3756
1346,3511,3510,3701
1347,3701,3702,3511
1348,4568,4280,4279
1349,4279,4775,4568
1350,4279,4567,4775
1351,4571,4283,4282
1352,4282,4778,4571
1353,4282,4570,4778
1354,6991,6580,6581
1355,6581,6992,6991
1356,6999,6998,6587
1357,6587,6588,6999
1358,495,496,397
1359,397,396,495
1360,396,395,494
1361,494,495,396
1362,814,495,494
1363,494,813,814
1364,3435,3647,3646
1365,3646,3434,3435
1366,3545,3726,3724
1367,3724,3543,3545
1368,3551,3732,3730
1369,3730,3549,3551
1370,4584,4296,4295
1371,4295,4791,4584
1372,4295,4583,4791
1373,4794,4587,4299
1374,4586,4794,4299
1375,4299,4298,4586
1376,7023,6612,6613
1377,6613,7024,7023
1378,7031,7030,6619
1379,6619,6620,7031
1380,523,524,631
1381,631,630,523
1382,840,839,631
1383,631,632,840
1384,838,630,631
1385,631,839,838
1386,525,632,631
1387,631,524,525
1388,88,86,315
1389,315,316,88
1390,2519,2520,2728
1391,2728,2727,2519
1392,2520,2521,2729
1393,2729,2728,2520
1394,535,642,641
1395,641,534,535
1396,848,640,641
1397,641,849,848
1398,533,534,641
1399,641,640,533
1400,850,849,641
1401,641,642,850
1402,326,327,5
1403,5,4,326
1404,2533,2741,2740
1405,2740,2532,2533
1406,2532,2740,2739
1407,2739,2531,2532
1408,2629,2628,2836
1409,2836,2837,2629
1410,2838,2837,2946
1411,2946,2947,2838
1412,3061,2726,2727
1413,2727,3058,3061
1414,2944,2943,3249
1415,3249,3250,2944
1416,3528,3530,3251
1417,3251,3250,3528
1418,3353,3352,3146
1419,3146,3147,3353
1420,3053,3051,3148
1421,3148,3147,3053
1422,2627,2835,2836
1423,2836,2628,2627
1424,2834,2943,2944
1425,2944,2835,2834
1426,2946,3252,3253
1427,3253,2947,2946
1428,3530,3532,3252
1429,3252,3251,3530
1430,3053,2729,2730
1431,2730,3051,3053
1432,2846,2955,2956
1433,2956,2847,2846
1434,2639,2847,2848
1435,2848,2640,2639
1436,3158,3364,3363
1437,3363,3157,3158
1438,3156,3065,3066
1439,3066,3157,3156
1440,3069,3068,2741
1441,2741,2742,3069
1442,3457,3264,3263
1443,3263,3554,3457
1444,2958,3264,3265
1445,3265,2959,2958
1446,3261,3262,2956
1447,2956,2955,3261
1448,3552,3554,3263
1449,3263,3262,3552
1450,2848,2849,2641
1451,2641,2640,2848
1452,2850,2849,2958
1453,2958,2959,2850
1454,539,540,647
1455,647,646,539
1456,856,855,647
1457,647,648,856
1458,854,646,647
1459,647,855,854
1460,541,648,647
1461,647,540,541
1462,10,9,331
1463,331,332,10
1464,2536,2744,2743
1465,2743,2535,2536
1466,2537,2745,2744
1467,2744,2536,2537
1468,551,658,657
1469,657,550,551
1470,865,864,656
1471,656,657,865
1472,549,550,657
1473,657,656,549
1474,657,658,866
1475,866,865,657
1476,342,343,21
1477,21,20,342
1478,2548,2549,2757
1479,2757,2756,2548
1480,2548,2756,2755
1481,2755,2547,2548
1482,2854,2853,2962
1483,2962,2963,2854
1484,2645,2644,2852
1485,2852,2853,2645
1486,3070,3069,2742
1487,2742,2743,3070
1488,3267,3266,3459
1489,3459,3460,3267
1490,2960,2959,3265
1491,3265,3266,2960
1492,3369,3368,3162
1493,3162,3163,3369
1494,3163,3072,3073
1495,3073,3164,3163
1496,2962,3268,3269
1497,3269,2963,2962
1498,3461,3268,3267
1499,3267,3460,3461
1500,2643,2851,2852
1501,2852,2644,2643
1502,2960,2851,2850
1503,2850,2959,2960
1504,2745,2746,3073
1505,3073,3072,2745
1506,2862,2971,2972
1507,2972,2863,2862
1508,2863,2864,2656
1509,2656,2655,2863
1510,3174,3380,3379
1511,3379,3173,3174
1512,3173,3172,3081
1513,3081,3082,3173
1514,3085,3084,2757
1515,2757,2758,3085
1516,3279,3472,3473
1517,3473,3280,3279
1518,3281,2975,2974
1519,2974,3280,3281
1520,3278,2972,2971
1521,2971,3277,3278
1522,3471,3472,3279
1523,3279,3278,3471
1524,2864,2865,2657
1525,2657,2656,2864
1526,2974,2975,2866
1527,2866,2865,2974
1528,555,556,663
1529,663,662,555
1530,872,871,663
1531,663,664,872
1532,870,662,663
1533,663,871,870
1534,557,664,663
1535,663,556,557
1536,348,26,25
1537,25,347,348
1538,2552,2760,2759
1539,2759,2551,2552
1540,2553,2761,2760
1541,2760,2552,2553
1542,567,674,673
1543,673,566,567
1544,880,672,673
1545,673,881,880
1546,565,566,673
1547,673,672,565
1548,882,881,673
1549,673,674,882
1550,358,359,37
1551,37,36,358
1552,2564,2565,2773
1553,2773,2772,2564
1554,2564,2772,2771
1555,2771,2563,2564
1556,2870,2869,2978
1557,2978,2979,2870
1558,2661,2660,2868
1559,2868,2869,2661
1560,3086,3085,2758
1561,2758,2759,3086
1562,3282,3475,3476
1563,3476,3283,3282
1564,2976,2975,3281
1565,3281,3282,2976
1566,3385,3384,3178
1567,3178,3179,3385
1568,3180,3179,3088
1569,3088,3089,3180
1570,2978,3284,3285
1571,3285,2979,2978
1572,3477,3284,3283
1573,3283,3476,3477
1574,2659,2867,2868
1575,2868,2660,2659
1576,2866,2975,2976
1577,2976,2867,2866
1578,3088,2761,2762
1579,2762,3089,3088
1580,2878,2987,2988
1581,2988,2879,2878
1582,2671,2879,2880
1583,2880,2672,2671
1584,3190,3396,3395
1585,3395,3189,3190
1586,3188,3097,3098
1587,3098,3189,3188
1588,2774,3101,3100
1589,3100,2773,2774
1590,3295,3488,3489
1591,3489,3296,3295
1592,3297,2991,2990
1593,2990,3296,3297
1594,3293,3294,2988
1595,2988,2987,3293
1596,3487,3488,3295
1597,3295,3294,3487
1598,2880,2881,2673
1599,2673,2672,2880
1600,2882,2881,2990
1601,2990,2991,2882
1602,571,572,679
1603,679,678,571
1604,888,887,679
1605,679,680,888
1606,886,678,679
1607,679,887,886
1608,573,680,679
1609,679,572,573
1610,363,364,42
1611,42,41,363
1612,2568,2776,2775
1613,2775,2567,2568
1614,2568,2569,2777
1615,2777,2776,2568
1616,582,583,690
1617,690,689,582
1618,896,688,689
1619,689,897,896
1620,689,688,581
1621,581,582,689
1622,898,897,689
1623,689,690,898
1624,374,375,53
1625,53,52,374
1626,2789,2788,2580
1627,2580,2581,2789
1628,2580,2788,2787
1629,2787,2579,2580
1630,2886,2885,2994
1631,2994,2995,2886
1632,2677,2676,2884
1633,2884,2885,2677
1634,3101,2774,2775
1635,2775,3102,3101
1636,3299,3298,3491
1637,3491,3492,3299
1638,2991,3297,3298
1639,3298,2992,2991
1640,3401,3400,3194
1641,3194,3195,3401
1642,3196,3195,3104
1643,3104,3105,3196
1644,2994,3300,3301
1645,3301,2995,2994
1646,3493,3300,3299
1647,3299,3492,3493
1648,2675,2883,2884
1649,2884,2676,2675
1650,2882,2991,2992
1651,2992,2883,2882
1652,3104,2777,2778
1653,2778,3105,3104
1654,3004,2895,2894
1655,2894,3003,3004
1656,2687,2895,2896
1657,2896,2688,2687
1658,3206,3412,3411
1659,3411,3205,3206
1660,3114,3205,3204
1661,3204,3113,3114
1662,3116,2789,2790
1663,2790,3117,3116
1664,3311,3504,3505
1665,3505,3312,3311
1666,3312,3313,3007
1667,3007,3006,3312
1668,3309,3310,3004
1669,3004,3003,3309
1670,3503,3504,3311
1671,3311,3310,3503
1672,2896,2897,2689
1673,2689,2688,2896
1674,2897,3006,3007
1675,3007,2898,2897
1676,695,694,587
1677,587,588,695
1678,904,903,695
1679,695,696,904
1680,902,694,695
1681,695,903,902
1682,588,589,696
1683,696,695,588
1684,379,380,58
1685,58,57,379
1686,2583,2584,2792
1687,2792,2791,2583
1688,2793,2792,2584
1689,2584,2585,2793
1690,598,599,706
1691,706,705,598
1692,912,704,705
1693,705,913,912
1694,705,704,597
1695,597,598,705
1696,914,913,705
1697,705,706,914
1698,390,391,69
1699,69,68,390
1700,2596,2597,2805
1701,2805,2804,2596
1702,2596,2804,2803
1703,2803,2595,2596
1704,3010,3011,2902
1705,2902,2901,3010
1706,2693,2692,2900
1707,2900,2901,2693
1708,3118,3117,2790
1709,2790,2791,3118
1710,3314,3507,3508
1711,3508,3315,3314
1712,3008,3007,3313
1713,3313,3314,3008
1714,3417,3416,3210
1715,3210,3211,3417
1716,3120,3121,3212
1717,3212,3211,3120
1718,3010,3316,3317
1719,3317,3011,3010
1720,3509,3316,3315
1721,3315,3508,3509
1722,2691,2899,2900
1723,2900,2692,2691
1724,2899,2898,3007
1725,3007,3008,2899
1726,3120,2793,2794
1727,2794,3121,3120
1728,3020,2911,2910
1729,2910,3019,3020
1730,2911,2912,2704
1731,2704,2703,2911
1732,3222,3428,3427
1733,3427,3221,3222
1734,3220,3129,3130
1735,3130,3221,3220
1736,3133,3132,2805
1737,2805,2806,3133
1738,3521,3328,3327
1739,3327,3520,3521
1740,3329,3023,3022
1741,3022,3328,3329
1742,3020,3019,3325
1743,3325,3326,3020
1744,3326,3519,3520
1745,3520,3327,3326
1746,2705,2704,2912
1747,2912,2913,2705
1748,2914,2913,3022
1749,3022,3023,2914
1750,603,604,711
1751,711,710,603
1752,920,919,711
1753,711,712,920
1754,918,710,711
1755,711,919,918
1756,605,712,711
1757,711,604,605
1758,395,396,74
1759,74,73,395
1760,2600,2808,2807
1761,2807,2599,2600
1762,2809,2808,2600
1763,2600,2601,2809
1764,615,722,721
1765,721,614,615
1766,928,720,721
1767,721,929,928
1768,613,614,721
1769,721,720,613
1770,930,929,721
1771,721,722,930
1772,89,406,407
1773,407,87,89
1774,2612,2613,2821
1775,2821,2820,2612
1776,2819,2611,2612
1777,2612,2820,2819
1778,2917,3026,3027
1779,3027,2918,2917
1780,2709,2708,2916
1781,2916,2917,2709
1782,3134,3133,2806
1783,2806,2807,3134
1784,3523,3555,3331
1785,3331,3330,3523
1786,3024,3023,3329
1787,3329,3330,3024
1788,3227,3433,3432
1789,3432,3226,3227
1790,3228,3227,3136
1791,3136,3137,3228
1792,3026,3332,3333
1793,3333,3027,3026
1794,3553,3332,3331
1795,3331,3555,3553
1796,2915,2916,2708
1797,2708,2707,2915
1798,3024,2915,2914
1799,2914,3023,3024
1800,3136,2809,2810
1801,2810,3137,3136
1802,2927,2926,3035
1803,3035,3036,2927
1804,2719,2927,2928
1805,2928,2720,2719
1806,3238,3444,3443
1807,3443,3237,3238
1808,3054,3237,3236
1809,3236,3052,3054
1810,3060,3059,2821
1811,2821,2822,3060
1812,3529,3344,3343
1813,3343,3531,3529
1814,3040,3038,3344
1815,3344,3345,3040
1816,3342,3036,3035
1817,3035,3341,3342
1818,3531,3343,3342
1819,3342,3533,3531
1820,2929,2625,2720
1821,2720,2928,2929
1822,3038,3040,2833
1823,2833,2929,3038
1824,2316,2518,2615
1825,2615,2313,2316
1826,2626,2413,2508
1827,2508,2721,2626
1828,1366,1367,1146
1829,1146,1247,1366
1830,317,621,417
1831,417,318,317
1832,418,319,318
1833,318,417,418
1834,735,736,417
1835,417,621,735
1836,418,417,736
1837,736,737,418
1838,1151,1150,1371
1839,1371,1372,1151
1840,1150,1149,1370
1841,1370,1371,1150
1842,3361,3362,3574
1843,3574,3573,3361
1844,3544,3542,3723
1845,3723,3725,3544
1846,3550,3548,3729
1847,3729,3731,3550
1848,4511,4223,4222
1849,4222,4718,4511
1850,4222,4510,4718
1851,4715,4508,4220
1852,4507,4715,4220
1853,4220,4219,4507
1854,6895,6894,6483
1855,6483,6484,6895
1856,6887,6476,6477
1857,6477,6888,6887
1858,1382,1383,1162
1859,1162,1161,1382
1860,334,333,432
1861,432,433,334
1862,433,434,335
1863,335,334,433
1864,434,753,754
1865,754,435,434
1866,752,433,432
1867,432,751,752
1868,433,752,753
1869,753,434,433
1870,1167,1166,1387
1871,1387,1388,1167
1872,1166,1165,1386
1873,1386,1387,1166
1874,3377,3378,3590
1875,3590,3589,3377
1876,3755,3757,3467
1877,3467,3466,3755
1878,3660,3661,3470
1879,3470,3469,3660
1880,4734,4527,4239
1881,4526,4734,4239
1882,4239,4238,4526
1883,4524,4236,4235
1884,4235,4731,4524
1885,4235,4523,4731
1886,6927,6926,6515
1887,6515,6516,6927
1888,6919,6508,6509
1889,6509,6920,6919
1890,1398,1399,1178
1891,1178,1177,1398
1892,448,449,350
1893,350,349,448
1894,450,351,350
1895,350,449,450
1896,452,451,770
1897,770,771,452
1898,450,769,770
1899,770,451,450
1900,448,767,768
1901,768,449,448
1902,450,449,768
1903,768,769,450
1904,1183,1182,1403
1905,1403,1404,1183
1906,1182,1181,1402
1907,1402,1403,1182
1908,3393,3394,3606
1909,3606,3605,3393
1910,3483,3482,3673
1911,3673,3674,3483
1912,3677,3486,3485
1913,3485,3676,3677
1914,4750,4543,4255
1915,4542,4750,4255
1916,4255,4254,4542
1917,4747,4540,4252
1918,4539,4747,4252
1919,4252,4251,4539
1920,6548,6959,6958
1921,6958,6547,6548
1922,6951,6540,6541
1923,6541,6952,6951
1924,1194,1193,1414
1925,1414,1415,1194
1926,464,465,366
1927,366,365,464
1928,466,367,366
1929,366,465,466
1930,466,785,786
1931,786,467,466
1932,464,783,784
1933,784,465,464
1934,466,465,784
1935,784,785,466
1936,1198,1197,1418
1937,1418,1419,1198
1938,3409,3410,3622
1939,3622,3621,3409
1940,3499,3498,3689
1941,3689,3690,3499
1942,3693,3502,3501
1943,3501,3692,3693
1944,4766,4559,4271
1945,4558,4766,4271
1946,4271,4270,4558
1947,4763,4556,4268
1948,4555,4763,4268
1949,4268,4267,4555
1950,6991,6990,6579
1951,6579,6580,6991
1952,6983,6572,6573
1953,6573,6984,6983
1954,480,481,382
1955,382,381,480
1956,482,383,382
1957,382,481,482
1958,482,801,802
1959,802,483,482
1960,481,800,801
1961,801,482,481
1962,3425,3426,3638
1963,3638,3637,3425
1964,3754,3515,3514
1965,3514,3756,3754
1966,3748,3518,3517
1967,3517,3750,3748
1968,4575,4287,4286
1969,4286,4782,4575
1970,4286,4574,4782
1971,4779,4572,4284
1972,4571,4779,4284
1973,4284,4283,4571
1974,7023,7022,6611
1975,6611,6612,7023
1976,7015,6604,6605
1977,6605,7016,7015
1978,1227,1226,1447
1979,1447,1448,1227
1980,496,497,398
1981,398,397,496
1982,498,399,398
1983,398,497,498
1984,1229,1450,1451
1985,1451,1230,1229
1986,3653,3441,3442
1987,3442,3654,3653
1988,3543,3724,3722
1989,3722,3541,3543
1990,3537,3718,3716
1991,3716,3535,3537
1992,4798,4591,4303
1993,4590,4798,4303
1994,4303,4302,4590
1995,4795,4588,4300
1996,4587,4795,4300
1997,4300,4299,4587
1998,7055,7054,6643
1999,6643,6644,7055
2000,7047,6636,6637
2001,6637,7048,7047
2002,2315,2314,2614
2003,2614,2517,2315
2004,2510,2412,2624
2005,2624,2622,2510
2006,1262,1048,1049
2007,1049,1263,1262
2008,840,1050,1049
2009,1049,839,840
2010,838,839,1049
2011,1049,1048,838
2012,1264,1263,1049
2013,1049,1050,1264
2014,1476,1262,1263
2015,1263,1474,1476
2016,1474,1263,1264
2017,1264,1472,1474
2018,527,634,633
2019,633,526,527
2020,840,632,633
2021,633,841,840
2022,525,526,633
2023,633,632,525
2024,842,841,633
2025,633,634,842
2026,94,92,318
2027,318,319,94
2028,1266,1265,1051
2029,1051,1052,1266
2030,840,841,1051
2031,1051,1050,840
2032,1264,1050,1051
2033,1051,1265,1264
2034,842,1052,1051
2035,1051,841,842
2036,1489,1488,1265
2037,1265,1266,1489
2038,2311,2309,2520
2039,2520,2519,2311
2040,2311,2100,2101
2041,2101,2309,2311
2042,1887,1888,2102
2043,2102,2101,1887
2044,2520,2309,2319
2045,2319,2521,2520
2046,2525,2733,2732
2047,2732,2524,2525
2048,2523,2524,2732
2049,2732,2731,2523
2050,2104,1890,1891
2051,1891,2105,2104
2052,2324,2323,2106
2053,2106,2107,2324
2054,2525,2524,2322
2055,2322,2323,2525
2056,2321,2320,2103
2057,2103,2104,2321
2058,2523,2321,2322
2059,2322,2524,2523
2060,2322,2321,2104
2061,2104,2105,2322
2062,531,532,639
2063,639,638,531
2064,847,639,640
2065,640,848,847
2066,533,640,639
2067,639,532,533
2068,639,847,846
2069,846,638,639
2070,2,1,323
2071,323,324,2
2072,1274,1273,1059
2073,1059,1060,1274
2074,848,849,1059
2075,1059,1058,848
2076,850,1060,1059
2077,1059,849,850
2078,1272,1058,1059
2079,1059,1273,1272
2080,1497,1496,1273
2081,1273,1274,1497
2082,1272,1273,1496
2083,1496,1495,1272
2084,1270,1056,1057
2085,1057,1271,1270
2086,847,848,1058
2087,1058,1057,847
2088,1057,1056,846
2089,846,847,1057
2090,1272,1271,1057
2091,1057,1058,1272
2092,1270,1271,1494
2093,1494,1493,1270
2094,1272,1495,1494
2095,1494,1271,1272
2096,2528,2736,2735
2097,2735,2527,2528
2098,2737,2736,2528
2099,2528,2529,2737
2100,2331,2114,2115
2101,2115,2332,2331
2102,2533,2532,2330
2103,2330,2331,2533
2104,2112,1898,1899
2105,1899,2113,2112
2106,2532,2531,2329
2107,2329,2330,2532
2108,2329,2328,2111
2109,2111,2112,2329
2110,2330,2329,2112
2111,2112,2113,2330
2112,2528,2527,2325
2113,2325,2326,2528
2114,1895,1896,2110
2115,2110,2109,1895
2116,2327,2529,2528
2117,2528,2326,2327
2118,2328,2327,2110
2119,2110,2111,2328
2120,2327,2326,2109
2121,2109,2110,2327
2122,2280,2415,2416
2123,2416,2282,2280
2124,2415,2628,2629
2125,2629,2416,2415
2126,2415,2414,2627
2127,2627,2628,2415
2128,2948,2839,2838
2129,2838,2947,2948
2130,2631,2839,2840
2131,2840,2632,2631
2132,3150,3356,3355
2133,3355,3149,3150
2134,3051,3049,3149
2135,3149,3148,3051
2136,3538,3540,3256
2137,3256,3255,3538
2138,3257,2951,2950
2139,2950,3256,3257
2140,3253,3254,2948
2141,2948,2947,3253
2142,3536,3538,3255
2143,3255,3254,3536
2144,3051,2730,2731
2145,2731,3049,3051
2146,2840,2841,2633
2147,2633,2632,2840
2148,2842,2841,2950
2149,2950,2951,2842
2150,2286,2418,2419
2151,2419,2288,2286
2152,2419,2418,2631
2153,2631,2632,2419
2154,2288,2419,2420
2155,2420,2290,2288
2156,2633,2420,2419
2157,2419,2632,2633
2158,1159,1158,1379
2159,1379,1380,1159
2160,1154,1153,1374
2161,1374,1375,1154
2162,2954,2955,2846
2163,2846,2845,2954
2164,2637,2636,2844
2165,2844,2845,2637
2166,3154,3155,3361
2167,3361,3360,3154
2168,3155,2935,3065
2169,3065,3156,3155
2170,3042,2734,2735
2171,2735,2941,3042
2172,3544,3546,3259
2173,3259,3258,3544
2174,3258,2952,2951
2175,2951,3257,3258
2176,2954,3260,3261
2177,3261,2955,2954
2178,3546,3548,3260
2179,3260,3259,3546
2180,2635,2843,2844
2181,2844,2636,2635
2182,2843,2842,2951
2183,2951,2952,2843
2184,2426,2427,2200
2185,2200,2199,2426
2186,2427,2426,2639
2187,2639,2640,2427
2188,2428,2427,2640
2189,2640,2641,2428
2190,2423,2424,2197
2191,2197,2296,2423
2192,2637,2424,2423
2193,2423,2636,2637
2194,2424,2425,2198
2195,2198,2197,2424
2196,2294,2422,2423
2197,2423,2296,2294
2198,2635,2636,2423
2199,2423,2422,2635
2200,1278,1064,1065
2201,1065,1279,1278
2202,856,1066,1065
2203,1065,855,856
2204,854,855,1065
2205,1065,1064,854
2206,1280,1279,1065
2207,1065,1066,1280
2208,1502,1501,1278
2209,1278,1279,1502
2210,543,650,649
2211,649,542,543
2212,856,648,649
2213,649,857,856
2214,541,542,649
2215,649,648,541
2216,858,857,649
2217,649,650,858
2218,13,12,334
2219,334,335,13
2220,1282,1281,1067
2221,1067,1068,1282
2222,856,857,1067
2223,1067,1066,856
2224,1280,1066,1067
2225,1067,1281,1280
2226,858,1068,1067
2227,1067,857,858
2228,1282,1505,1504
2229,1504,1281,1282
2230,1280,1281,1504
2231,1504,1503,1280
2232,2333,2332,2115
2233,2115,2116,2333
2234,2536,2535,2333
2235,2333,2334,2536
2236,2118,2117,1903
2237,1903,1904,2118
2238,2537,2536,2334
2239,2334,2335,2537
2240,2118,2335,2334
2241,2334,2117,2118
2242,2540,2541,2749
2243,2749,2748,2540
2244,2747,2539,2540
2245,2540,2748,2747
2246,1906,1907,2121
2247,2121,2120,1906
2248,2540,2338,2339
2249,2339,2541,2540
2250,2337,2338,2540
2251,2540,2539,2337
2252,2337,2120,2121
2253,2121,2338,2337
2254,655,654,547
2255,547,548,655
2256,864,863,655
2257,655,656,864
2258,548,549,656
2259,656,655,548
2260,862,654,655
2261,655,863,862
2262,18,17,339
2263,339,340,18
2264,1290,1289,1075
2265,1075,1076,1290
2266,864,865,1075
2267,1075,1074,864
2268,866,1076,1075
2269,1075,865,866
2270,1288,1074,1075
2271,1075,1289,1288
2272,1513,1512,1289
2273,1289,1290,1513
2274,1286,1072,1073
2275,1073,1287,1286
2276,864,1074,1073
2277,1073,863,864
2278,862,863,1073
2279,1073,1072,862
2280,1288,1287,1073
2281,1073,1074,1288
2282,1510,1509,1286
2283,1286,1287,1510
2284,1288,1511,1510
2285,1510,1287,1288
2286,2544,2752,2751
2287,2751,2543,2544
2288,2545,2753,2752
2289,2752,2544,2545
2290,2347,2130,2131
2291,2131,2348,2347
2292,2549,2548,2346
2293,2346,2347,2549
2294,2130,2347,2346
2295,2346,2129,2130
2296,1914,1915,2129
2297,2129,2128,1914
2298,2548,2547,2345
2299,2345,2346,2548
2300,2544,2543,2341
2301,2341,2342,2544
2302,1911,1912,2126
2303,2126,2125,1911
2304,2544,2342,2343
2305,2343,2545,2544
2306,2126,2127,2344
2307,2344,2343,2126
2308,2343,2342,2125
2309,2125,2126,2343
2310,2431,2432,2205
2311,2205,2204,2431
2312,2431,2644,2645
2313,2645,2432,2431
2314,2206,2205,2432
2315,2432,2433,2206
2316,2643,2644,2431
2317,2431,2430,2643
2318,2964,2855,2854
2319,2854,2963,2964
2320,2647,2855,2856
2321,2856,2648,2647
2322,3166,3372,3371
2323,3371,3165,3166
2324,3165,3164,3073
2325,3073,3074,3165
2326,3077,3076,2749
2327,2749,2750,3077
2328,3271,3464,3465
2329,3465,3272,3271
2330,2966,3272,3273
2331,3273,2967,2966
2332,3269,3270,2964
2333,2964,2963,3269
2334,3270,3463,3464
2335,3464,3271,3270
2336,3074,3073,2746
2337,2746,2747,3074
2338,2856,2857,2649
2339,2649,2648,2856
2340,2858,2857,2966
2341,2966,2967,2858
2342,2435,2208,2207
2343,2207,2434,2435
2344,2435,2434,2647
2345,2647,2648,2435
2346,2435,2436,2209
2347,2209,2208,2435
2348,2649,2436,2435
2349,2435,2648,2649
2350,1170,1169,1390
2351,1390,1391,1170
2352,2970,2971,2862
2353,2862,2861,2970
2354,2653,2652,2860
2355,2860,2861,2653
2356,3171,3377,3376
2357,3376,3170,3171
2358,3080,3081,3172
2359,3172,3171,3080
2360,3078,3077,2750
2361,2750,2751,3078
2362,3467,3468,3275
2363,3275,3274,3467
2364,3274,2968,2967
2365,2967,3273,3274
2366,2970,3276,3277
2367,3277,2971,2970
2368,3469,3276,3275
2369,3275,3468,3469
2370,2651,2859,2860
2371,2860,2652,2651
2372,2858,2967,2968
2373,2968,2859,2858
2374,2443,2216,2215
2375,2215,2442,2443
2376,2443,2442,2655
2377,2655,2656,2443
2378,2657,2444,2443
2379,2443,2656,2657
2380,2439,2440,2213
2381,2213,2212,2439
2382,2439,2652,2653
2383,2653,2440,2439
2384,2211,2438,2439
2385,2439,2212,2211
2386,2651,2652,2439
2387,2439,2438,2651
2388,1294,1080,1081
2389,1081,1295,1294
2390,871,872,1082
2391,1082,1081,871
2392,1081,1080,870
2393,870,871,1081
2394,1296,1295,1081
2395,1081,1082,1296
2396,1518,1517,1294
2397,1294,1295,1518
2398,1296,1519,1518
2399,1518,1295,1296
2400,559,666,665
2401,665,558,559
2402,872,664,665
2403,665,873,872
2404,557,558,665
2405,665,664,557
2406,874,873,665
2407,665,666,874
2408,29,28,350
2409,350,351,29
2410,1298,1297,1083
2411,1083,1084,1298
2412,872,873,1083
2413,1083,1082,872
2414,1296,1082,1083
2415,1083,1297,1296
2416,874,1084,1083
2417,1083,873,874
2418,1521,1520,1297
2419,1297,1298,1521
2420,2349,2350,2552
2421,2552,2551,2349
2422,2349,2132,2133
2423,2133,2350,2349
2424,2134,2133,1919
2425,1919,1920,2134
2426,2552,2350,2351
2427,2351,2553,2552
2428,2556,2557,2765
2429,2765,2764,2556
2430,2556,2764,2763
2431,2763,2555,2556
2432,2136,1922,1923
2433,1923,2137,2136
2434,2356,2355,2138
2435,2138,2139,2356
2436,2556,2354,2355
2437,2355,2557,2556
2438,2353,2352,2135
2439,2135,2136,2353
2440,2556,2555,2353
2441,2353,2354,2556
2442,2354,2353,2136
2443,2136,2137,2354
2444,563,564,671
2445,671,670,563
2446,880,879,671
2447,671,672,880
2448,565,672,671
2449,671,564,565
2450,878,670,671
2451,671,879,878
2452,34,33,355
2453,355,356,34
2454,1306,1305,1091
2455,1091,1092,1306
2456,880,881,1091
2457,1091,1090,880
2458,882,1092,1091
2459,1091,881,882
2460,1304,1090,1091
2461,1091,1305,1304
2462,1529,1528,1305
2463,1305,1306,1529
2464,1304,1305,1528
2465,1528,1527,1304
2466,1302,1088,1089
2467,1089,1303,1302
2468,880,1090,1089
2469,1089,879,880
2470,878,879,1089
2471,1089,1088,878
2472,1304,1303,1089
2473,1089,1090,1304
2474,1302,1303,1526
2475,1526,1525,1302
2476,1304,1527,1526
2477,1526,1303,1304
2478,2560,2768,2767
2479,2767,2559,2560
2480,2560,2561,2769
2481,2769,2768,2560
2482,2364,2363,2146
2483,2146,2147,2364
2484,2564,2362,2363
2485,2363,2565,2564
2486,2144,1930,1931
2487,1931,2145,2144
2488,2564,2563,2361
2489,2361,2362,2564
2490,2361,2360,2143
2491,2143,2144,2361
2492,2362,2361,2144
2493,2144,2145,2362
2494,2560,2559,2357
2495,2357,2358,2560
2496,1927,1928,2142
2497,2142,2141,1927
2498,2560,2358,2359
2499,2359,2561,2560
2500,2360,2359,2142
2501,2142,2143,2360
2502,2359,2358,2141
2503,2141,2142,2359
2504,2447,2448,2221
2505,2221,2220,2447
2506,2447,2660,2661
2507,2661,2448,2447
2508,2659,2660,2447
2509,2447,2446,2659
2510,2980,2871,2870
2511,2870,2979,2980
2512,2663,2871,2872
2513,2872,2664,2663
2514,3182,3388,3387
2515,3387,3181,3182
2516,3090,3181,3180
2517,3180,3089,3090
2518,3287,3480,3481
2519,3481,3288,3287
2520,3289,2983,2982
2521,2982,3288,3289
2522,3285,3286,2980
2523,2980,2979,3285
2524,3479,3480,3287
2525,3287,3286,3479
2526,3090,3089,2762
2527,2762,2763,3090
2528,2872,2873,2665
2529,2665,2664,2872
2530,2874,2873,2982
2531,2982,2983,2874
2532,2451,2224,2223
2533,2223,2450,2451
2534,2451,2450,2663
2535,2663,2664,2451
2536,2451,2452,2225
2537,2225,2224,2451
2538,2665,2452,2451
2539,2451,2664,2665
2540,1191,1190,1411
2541,1411,1412,1191
2542,1186,1185,1406
2543,1406,1407,1186
2544,2986,2987,2878
2545,2878,2877,2986
2546,2669,2668,2876
2547,2876,2877,2669
2548,3186,3187,3393
2549,3393,3392,3186
2550,3096,3097,3188
2551,3188,3187,3096
2552,3094,3093,2766
2553,2766,2767,3094
2554,3291,3290,3483
2555,3483,3484,3291
2556,2984,2983,3289
2557,3289,3290,2984
2558,2986,3292,3293
2559,3293,2987,2986
2560,3485,3292,3291
2561,3291,3484,3485
2562,2667,2875,2876
2563,2876,2668,2667
2564,2874,2983,2984
2565,2984,2875,2874
2566,2459,2232,2231
2567,2231,2458,2459
2568,2459,2458,2671
2569,2671,2672,2459
2570,2673,2460,2459
2571,2459,2672,2673
2572,2455,2456,2229
2573,2229,2228,2455
2574,2455,2668,2669
2575,2669,2456,2455
2576,2230,2229,2456
2577,2456,2457,2230
2578,2455,2228,2227
2579,2227,2454,2455
2580,2667,2668,2455
2581,2455,2454,2667
2582,1310,1096,1097
2583,1097,1311,1310
2584,888,1098,1097
2585,1097,887,888
2586,886,887,1097
2587,1097,1096,886
2588,1312,1311,1097
2589,1097,1098,1312
2590,1534,1533,1310
2591,1310,1311,1534
2592,575,682,681
2593,681,574,575
2594,888,680,681
2595,681,889,888
2596,573,574,681
2597,681,680,573
2598,890,889,681
2599,681,682,890
2600,45,44,366
2601,366,367,45
2602,1314,1313,1099
2603,1099,1100,1314
2604,888,889,1099
2605,1099,1098,888
2606,1312,1098,1099
2607,1099,1313,1312
2608,890,1100,1099
2609,1099,889,890
2610,1314,1537,1536
2611,1536,1313,1314
2612,1312,1313,1536
2613,1536,1535,1312
2614,2147,2148,2365
2615,2365,2364,2147
2616,2568,2567,2365
2617,2365,2366,2568
2618,1935,1936,2150
2619,2150,2149,1935
2620,2568,2366,2367
2621,2367,2569,2568
2622,2367,2366,2149
2623,2149,2150,2367
2624,2572,2573,2781
2625,2781,2780,2572
2626,2572,2780,2779
2627,2779,2571,2572
2628,2152,1938,1939
2629,1939,2153,2152
2630,2572,2370,2371
2631,2371,2573,2572
2632,2572,2571,2369
2633,2369,2370,2572
2634,2370,2369,2152
2635,2152,2153,2370
2636,579,580,687
2637,687,686,579
2638,896,895,687
2639,687,688,896
2640,581,688,687
2641,687,580,581
2642,894,686,687
2643,687,895,894
2644,50,49,371
2645,371,372,50
2646,1107,1108,1322
2647,1322,1321,1107
2648,897,1107,1106
2649,1106,896,897
2650,1107,897,898
2651,898,1108,1107
2652,1321,1320,1106
2653,1106,1107,1321
2654,1545,1544,1321
2655,1321,1322,1545
2656,1318,1104,1105
2657,1105,1319,1318
2658,896,1106,1105
2659,1105,895,896
2660,894,895,1105
2661,1105,1104,894
2662,1320,1319,1105
2663,1105,1106,1320
2664,1542,1541,1318
2665,1318,1319,1542
2666,1320,1543,1542
2667,1542,1319,1320
2668,2576,2784,2783
2669,2783,2575,2576
2670,2576,2577,2785
2671,2785,2784,2576
2672,2380,2379,2162
2673,2162,2163,2380
2674,2379,2581,2580
2675,2580,2378,2379
2676,2379,2378,2161
2677,2161,2162,2379
2678,2160,1946,1947
2679,1947,2161,2160
2680,2580,2579,2377
2681,2377,2378,2580
2682,2576,2575,2373
2683,2373,2374,2576
2684,1943,1944,2158
2685,2158,2157,1943
2686,2576,2374,2375
2687,2375,2577,2576
2688,2376,2375,2158
2689,2158,2159,2376
2690,2375,2374,2157
2691,2157,2158,2375
2692,2463,2464,2237
2693,2237,2236,2463
2694,2463,2676,2677
2695,2677,2464,2463
2696,2238,2237,2464
2697,2464,2465,2238
2698,2463,2462,2675
2699,2675,2676,2463
2700,2996,2887,2886
2701,2886,2995,2996
2702,2679,2887,2888
2703,2888,2680,2679
2704,3198,3404,3403
2705,3403,3197,3198
2706,3106,3197,3196
2707,3196,3105,3106
2708,3109,3108,2781
2709,2781,2782,3109
2710,3303,3496,3497
2711,3497,3304,3303
2712,3305,2999,2998
2713,2998,3304,3305
2714,3301,3302,2996
2715,2996,2995,3301
2716,3495,3496,3303
2717,3303,3302,3495
2718,3106,3105,2778
2719,2778,2779,3106
2720,2888,2889,2681
2721,2681,2680,2888
2722,2890,2889,2998
2723,2998,2999,2890
2724,2467,2240,2239
2725,2239,2466,2467
2726,2467,2466,2679
2727,2679,2680,2467
2728,2467,2468,2241
2729,2241,2240,2467
2730,2681,2468,2467
2731,2467,2680,2681
2732,1202,1201,1422
2733,1422,1423,1202
2734,3002,3003,2894
2735,2894,2893,3002
2736,2685,2684,2892
2737,2892,2893,2685
2738,3202,3203,3409
2739,3409,3408,3202
2740,3112,3113,3204
2741,3204,3203,3112
2742,3110,3109,2782
2743,2782,2783,3110
2744,3307,3306,3499
2745,3499,3500,3307
2746,3000,2999,3305
2747,3305,3306,3000
2748,3002,3308,3309
2749,3309,3003,3002
2750,3501,3308,3307
2751,3307,3500,3501
2752,2683,2891,2892
2753,2892,2684,2683
2754,2890,2999,3000
2755,3000,2891,2890
2756,2474,2475,2248
2757,2248,2247,2474
2758,2475,2474,2687
2759,2687,2688,2475
2760,2476,2475,2688
2761,2688,2689,2476
2762,2471,2472,2245
2763,2245,2244,2471
2764,2471,2684,2685
2765,2685,2472,2471
2766,2471,2244,2243
2767,2243,2470,2471
2768,2683,2684,2471
2769,2471,2470,2683
2770,1113,1327,1326
2771,1326,1112,1113
2772,904,1114,1113
2773,1113,903,904
2774,902,903,1113
2775,1113,1112,902
2776,1327,1113,1114
2777,1114,1328,1327
2778,1550,1549,1326
2779,1326,1327,1550
2780,1327,1328,1551
2781,1551,1550,1327
2782,591,698,697
2783,697,590,591
2784,904,696,697
2785,697,905,904
2786,589,590,697
2787,697,696,589
2788,906,905,697
2789,697,698,906
2790,61,60,382
2791,382,383,61
2792,1115,1116,1330
2793,1330,1329,1115
2794,904,905,1115
2795,1115,1114,904
2796,1329,1328,1114
2797,1114,1115,1329
2798,906,1116,1115
2799,1115,905,906
2800,1553,1552,1329
2801,1329,1330,1553
2802,2584,2583,2381
2803,2381,2382,2584
2804,2381,2164,2165
2805,2165,2382,2381
2806,2166,2165,1951
2807,1951,1952,2166
2808,2383,2585,2584
2809,2584,2382,2383
2810,2588,2589,2797
2811,2797,2796,2588
2812,2588,2796,2795
2813,2795,2587,2588
2814,2168,1954,1955
2815,1955,2169,2168
2816,2170,2171,2388
2817,2388,2387,2170
2818,2588,2386,2387
2819,2387,2589,2588
2820,2385,2384,2167
2821,2167,2168,2385
2822,2588,2587,2385
2823,2385,2386,2588
2824,2168,2169,2386
2825,2386,2385,2168
2826,595,596,703
2827,703,702,595
2828,912,911,703
2829,703,704,912
2830,597,704,703
2831,703,596,597
2832,910,702,703
2833,703,911,910
2834,66,65,387
2835,387,388,66
2836,1338,1337,1123
2837,1123,1124,1338
2838,913,1123,1122
2839,1122,912,913
2840,1123,913,914
2841,914,1124,1123
2842,1336,1122,1123
2843,1123,1337,1336
2844,1561,1560,1337
2845,1337,1338,1561
2846,1336,1337,1560
2847,1560,1559,1336
2848,1121,1335,1334
2849,1334,1120,1121
2850,912,1122,1121
2851,1121,911,912
2852,910,911,1121
2853,1121,1120,910
2854,1335,1121,1122
2855,1122,1336,1335
2856,1558,1557,1334
2857,1334,1335,1558
2858,1335,1336,1559
2859,1559,1558,1335
2860,2592,2800,2799
2861,2799,2591,2592
2862,2801,2800,2592
2863,2592,2593,2801
2864,2395,2178,2179
2865,2179,2396,2395
2866,2596,2394,2395
2867,2395,2597,2596
2868,2176,1962,1963
2869,1963,2177,2176
2870,2596,2595,2393
2871,2393,2394,2596
2872,2393,2392,2175
2873,2175,2176,2393
2874,2394,2393,2176
2875,2176,2177,2394
2876,2591,2389,2390
2877,2390,2592,2591
2878,2174,2173,1959
2879,1959,1960,2174
2880,2592,2390,2391
2881,2391,2593,2592
2882,2391,2174,2175
2883,2175,2392,2391
2884,2174,2391,2390
2885,2390,2173,2174
2886,2253,2252,2479
2887,2479,2480,2253
2888,2693,2480,2479
2889,2479,2692,2693
2890,2478,2691,2692
2891,2692,2479,2478
2892,3012,2903,2902
2893,2902,3011,3012
2894,2695,2903,2904
2895,2904,2696,2695
2896,3214,3420,3419
2897,3419,3213,3214
2898,3122,3213,3212
2899,3212,3121,3122
2900,3320,3319,3512
2901,3512,3513,3320
2902,3321,3015,3014
2903,3014,3320,3321
2904,3012,3011,3317
2905,3317,3318,3012
2906,3511,3512,3319
2907,3319,3318,3511
2908,2795,3122,3121
2909,3121,2794,2795
2910,2904,2905,2697
2911,2697,2696,2904
2912,2906,2905,3014
2913,3014,3015,2906
2914,2483,2256,2255
2915,2255,2482,2483
2916,2482,2695,2696
2917,2696,2483,2482
2918,2257,2256,2483
2919,2483,2484,2257
2920,2697,2484,2483
2921,2483,2696,2697
2922,1223,1222,1443
2923,1443,1444,1223
2924,1438,1439,1218
2925,1218,1217,1438
2926,3018,3019,2910
2927,2910,2909,3018
2928,2701,2700,2908
2929,2908,2909,2701
2930,3219,3425,3424
2931,3424,3218,3219
2932,3128,3129,3220
2933,3220,3219,3128
2934,3126,3125,2798
2935,2798,2799,3126
2936,3323,3322,3515
2937,3515,3516,3323
2938,3016,3015,3321
2939,3321,3322,3016
2940,3018,3324,3325
2941,3325,3019,3018
2942,3517,3324,3323
2943,3323,3516,3517
2944,2907,2908,2700
2945,2700,2699,2907
2946,3016,2907,2906
2947,2906,3015,3016
2948,2263,2490,2491
2949,2491,2264,2263
2950,2491,2490,2703
2951,2703,2704,2491
2952,2705,2492,2491
2953,2491,2704,2705
2954,2487,2488,2261
2955,2261,2260,2487
2956,2701,2488,2487
2957,2487,2700,2701
2958,2262,2261,2488
2959,2488,2489,2262
2960,2259,2486,2487
2961,2487,2260,2259
2962,2699,2700,2487
2963,2487,2486,2699
2964,1342,1128,1129
2965,1129,1343,1342
2966,920,1130,1129
2967,1129,919,920
2968,918,919,1129
2969,1129,1128,918
2970,1344,1343,1129
2971,1129,1130,1344
2972,1566,1565,1342
2973,1342,1343,1566
2974,607,714,713
2975,713,606,607
2976,713,921,920
2977,920,712,713
2978,605,606,713
2979,713,712,605
2980,921,713,714
2981,714,922,921
2982,398,399,77
2983,77,76,398
2984,1131,1132,1346
2985,1346,1345,1131
2986,920,921,1131
2987,1131,1130,920
2988,1345,1344,1130
2989,1130,1131,1345
2990,922,1132,1131
2991,1131,921,922
2992,1346,1569,1568
2993,1568,1345,1346
2994,1344,1345,1568
2995,1568,1567,1344
2996,2397,2396,2179
2997,2179,2180,2397
2998,2397,2398,2600
2999,2600,2599,2397
3000,1968,2182,2181
3001,2181,1967,1968
3002,2600,2398,2399
3003,2399,2601,2600
3004,2399,2398,2181
3005,2181,2182,2399
3006,2604,2605,2813
3007,2813,2812,2604
3008,2811,2603,2604
3009,2604,2812,2811
3010,2184,1970,1971
3011,1971,2185,2184
3012,2403,2605,2604
3013,2604,2402,2403
3014,2604,2603,2401
3015,2401,2402,2604
3016,2184,2185,2402
3017,2402,2401,2184
3018,611,612,719
3019,719,718,611
3020,928,927,719
3021,719,720,928
3022,613,720,719
3023,719,612,613
3024,926,718,719
3025,719,927,926
3026,95,403,404
3027,404,93,95
3028,1353,1139,1140
3029,1140,1354,1353
3030,928,929,1139
3031,1139,1138,928
3032,930,1140,1139
3033,1139,929,930
3034,1139,1353,1352
3035,1352,1138,1139
3036,1477,1475,1353
3037,1353,1354,1477
3038,1350,1136,1137
3039,1137,1351,1350
3040,928,1138,1137
3041,1137,927,928
3042,926,927,1137
3043,1137,1136,926
3044,1352,1351,1137
3045,1137,1138,1352
3046,1574,1573,1350
3047,1350,1351,1574
3048,1352,1473,1574
3049,1574,1351,1352
3050,2815,2607,2608
3051,2608,2816,2815
3052,2817,2816,2608
3053,2608,2609,2817
3054,2315,2312,2194
3055,2194,2098,2315
3056,2312,2613,2612
3057,2612,2310,2312
3058,2312,2310,2193
3059,2193,2194,2312
3060,2192,1978,1979
3061,1979,2193,2192
3062,2612,2611,2409
3063,2409,2310,2612
3064,2405,2406,2608
3065,2608,2607,2405
3066,2190,2189,1975
3067,1975,1976,2190
3068,2407,2609,2608
3069,2608,2406,2407
3070,2408,2407,2190
3071,2190,2191,2408
3072,2407,2406,2189
3073,2189,2190,2407
3074,2495,2496,2269
3075,2269,2268,2495
3076,2495,2708,2709
3077,2709,2496,2495
3078,2270,2269,2496
3079,2496,2497,2270
3080,2495,2494,2707
3081,2707,2708,2495
3082,3028,2919,2918
3083,2918,3027,3028
3084,2711,2919,2920
3085,2920,2712,2711
3086,3229,3230,3436
3087,3436,3435,3229
3088,3229,3228,3137
3089,3137,2936,3229
3090,3043,2942,2813
3091,2813,2814,3043
3092,3545,3336,3335
3093,3335,3547,3545
3094,3336,3337,3031
3095,3031,3030,3336
3096,3333,3334,3028
3097,3028,3027,3333
3098,3547,3335,3334
3099,3334,3549,3547
3100,2811,2936,3137
3101,3137,2810,2811
3102,2920,2921,2713
3103,2713,2712,2920
3104,2922,2921,3030
3105,3030,3031,2922
3106,2499,2297,2271
3107,2271,2498,2499
3108,2711,2712,2499
3109,2499,2498,2711
3110,2295,2297,2499
3111,2499,2500,2295
3112,2713,2500,2499
3113,2499,2712,2713
3114,1233,1454,1455
3115,1455,1234,1233
3116,3034,3035,2926
3117,2926,2925,3034
3118,2925,2717,2716
3119,2716,2924,2925
3120,3441,3440,3234
3121,3234,3235,3441
3122,3052,3236,3235
3123,3235,3050,3052
3124,3046,3043,2814
3125,2814,2815,3046
3126,3539,3339,3338
3127,3338,3541,3539
3128,3032,3031,3337
3129,3337,3338,3032
3130,3034,3340,3341
3131,3341,3035,3034
3132,3537,3340,3339
3133,3339,3539,3537
3134,2715,2923,2924
3135,2924,2716,2715
3136,3032,2923,2922
3137,2922,3031,3032
3138,2281,2283,2506
3139,2506,2507,2281
3140,2507,2506,2719
3141,2719,2720,2507
3142,2509,2507,2720
3143,2720,2625,2509
3144,2287,2289,2503
3145,2503,2504,2287
3146,2503,2716,2717
3147,2717,2504,2503
3148,2289,2291,2502
3149,2502,2503,2289
3150,2715,2716,2503
3151,2503,2502,2715
3152,3351,3352,3564
3153,3564,3563,3351
3154,3367,3368,3580
3155,3580,3579,3367
3156,3383,3384,3596
3157,3596,3595,3383
3158,3801,3595,3596
3159,3596,3802,3801
3160,3595,3801,3800
3161,3800,3594,3595
3162,3399,3400,3612
3163,3612,3611,3399
3164,3610,3611,3817
3165,3817,3816,3610
3166,3627,3415,3416
3167,3416,3628,3627
3168,3833,3832,3626
3169,3626,3627,3833
3170,3431,3432,3644
3171,3644,3643,3431
3172,3643,3644,3850
3173,3850,3849,3643
3174,507,410,409
3175,409,509,507
3176,410,507,505
3177,505,412,410
3178,3527,3708,3704
3179,3704,3525,3527
3180,80,78,411
3181,411,312,80
3182,3062,3061,3144
3183,3144,3143,3062
3184,3243,3143,3349
3185,3349,3448,3243
3186,3576,3364,3365
3187,3365,3577,3576
3188,3593,3592,3380
3189,3380,3381,3593
3190,3800,3799,3593
3191,3593,3594,3800
3192,3608,3396,3397
3193,3397,3609,3608
3194,3814,3608,3609
3195,3609,3815,3814
3196,3816,3815,3609
3197,3609,3610,3816
3198,3624,3412,3413
3199,3413,3625,3624
3200,3831,3830,3624
3201,3624,3625,3831
3202,3641,3640,3428
3203,3428,3429,3641
3204,3641,3847,3846
3205,3846,3640,3641
3206,3656,3444,3445
3207,3445,3657,3656
3208,81,410,412
3209,412,79,81
3210,3063,3241,3240
3211,3240,3060,3063
3212,3244,3449,3447
3213,3447,3241,3244
3214,3526,3524,3703
3215,3703,3707,3526
3216,3357,3569,3568
3217,3568,3356,3357
3218,3774,3568,3569
3219,3569,3775,3774
3220,3776,3775,3569
3221,3569,3570,3776
3222,3585,3584,3372
3223,3372,3373,3585
3224,3389,3601,3600
3225,3600,3388,3389
3226,3806,3600,3601
3227,3601,3807,3806
3228,3405,3617,3616
3229,3616,3404,3405
3230,3421,3633,3632
3231,3632,3420,3421
3232,3839,3633,3634
3233,3634,3840,3839
3234,3649,3648,3436
3235,3436,3437,3649
3236,3856,3855,3649
3237,3649,3650,3856
3238,1480,1484,1259
3239,1259,1260,1480
3240,1483,1258,1259
3241,1259,1484,1483
3242,2094,1987,1984
3243,1984,2097,2094
3244,3572,3571,3359
3245,3359,3360,3572
3246,3776,3570,3571
3247,3571,3777,3776
3248,3587,3375,3376
3249,3376,3588,3587
3250,3604,3603,3391
3251,3391,3392,3604
3252,3808,3602,3603
3253,3603,3809,3808
3254,3620,3619,3407
3255,3407,3408,3620
3256,3826,3825,3619
3257,3619,3620,3826
3258,3824,3618,3619
3259,3619,3825,3824
3260,3636,3635,3423
3261,3423,3424,3636
3262,3635,3841,3840
3263,3840,3634,3635
3264,3652,3651,3439
3265,3439,3440,3652
3266,3857,3651,3652
3267,3652,3858,3857
3268,1481,1356,1357
3269,1357,1485,1481
3270,1482,1485,1357
3271,1357,1257,1482
3272,2095,2096,1983
3273,1983,1988,2095
3274,3530,3528,3709
3275,3709,3711,3530
3276,3707,3871,3872
3277,3872,3709,3707
3278,3709,3872,3873
3279,3873,3711,3709
3280,3353,3565,3564
3281,3564,3352,3353
3282,3770,3564,3565
3283,3565,3771,3770
3284,3772,3771,3565
3285,3565,3566,3772
3286,3532,3530,3711
3287,3711,3713,3532
3288,3713,3874,3875
3289,3875,3715,3713
3290,4332,3981,3982
3291,3982,4330,4332
3292,3770,3980,3979
3293,3979,3769,3770
3294,3768,3769,3979
3295,3979,3978,3768
3296,3741,3743,3460
3297,3460,3459,3741
3298,3739,3887,3888
3299,3888,3741,3739
3300,3741,3888,3889
3301,3889,3743,3741
3302,3369,3581,3580
3303,3580,3368,3369
3304,3786,3580,3581
3305,3581,3787,3786
3306,3788,3787,3581
3307,3581,3582,3788
3308,3743,3745,3461
3309,3461,3460,3743
3310,3745,3890,3891
3311,3891,3747,3745
3312,4198,3997,3998
3313,3998,4196,4198
3314,3786,3996,3995
3315,3995,3785,3786
3316,3784,3785,3995
3317,3995,3994,3784
3318,3666,3667,3476
3319,3476,3475,3666
3320,3665,3903,3904
3321,3904,3666,3665
3322,3385,3597,3596
3323,3596,3384,3385
3324,3803,3802,3596
3325,3596,3597,3803
3326,3597,3598,3804
3327,3804,3803,3597
3328,3477,3476,3667
3329,3667,3668,3477
3330,3669,3668,3906
3331,3906,3907,3669
3332,3801,3802,4012
3333,4012,4011,3801
3334,4011,4010,3800
3335,3800,3801,4011
3336,4011,4351,4350
3337,4350,4010,4011
3338,3683,3492,3491
3339,3491,3682,3683
3340,3919,3920,3682
3341,3682,3681,3919
3342,3401,3613,3612
3343,3612,3400,3401
3344,3818,3612,3613
3345,3613,3819,3818
3346,3820,3819,3613
3347,3613,3614,3820
3348,3493,3492,3683
3349,3683,3684,3493
3350,3685,3684,3922
3351,3922,3923,3685
3352,3818,4028,4027
3353,4027,3817,3818
3354,4026,3816,3817
3355,3817,4027,4026
3356,3699,3508,3507
3357,3507,3698,3699
3358,3698,3697,3935
3359,3935,3936,3698
3360,3417,3629,3628
3361,3628,3416,3417
3362,3835,3629,3630
3363,3630,3836,3835
3364,3509,3508,3699
3365,3699,3700,3509
3366,3938,3939,3701
3367,3701,3700,3938
3368,3834,4044,4043
3369,4043,3833,3834
3370,3832,3833,4043
3371,4043,4042,3832
3372,4042,4043,4383
3373,4383,4382,4042
3374,3736,3555,3523
3375,3523,3738,3736
3376,3738,3740,3951
3377,3951,3952,3738
3378,3736,3738,3952
3379,3952,3953,3736
3380,3645,3644,3432
3381,3432,3433,3645
3382,3850,3644,3645
3383,3645,3851,3850
3384,3555,3736,3734
3385,3734,3553,3555
3386,3732,3734,3954
3387,3954,3955,3732
3388,4314,4312,4061
3389,4061,4062,4314
3390,4059,3849,3850
3391,3850,4060,4059
3392,3849,4059,4058
3393,4058,3848,3849
3394,507,509,827
3395,827,828,507
3396,828,830,505
3397,505,507,828
3398,416,414,412
3399,412,505,416
3400,624,416,505
3401,505,830,624
3402,830,832,624
3403,7055,6644,6645
3404,6645,7056,7055
3405,726,728,516
3406,516,518,726
3407,934,938,728
3408,728,726,934
3409,209,413,411
3410,209,411,78
3411,78,103,209
3412,2617,2615,2823
3413,2823,2725,2617
3414,2619,2617,2725
3415,2725,2723,2619
3416,3062,2823,2726
3417,2726,3061,3062
3418,3039,3248,3249
3419,3249,2943,3039
3420,3455,3524,3248
3421,3248,3247,3455
3422,2834,2832,3039
3423,3039,2943,2834
3424,2830,2832,2721
3425,2721,2623,2830
3426,2623,2621,2828
3427,2828,2830,2623
3428,3448,3453,3347
3429,3347,3243,3448
3430,3247,3141,3556
3431,3556,3455,3247
3432,3363,3364,3576
3433,3576,3575,3363
3434,3782,3781,3575
3435,3575,3576,3782
3436,3780,3574,3575
3437,3575,3781,3780
3438,3735,3737,3457
3439,3457,3554,3735
3440,3737,3886,3887
3441,3887,3739,3737
3442,3554,3552,3733
3443,3733,3735,3554
3444,3731,3883,3884
3445,3884,3733,3731
3446,3782,3783,3993
3447,3993,3992,3782
3448,3784,3994,3993
3449,3993,3783,3784
3450,4208,3993,3994
3451,3994,4206,4208
3452,3591,3379,3380
3453,3380,3592,3591
3454,3591,3592,3798
3455,3798,3797,3591
3456,3797,3796,3590
3457,3590,3591,3797
3458,3473,3472,3663
3459,3663,3664,3473
3460,3664,3902,3903
3461,3903,3665,3664
3462,3471,3662,3663
3463,3663,3472,3471
3464,3662,3661,3899
3465,3899,3900,3662
3466,3799,4009,4008
3467,4008,3798,3799
3468,4009,3799,3800
3469,3800,4010,4009
3470,4009,4010,4350
3471,4350,4349,4009
3472,3395,3396,3608
3473,3608,3607,3395
3474,3814,3813,3607
3475,3607,3608,3814
3476,3812,3606,3607
3477,3607,3813,3812
3478,3489,3488,3679
3479,3679,3680,3489
3480,3681,3680,3918
3481,3918,3919,3681
3482,3487,3678,3679
3483,3679,3488,3487
3484,3677,3915,3916
3485,3916,3678,3677
3486,3814,3815,4025
3487,4025,4024,3814
3488,3816,4026,4025
3489,4025,3815,3816
3490,3411,3412,3624
3491,3624,3623,3411
3492,3830,3829,3623
3493,3623,3624,3830
3494,3828,3622,3623
3495,3623,3829,3828
3496,3505,3504,3695
3497,3695,3696,3505
3498,3696,3934,3935
3499,3935,3697,3696
3500,3503,3694,3695
3501,3695,3504,3503
3502,3693,3931,3932
3503,3932,3694,3693
3504,3830,3831,4041
3505,4041,4040,3830
3506,3832,4042,4041
3507,4041,3831,3832
3508,3427,3428,3640
3509,3640,3639,3427
3510,3846,3845,3639
3511,3639,3640,3846
3512,3844,3638,3639
3513,3639,3845,3844
3514,3742,3521,3520
3515,3520,3744,3742
3516,3740,3742,3950
3517,3950,3951,3740
3518,3744,3520,3519
3519,3519,3746,3744
3520,3746,3748,3947
3521,3947,3948,3746
3522,4199,4197,4054
3523,4054,4055,4199
3524,4057,4056,3846
3525,3846,3847,4057
3526,3847,3848,4058
3527,4058,4057,3847
3528,3655,3443,3444
3529,3444,3656,3655
3530,3861,3860,3654
3531,3654,3655,3861
3532,3531,3712,3710
3533,3710,3529,3531
3534,3708,3710,3966
3535,3966,3967,3708
3536,3533,3714,3712
3537,3712,3531,3533
3538,3714,3716,3963
3539,3963,3964,3714
3540,3712,3714,3964
3541,3964,3965,3712
3542,4333,4331,4070
3543,4070,4071,4333
3544,3863,4073,4072
3545,4072,3862,3863
3546,4073,3863,3864
3547,3864,4074,4073
3548,4339,4337,4073
3549,4073,4074,4339
3550,727,519,517
3551,517,729,727
3552,935,727,729
3553,729,939,935
3554,210,102,79
3555,210,79,412
3556,412,414,210
3557,2616,2825,2824
3558,2824,2614,2616
3559,2618,2724,2825
3560,2825,2616,2618
3561,2824,3063,3060
3562,3060,2822,2824
3563,3040,3345,3346
3564,3346,2940,3040
3565,3456,3246,3346
3566,3346,3525,3456
3567,2833,3040,2940
3568,2940,2831,2833
3569,2622,2831,2829
3570,2829,2620,2622
3571,3449,3244,3348
3572,3348,3454,3449
3573,3451,3142,3246
3574,3246,3456,3451
3575,6863,6862,6451
3576,6451,6452,6863
3577,3568,3567,3355
3578,3355,3356,3568
3579,3774,3773,3567
3580,3567,3568,3774
3581,3540,3538,3719
3582,3719,3721,3540
3583,3721,3878,3879
3584,3879,3723,3721
3585,3719,3877,3878
3586,3878,3721,3719
3587,3538,3536,3717
3588,3717,3719,3538
3589,3715,3875,3876
3590,3876,3717,3715
3591,3774,3775,3985
3592,3985,3984,3774
3593,3776,3986,3985
3594,3985,3775,3776
3595,4324,3985,3986
3596,3986,4322,4324
3597,5123,5022,5237
3598,5237,5238,5123
3599,4712,4505,4217
3600,4504,4712,4217
3601,4217,4216,4504
3602,5124,5240,5241
3603,5241,5024,5124
3604,5245,5244,5856
3605,5856,5857,5245
3606,5241,5853,5854
3607,5854,5242,5241
3608,5237,5849,5850
3609,5850,5238,5237
3610,5241,5240,5852
3611,5852,5853,5241
3612,4713,4506,4218
3613,4505,4713,4218
3614,4218,4217,4505
3615,5126,5244,5245
3616,5245,5026,5126
3617,5125,5024,5241
3618,5241,5242,5125
3619,6867,6866,6455
3620,6455,6456,6867
3621,6867,6456,6457
3622,6457,6868,6867
3623,3583,3371,3372
3624,3372,3584,3583
3625,3788,3582,3583
3626,3583,3789,3788
3627,3751,3753,3465
3628,3465,3464,3751
3629,3753,3894,3895
3630,3895,3755,3753
3631,3749,3751,3464
3632,3464,3463,3749
3633,3747,3891,3892
3634,3892,3749,3747
3635,3749,3892,3893
3636,3893,3751,3749
3637,3790,3791,4001
3638,4001,4000,3790
3639,3792,4002,4001
3640,4001,3791,3792
3641,5139,5038,5269
3642,5269,5270,5139
3643,4728,4521,4233
3644,4520,4728,4233
3645,4233,4232,4520
3646,5140,5272,5273
3647,5273,5040,5140
3648,5277,5276,5888
3649,5888,5889,5277
3650,5273,5885,5886
3651,5886,5274,5273
3652,5269,5881,5882
3653,5882,5270,5269
3654,5273,5272,5884
3655,5884,5885,5273
3656,4729,4522,4234
3657,4521,4729,4234
3658,4234,4233,4521
3659,5142,5276,5277
3660,5277,5042,5142
3661,5141,5040,5273
3662,5273,5274,5141
3663,6899,6898,6487
3664,6487,6488,6899
3665,6899,6488,6489
3666,6489,6900,6899
3667,3600,3599,3387
3668,3387,3388,3600
3669,3806,3805,3599
3670,3599,3600,3806
3671,3804,3598,3599
3672,3599,3805,3804
3673,3481,3480,3671
3674,3671,3672,3481
3675,3673,3672,3910
3676,3910,3911,3673
3677,3479,3670,3671
3678,3671,3480,3479
3679,3670,3669,3907
3680,3907,3908,3670
3681,3806,3807,4017
3682,4017,4016,3806
3683,3808,4018,4017
3684,4017,3807,3808
3685,5155,5054,5301
3686,5301,5302,5155
3687,4744,4537,4249
3688,4536,4744,4249
3689,4249,4248,4536
3690,5156,5304,5305
3691,5305,5056,5156
3692,5309,5308,5920
3693,5920,5921,5309
3694,5306,5305,5917
3695,5917,5918,5306
3696,5301,5913,5914
3697,5914,5302,5301
3698,5916,5917,5305
3699,5305,5304,5916
3700,4745,4538,4250
3701,4537,4745,4250
3702,4250,4249,4537
3703,5158,5308,5309
3704,5309,5058,5158
3705,5157,5056,5305
3706,5305,5306,5157
3707,6931,6930,6519
3708,6519,6520,6931
3709,6931,6520,6521
3710,6521,6932,6931
3711,3616,3615,3403
3712,3403,3404,3616
3713,3497,3496,3687
3714,3687,3688,3497
3715,3689,3688,3926
3716,3926,3927,3689
3717,3925,3926,3688
3718,3688,3687,3925
3719,3495,3686,3687
3720,3687,3496,3495
3721,3686,3685,3923
3722,3923,3924,3686
3723,3822,3823,4033
3724,4033,4032,3822
3725,3824,4034,4033
3726,4033,3823,3824
3727,5171,5070,5333
3728,5333,5334,5171
3729,4760,4553,4265
3730,4552,4760,4265
3731,4265,4264,4552
3732,5172,5336,5337
3733,5337,5072,5172
3734,5341,5340,5952
3735,5952,5953,5341
3736,5338,5337,5949
3737,5949,5950,5338
3738,5333,5945,5946
3739,5946,5334,5333
3740,5337,5336,5948
3741,5948,5949,5337
3742,4761,4554,4266
3743,4553,4761,4266
3744,4266,4265,4553
3745,5174,5340,5341
3746,5341,5074,5174
3747,5173,5072,5337
3748,5337,5338,5173
3749,6551,6552,6963
3750,6963,6962,6551
3751,6963,6552,6553
3752,6553,6964,6963
3753,3419,3420,3632
3754,3632,3631,3419
3755,3837,3631,3632
3756,3632,3838,3837
3757,3631,3837,3836
3758,3836,3630,3631
3759,3758,3513,3512
3760,3512,3760,3758
3761,3756,3758,3942
3762,3942,3943,3756
3763,3758,3760,3941
3764,3941,3942,3758
3765,3512,3511,3702
3766,3702,3760,3512
3767,3940,3702,3701
3768,3701,3939,3940
3769,4047,4387,4386
3770,4386,4046,4047
3771,3838,3839,4049
3772,4049,4048,3838
3773,3840,4050,4049
3774,4049,3839,3840
3775,4189,4187,4049
3776,4049,4050,4189
3777,5187,5086,5365
3778,5365,5366,5187
3779,4569,4281,4280
3780,4280,4776,4569
3781,4280,4568,4776
3782,5188,5368,5369
3783,5369,5088,5188
3784,5373,5372,5984
3785,5984,5985,5373
3786,5369,5981,5982
3787,5982,5370,5369
3788,5365,5977,5978
3789,5978,5366,5365
3790,5369,5368,5980
3791,5980,5981,5369
3792,4777,4570,4282
3793,4569,4777,4282
3794,4282,4281,4569
3795,5190,5372,5373
3796,5373,5090,5190
3797,5189,5088,5369
3798,5369,5370,5189
3799,6995,6994,6583
3800,6583,6584,6995
3801,6995,6584,6585
3802,6585,6996,6995
3803,3647,3435,3436
3804,3436,3648,3647
3805,3547,3728,3726
3806,3726,3545,3547
3807,3724,3726,3958
3808,3958,3959,3724
3809,3726,3728,3957
3810,3957,3958,3726
3811,3728,3547,3549
3812,3549,3730,3728
3813,3730,3732,3955
3814,3955,3956,3730
3815,3854,3855,4065
3816,4065,4064,3854
3817,3856,4066,4065
3818,4065,3855,3856
3819,4323,4320,4065
3820,4065,4066,4323
3821,5203,5102,5397
3822,5397,5398,5203
3823,4585,4297,4296
3824,4296,4792,4585
3825,4296,4584,4792
3826,5204,5400,5401
3827,5401,5104,5204
3828,5405,5404,6016
3829,6016,6017,5405
3830,5401,6013,6014
3831,6014,5402,5401
3832,5397,6009,6010
3833,6010,5398,5397
3834,5401,5400,6012
3835,6012,6013,5401
3836,4793,4586,4298
3837,4585,4793,4298
3838,4298,4297,4585
3839,5206,5404,5405
3840,5405,5106,5206
3841,5205,5104,5401
3842,5401,5402,5205
3843,7027,7026,6615
3844,6615,6616,7027
3845,7027,6616,6617
3846,6617,7028,7027
3847,1359,1466,1468
3848,1361,1254,1359
3849,1359,1468,1361
3850,1254,1044,1240
3851,1240,1359,1254
3852,1256,1241,1144
3853,1144,1258,1256
3854,1144,1241,938
3855,938,934,1144
3856,1363,1256,1258
3857,1363,1258,1483
3858,1483,1487,1363
3859,2318,2313,2615
3860,2615,2617,2318
3861,2301,2094,2097
3862,2301,2097,2313
3863,2313,2318,2301
3864,2411,2318,2617
3865,2617,2619,2411
3866,2303,2301,2318
3867,2318,2411,2303
3868,1675,1674,1676
3869,1676,1885,1675
3870,1253,1358,1239
3871,1239,1043,1253
3872,2511,2623,2721
3873,2721,2508,2511
3874,2305,2513,2511
3875,2305,2511,2273
3876,2273,2195,2305
3877,2513,2621,2623
3878,2623,2511,2513
3879,3361,3573,3572
3880,3572,3360,3361
3881,3546,3544,3725
3882,3725,3727,3546
3883,3723,3879,3880
3884,3880,3725,3723
3885,3725,3880,3881
3886,3881,3727,3725
3887,3727,3729,3548
3888,3548,3546,3727
3889,3729,3882,3883
3890,3883,3731,3729
3891,3778,3988,3987
3892,3987,3777,3778
3893,3776,3777,3987
3894,3987,3986,3776
3895,4322,3986,3987
3896,3987,4319,4322
3897,4717,4510,4222
3898,4509,4717,4222
3899,4222,4221,4509
3900,5130,5252,5253
3901,5253,5030,5130
3902,5129,5028,5249
3903,5249,5250,5129
3904,5245,5857,5858
3905,5858,5246,5245
3906,5249,5248,5860
3907,5860,5861,5249
3908,4509,4221,4220
3909,4220,4716,4509
3910,4220,4508,4716
3911,5127,5026,5245
3912,5245,5246,5127
3913,5128,5248,5249
3914,5249,5028,5128
3915,5253,5252,5864
3916,5864,5865,5253
3917,5249,5861,5862
3918,5862,5250,5249
3919,6891,6480,6481
3920,6481,6892,6891
3921,6891,6890,6479
3922,6479,6480,6891
3923,3377,3589,3588
3924,3588,3376,3377
3925,3794,3588,3589
3926,3589,3795,3794
3927,3796,3795,3589
3928,3589,3590,3796
3929,3757,3759,3468
3930,3468,3467,3757
3931,3755,3895,3896
3932,3896,3757,3755
3933,3468,3759,3660
3934,3660,3469,3468
3935,3660,3898,3899
3936,3899,3661,3660
3937,4003,3793,3794
3938,3794,4004,4003
3939,3793,4003,4002
3940,4002,3792,3793
3941,4733,4526,4238
3942,4525,4733,4238
3943,4238,4237,4525
3944,5146,5284,5285
3945,5285,5046,5146
3946,5145,5044,5281
3947,5281,5282,5145
3948,5277,5889,5890
3949,5890,5278,5277
3950,5281,5280,5892
3951,5892,5893,5281
3952,4525,4237,4236
3953,4236,4732,4525
3954,4236,4524,4732
3955,5143,5042,5277
3956,5277,5278,5143
3957,5144,5280,5281
3958,5281,5044,5144
3959,5285,5284,5896
3960,5896,5897,5285
3961,5281,5893,5894
3962,5894,5282,5281
3963,6923,6512,6513
3964,6513,6924,6923
3965,6923,6922,6511
3966,6511,6512,6923
3967,3393,3605,3604
3968,3604,3392,3393
3969,3675,3484,3483
3970,3483,3674,3675
3971,3674,3673,3911
3972,3911,3912,3674
3973,3913,3675,3674
3974,3674,3912,3913
3975,3485,3484,3675
3976,3675,3676,3485
3977,3677,3676,3914
3978,3914,3915,3677
3979,3913,3914,3676
3980,3676,3675,3913
3981,3810,4020,4019
3982,4019,3809,3810
3983,3808,3809,4019
3984,4019,4018,3808
3985,4018,4019,4359
3986,4359,4358,4018
3987,4749,4542,4254
3988,4541,4749,4254
3989,4254,4253,4541
3990,5162,5316,5317
3991,5317,5062,5162
3992,5161,5060,5313
3993,5313,5314,5161
3994,5310,5309,5921
3995,5921,5922,5310
3996,5924,5925,5313
3997,5313,5312,5924
3998,4748,4541,4253
3999,4540,4748,4253
4000,4253,4252,4540
4001,5159,5058,5309
4002,5309,5310,5159
4003,5160,5312,5313
4004,5313,5060,5160
4005,5317,5316,5928
4006,5928,5929,5317
4007,5926,5314,5313
4008,5313,5925,5926
4009,6955,6544,6545
4010,6545,6956,6955
4011,6955,6954,6543
4012,6543,6544,6955
4013,3409,3621,3620
4014,3620,3408,3409
4015,3826,3620,3621
4016,3621,3827,3826
4017,3691,3500,3499
4018,3499,3690,3691
4019,3690,3689,3927
4020,3927,3928,3690
4021,3501,3500,3691
4022,3691,3692,3501
4023,3693,3692,3930
4024,3930,3931,3693
4025,4037,4038,4378
4026,4378,4377,4037
4027,3826,4036,4035
4028,4035,3825,3826
4029,3824,3825,4035
4030,4035,4034,3824
4031,4034,4035,4375
4032,4375,4374,4034
4033,4765,4558,4270
4034,4557,4765,4270
4035,4270,4269,4557
4036,5178,5348,5349
4037,5349,5078,5178
4038,5177,5076,5345
4039,5345,5346,5177
4040,5954,5342,5341
4041,5341,5953,5954
4042,5345,5344,5956
4043,5956,5957,5345
4044,4764,4557,4269
4045,4556,4764,4269
4046,4269,4268,4556
4047,5175,5074,5341
4048,5341,5342,5175
4049,5176,5344,5345
4050,5345,5076,5176
4051,5348,5960,5961
4052,5961,5349,5348
4053,5345,5957,5958
4054,5958,5346,5345
4055,6987,6576,6577
4056,6577,6988,6987
4057,6987,6986,6575
4058,6575,6576,6987
4059,3637,3636,3424
4060,3424,3425,3637
4061,3637,3843,3842
4062,3842,3636,3637
4063,3752,3516,3515
4064,3515,3754,3752
4065,3754,3756,3943
4066,3943,3944,3754
4067,3750,3517,3516
4068,3516,3752,3750
4069,3748,3750,3946
4070,3946,3947,3748
4071,3750,3752,3945
4072,3945,3946,3750
4073,3842,4052,4051
4074,4051,3841,3842
4075,3840,3841,4051
4076,4051,4050,3840
4077,4574,4286,4285
4078,4285,4781,4574
4079,4285,4573,4781
4080,5194,5380,5381
4081,5381,5094,5194
4082,5193,5092,5377
4083,5377,5378,5193
4084,5373,5985,5986
4085,5986,5374,5373
4086,5377,5376,5988
4087,5988,5989,5377
4088,4780,4573,4285
4089,4572,4780,4285
4090,4285,4284,4572
4091,5191,5090,5373
4092,5373,5374,5191
4093,5192,5376,5377
4094,5377,5092,5192
4095,5381,5380,5992
4096,5992,5993,5381
4097,5377,5989,5990
4098,5990,5378,5377
4099,7019,6608,6609
4100,6609,7020,7019
4101,7019,7018,6607
4102,6607,6608,7019
4103,3441,3653,3652
4104,3652,3440,3441
4105,3859,3858,3652
4106,3652,3653,3859
4107,3653,3654,3860
4108,3860,3859,3653
4109,3541,3722,3720
4110,3720,3539,3541
4111,3722,3724,3959
4112,3959,3960,3722
4113,3539,3720,3718
4114,3718,3537,3539
4115,3716,3718,3962
4116,3962,3963,3716
4117,3858,4068,4067
4118,4067,3857,3858
4119,3856,3857,4067
4120,4067,4066,3856
4121,4325,4323,4066
4122,4066,4067,4325
4123,4797,4590,4302
4124,4589,4797,4302
4125,4302,4301,4589
4126,5210,5412,5413
4127,5413,5110,5210
4128,5209,5108,5409
4129,5409,5410,5209
4130,5405,6017,6018
4131,6018,5406,5405
4132,5409,5408,6020
4133,6020,6021,5409
4134,4796,4589,4301
4135,4588,4796,4301
4136,4301,4300,4588
4137,5207,5106,5405
4138,5405,5406,5207
4139,5208,5408,5409
4140,5409,5108,5208
4141,5413,5412,6024
4142,6024,6025,5413
4143,5409,6021,6022
4144,6022,5410,5409
4145,7051,6640,6641
4146,6641,7052,7051
4147,7051,7050,6639
4148,6639,6640,7051
4149,1255,1257,1145
4150,1145,1242,1255
4151,1145,935,939
4152,939,1242,1145
4153,1362,1486,1482
4154,1482,1257,1362
4155,1257,1255,1362
4156,2098,2096,2314
4157,2314,2315,2098
4158,2317,2616,2614
4159,2614,2314,2317
4160,2410,2618,2616
4161,2616,2317,2410
4162,2302,2410,2317
4163,2317,2300,2302
4164,2512,2510,2622
4165,2622,2620,2512
4166,2196,2279,2306
4167,2306,2304,2196
4168,1884,2090,2093
4169,2093,1677,1884
4170,3449,3560,3659
4171,3659,3447,3449
4172,3659,3865,3864
4173,3864,3658,3659
4174,3659,3560,3766
4175,3766,3865,3659
4176,3448,3349,3561
4177,3561,3559,3448
4178,3561,3767,3765
4179,3765,3559,3561
4180,6265,6264,6676
4181,6676,6677,6265
4182,6263,6675,6676
4183,6676,6264,6263
4184,6257,6669,6670
4185,6670,6258,6257
4186,6453,6452,6049
4187,6049,6050,6453
4188,6865,6864,6453
4189,6453,6454,6865
4190,6454,6453,6050
4191,6050,6051,6454
4192,6460,6459,6056
4193,6056,6057,6460
4194,6869,6458,6459
4195,6459,6870,6869
4196,6459,6458,6055
4197,6055,6056,6459
4198,6063,6064,6467
4199,6467,6466,6063
4200,6058,6059,6462
4201,6462,6461,6058
4202,6297,6296,6708
4203,6708,6709,6297
4204,6081,6082,6485
4205,6485,6484,6081
4206,6897,6896,6485
4207,6485,6486,6897
4208,6486,6485,6082
4209,6082,6083,6486
4210,6492,6491,6088
4211,6088,6089,6492
4212,6901,6490,6491
4213,6491,6902,6901
4214,6087,6088,6491
4215,6491,6490,6087
4216,6096,6097,6500
4217,6500,6499,6096
4218,6095,6096,6499
4219,6499,6498,6095
4220,6089,6090,6493
4221,6493,6492,6089
4222,6327,6739,6740
4223,6740,6328,6327
4224,6323,6322,6734
4225,6734,6735,6323
4226,6517,6516,6113
4227,6113,6114,6517
4228,6929,6928,6517
4229,6517,6518,6929
4230,6518,6517,6114
4231,6114,6115,6518
4232,6524,6523,6120
4233,6120,6121,6524
4234,6522,6523,6934
4235,6934,6933,6522
4236,6523,6522,6119
4237,6119,6120,6523
4238,6360,6359,6771
4239,6771,6772,6360
4240,6355,6354,6766
4241,6766,6767,6355
4242,6145,6146,6549
4243,6549,6548,6145
4244,6961,6960,6549
4245,6549,6550,6961
4246,6550,6549,6146
4247,6146,6147,6550
4248,6555,6152,6153
4249,6153,6556,6555
4250,6966,6965,6554
4251,6554,6555,6966
4252,6152,6555,6554
4253,6554,6151,6152
4254,6154,6155,6558
4255,6558,6557,6154
4256,6393,6392,6804
4257,6804,6805,6393
4258,6391,6803,6804
4259,6804,6392,6391
4260,6385,6797,6798
4261,6798,6386,6385
4262,6581,6580,6177
4263,6177,6178,6581
4264,6993,6992,6581
4265,6581,6582,6993
4266,6582,6581,6178
4267,6178,6179,6582
4268,6588,6587,6184
4269,6184,6185,6588
4270,6997,6586,6587
4271,6587,6998,6997
4272,6183,6184,6587
4273,6587,6586,6183
4274,6594,6191,6192
4275,6192,6595,6594
4276,6187,6590,6589
4277,6589,6186,6187
4278,6425,6424,6836
4279,6836,6837,6425
4280,6209,6210,6613
4281,6613,6612,6209
4282,7025,7024,6613
4283,6613,6614,7025
4284,6614,6613,6210
4285,6210,6211,6614
4286,6620,6619,6216
4287,6216,6217,6620
4288,7029,6618,6619
4289,6619,7030,7029
4290,6215,6216,6619
4291,6619,6618,6215
4292,6224,6225,6628
4293,6628,6627,6224
4294,6223,6224,6627
4295,6627,6626,6223
4296,6217,6218,6621
4297,6621,6620,6217
4298,6683,6684,6272
4299,6272,6271,6683
4300,6484,6483,6080
4301,6080,6081,6484
4302,6893,6482,6483
4303,6483,6894,6893
4304,6483,6482,6079
4305,6079,6080,6483
4306,6477,6476,6073
4307,6073,6074,6477
4308,6889,6888,6477
4309,6477,6478,6889
4310,6478,6477,6074
4311,6074,6075,6478
4312,6065,6066,6469
4313,6469,6468,6065
4314,6299,6298,6710
4315,6710,6711,6299
4316,6305,6304,6716
4317,6716,6717,6305
4318,6303,6715,6716
4319,6716,6304,6303
4320,6516,6515,6112
4321,6112,6113,6516
4322,6925,6514,6515
4323,6515,6926,6925
4324,6515,6514,6111
4325,6111,6112,6515
4326,6509,6508,6105
4327,6105,6106,6509
4328,6921,6920,6509
4329,6509,6510,6921
4330,6107,6510,6509
4331,6509,6106,6107
4332,6103,6104,6507
4333,6507,6506,6103
4334,6742,6743,6331
4335,6331,6330,6742
4336,6548,6547,6144
4337,6144,6145,6548
4338,6957,6546,6547
4339,6547,6958,6957
4340,6547,6546,6143
4341,6143,6144,6547
4342,6541,6540,6137
4343,6137,6138,6541
4344,6953,6952,6541
4345,6541,6542,6953
4346,6542,6541,6138
4347,6138,6139,6542
4348,6130,6131,6534
4349,6534,6533,6130
4350,6136,6539,6538
4351,6538,6135,6136
4352,6176,6177,6580
4353,6580,6579,6176
4354,6989,6578,6579
4355,6579,6990,6989
4356,6579,6578,6175
4357,6175,6176,6579
4358,6573,6572,6169
4359,6169,6170,6573
4360,6985,6984,6573
4361,6573,6574,6985
4362,6171,6574,6573
4363,6573,6170,6171
4364,6565,6162,6163
4365,6163,6566,6565
4366,6168,6169,6572
4367,6572,6571,6168
4368,6399,6811,6812
4369,6812,6400,6399
4370,6612,6611,6208
4371,6208,6209,6612
4372,7021,6610,6611
4373,6611,7022,7021
4374,6610,6207,6208
4375,6208,6611,6610
4376,6605,6604,6201
4377,6201,6202,6605
4378,7017,7016,6605
4379,6605,6606,7017
4380,6606,6605,6202
4381,6202,6203,6606
4382,6193,6194,6597
4383,6597,6596,6193
4384,6427,6426,6838
4385,6838,6839,6427
4386,6433,6432,6844
4387,6844,6845,6433
4388,6843,6844,6432
4389,6432,6431,6843
4390,6644,6643,6240
4391,6240,6241,6644
4392,7053,6642,6643
4393,6643,7054,7053
4394,6239,6240,6643
4395,6643,6642,6239
4396,6637,6636,6233
4397,6233,6234,6637
4398,7049,7048,6637
4399,6637,6638,7049
4400,6638,6637,6234
4401,6234,6235,6638
4402,6634,6231,6232
4403,6232,6635,6634
4404,3704,3708,3967
4405,3967,3968,3704
4406,3525,3704,3706
4407,3706,3456,3525
4408,3864,3865,4075
4409,4075,4074,3864
4410,3976,4075,3865
4411,3865,3766,3976
4412,3454,3558,3560
4413,3560,3449,3454
4414,3558,3454,3452
4415,3452,3764,3558
4416,3764,3868,3766
4417,3766,3560,3764
4418,3560,3558,3764
4419,4343,4339,4074
4420,4074,4075,4343
4421,3456,3706,3762
4422,3762,3451,3456
4423,3703,3870,3871
4424,3871,3707,3703
4425,3524,3455,3705
4426,3705,3703,3524
4427,3870,3703,3705
4428,3705,3969,3870
4429,3453,3448,3559
4430,3559,3557,3453
4431,3557,3763,3450
4432,3450,3453,3557
4433,3767,3768,3978
4434,3978,3977,3767
4435,3975,3765,3767
4436,3767,3977,3975
4437,3761,3705,3455
4438,3455,3556,3761
4439,3969,3705,3866
4440,3866,3971,3969
4441,3705,3761,3866
4442,6649,7059,7058
4443,7058,6647,6649
4444,6651,7061,7059
4445,7059,6649,6651
4446,6648,6449,6860
4447,6860,6859,6648
4448,6650,6648,6859
4449,6859,7060,6650
4450,6261,6673,6674
4451,6674,6262,6261
4452,6265,5857,5856
4453,5856,6264,6265
4454,5243,5855,5856
4455,5856,5244,5243
4456,6263,6264,5856
4457,5856,5855,6263
4458,6261,6262,5854
4459,5854,5853,6261
4460,5243,5242,5854
4461,5854,5855,5243
4462,6263,5855,5854
4463,5854,6262,6263
4464,6257,6258,5850
4465,5850,5849,6257
4466,5239,5238,5850
4467,5850,5851,5239
4468,6259,5851,5850
4469,5850,6258,6259
4470,6261,6260,6672
4471,6672,6673,6261
4472,6259,6671,6672
4473,6672,6260,6259
4474,5239,5851,5852
4475,5852,5240,5239
4476,6261,5853,5852
4477,5852,6260,6261
4478,6259,6260,5852
4479,5852,5851,6259
4480,6050,5634,5635
4481,5635,6051,6050
4482,6865,6454,6455
4483,6455,6866,6865
4484,6456,6455,6052
4485,6052,6053,6456
4486,6051,6052,6455
4487,6455,6454,6051
4488,5635,5636,6052
4489,6052,6051,5635
4490,5639,5640,6056
4491,6056,6055,5639
4492,6869,6868,6457
4493,6457,6458,6869
4494,6053,6054,6457
4495,6457,6456,6053
4496,6054,6055,6458
4497,6458,6457,6054
4498,6054,5638,5639
4499,5639,6055,6054
4500,5647,5648,6064
4501,6064,6063,5647
4502,6062,5646,5647
4503,5647,6063,6062
4504,6058,5642,5643
4505,5643,6059,6058
4506,6060,6061,6464
4507,6464,6463,6060
4508,6059,6060,6463
4509,6463,6462,6059
4510,5643,5644,6060
4511,6060,6059,5643
4512,6295,6294,6706
4513,6706,6707,6295
4514,6297,5889,5888
4515,5888,6296,6297
4516,5275,5887,5888
4517,5888,5276,5275
4518,6295,6296,5888
4519,5888,5887,6295
4520,6293,6294,5886
4521,5886,5885,6293
4522,5887,5275,5274
4523,5274,5886,5887
4524,5887,5886,6294
4525,6294,6295,5887
4526,6289,6290,5882
4527,5882,5881,6289
4528,5271,5270,5882
4529,5882,5883,5271
4530,6291,5883,5882
4531,5882,6290,6291
4532,6293,6292,6704
4533,6704,6705,6293
4534,5271,5883,5884
4535,5884,5272,5271
4536,6293,5885,5884
4537,5884,6292,6293
4538,6291,6292,5884
4539,5884,5883,6291
4540,6082,5666,5667
4541,5667,6083,6082
4542,6897,6486,6487
4543,6487,6898,6897
4544,6084,6085,6488
4545,6488,6487,6084
4546,6487,6486,6083
4547,6083,6084,6487
4548,5667,5668,6084
4549,6084,6083,5667
4550,5671,5672,6088
4551,6088,6087,5671
4552,6901,6900,6489
4553,6489,6490,6901
4554,6085,6086,6489
4555,6489,6488,6085
4556,6086,6087,6490
4557,6490,6489,6086
4558,6087,6086,5670
4559,5670,5671,6087
4560,6093,6094,6497
4561,6497,6496,6093
4562,6094,6095,6498
4563,6498,6497,6094
4564,5679,5680,6096
4565,6096,6095,5679
4566,6094,5678,5679
4567,5679,6095,6094
4568,6091,6090,5674
4569,5674,5675,6091
4570,5675,5676,6092
4571,6092,6091,5675
4572,6325,6737,6738
4573,6738,6326,6325
4574,6328,6329,5921
4575,5921,5920,6328
4576,5307,5919,5920
4577,5920,5308,5307
4578,5920,5919,6327
4579,6327,6328,5920
4580,6325,6326,5918
4581,5918,5917,6325
4582,5918,5919,5307
4583,5307,5306,5918
4584,6327,5919,5918
4585,5918,6326,6327
4586,6321,6322,5914
4587,5914,5913,6321
4588,5303,5302,5914
4589,5914,5915,5303
4590,6323,5915,5914
4591,5914,6322,6323
4592,6323,6735,6736
4593,6736,6324,6323
4594,5304,5303,5915
4595,5915,5916,5304
4596,6325,5917,5916
4597,5916,6324,6325
4598,6323,6324,5916
4599,5916,5915,6323
4600,5699,6115,6114
4601,6114,5698,5699
4602,6518,6519,6930
4603,6930,6929,6518
4604,6116,6117,6520
4605,6520,6519,6116
4606,6115,6116,6519
4607,6519,6518,6115
4608,6115,5699,5700
4609,5700,6116,6115
4610,5703,5704,6120
4611,6120,6119,5703
4612,6933,6932,6521
4613,6521,6522,6933
4614,6117,6118,6521
4615,6521,6520,6117
4616,6118,6119,6522
4617,6522,6521,6118
4618,6118,5702,5703
4619,5703,6119,6118
4620,6126,6127,6530
4621,6530,6529,6126
4622,5712,6128,6127
4623,6127,5711,5712
4624,5710,5711,6127
4625,6127,6126,5710
4626,6122,5706,5707
4627,5707,6123,6122
4628,6124,6123,5707
4629,5707,5708,6124
4630,6770,6771,6359
4631,6359,6358,6770
4632,6361,5953,5952
4633,5952,6360,6361
4634,5339,5951,5952
4635,5952,5340,5339
4636,6359,6360,5952
4637,5952,5951,6359
4638,6358,5950,5949
4639,5949,6357,6358
4640,5950,5951,5339
4641,5339,5338,5950
4642,5950,6358,6359
4643,6359,5951,5950
4644,6353,6354,5946
4645,5946,5945,6353
4646,5335,5334,5946
4647,5946,5947,5335
4648,6355,5947,5946
4649,5946,6354,6355
4650,6768,6769,6357
4651,6357,6356,6768
4652,5335,5947,5948
4653,5948,5336,5335
4654,6357,5949,5948
4655,5948,6356,6357
4656,6355,6356,5948
4657,5948,5947,6355
4658,6146,5730,5731
4659,5731,6147,6146
4660,6962,6961,6550
4661,6550,6551,6962
4662,6551,6148,6149
4663,6149,6552,6551
4664,6148,6551,6550
4665,6550,6147,6148
4666,5731,5732,6148
4667,6148,6147,5731
4668,5735,5736,6152
4669,6152,6151,5735
4670,6965,6964,6553
4671,6553,6554,6965
4672,6149,6150,6553
4673,6553,6552,6149
4674,6150,6151,6554
4675,6554,6553,6150
4676,6150,5734,5735
4677,5735,6151,6150
4678,6158,6561,6560
4679,6560,6157,6158
4680,6561,6158,6159
4681,6159,6562,6561
4682,5743,5744,6160
4683,6160,6159,5743
4684,6158,5742,5743
4685,5743,6159,6158
4686,6154,5738,5739
4687,5739,6155,6154
4688,6559,6156,6157
4689,6157,6560,6559
4690,6156,6559,6558
4691,6558,6155,6156
4692,5739,5740,6156
4693,6156,6155,5739
4694,6389,6801,6802
4695,6802,6390,6389
4696,6393,5985,5984
4697,5984,6392,6393
4698,5371,5983,5984
4699,5984,5372,5371
4700,5983,6391,6392
4701,6392,5984,5983
4702,6389,6390,5982
4703,5982,5981,6389
4704,5371,5370,5982
4705,5982,5983,5371
4706,6391,5983,5982
4707,5982,6390,6391
4708,6385,6386,5978
4709,5978,5977,6385
4710,5979,5367,5366
4711,5366,5978,5979
4712,6387,5979,5978
4713,5978,6386,6387
4714,6389,6388,6800
4715,6800,6801,6389
4716,6387,6799,6800
4717,6800,6388,6387
4718,5367,5979,5980
4719,5980,5368,5367
4720,6389,5981,5980
4721,5980,6388,6389
4722,6387,6388,5980
4723,5980,5979,6387
4724,6178,5762,5763
4725,5763,6179,6178
4726,6993,6582,6583
4727,6583,6994,6993
4728,6584,6583,6180
4729,6180,6181,6584
4730,6179,6180,6583
4731,6583,6582,6179
4732,5763,5764,6180
4733,6180,6179,5763
4734,6183,5767,5768
4735,5768,6184,6183
4736,6997,6996,6585
4737,6585,6586,6997
4738,6181,6182,6585
4739,6585,6584,6181
4740,6586,6585,6182
4741,6182,6183,6586
4742,5767,6183,6182
4743,6182,5766,5767
4744,5775,5776,6192
4745,6192,6191,5775
4746,6190,5774,5775
4747,5775,6191,6190
4748,6187,6186,5770
4749,5770,5771,6187
4750,6188,6189,6592
4751,6592,6591,6188
4752,6590,6187,6188
4753,6188,6591,6590
4754,5771,5772,6188
4755,6188,6187,5771
4756,6423,6422,6834
4757,6834,6835,6423
4758,6425,6017,6016
4759,6016,6424,6425
4760,5403,6015,6016
4761,6016,5404,5403
4762,6423,6424,6016
4763,6016,6015,6423
4764,6421,6422,6014
4765,6014,6013,6421
4766,6015,5403,5402
4767,5402,6014,6015
4768,6423,6015,6014
4769,6014,6422,6423
4770,6417,6418,6010
4771,6010,6009,6417
4772,5399,5398,6010
4773,6010,6011,5399
4774,6011,6010,6418
4775,6418,6419,6011
4776,6421,6420,6832
4777,6832,6833,6421
4778,5399,6011,6012
4779,6012,5400,5399
4780,6421,6013,6012
4781,6012,6420,6421
4782,6419,6420,6012
4783,6012,6011,6419
4784,6210,5794,5795
4785,5795,6211,6210
4786,7025,6614,6615
4787,6615,7026,7025
4788,6212,6213,6616
4789,6616,6615,6212
4790,6615,6614,6211
4791,6211,6212,6615
4792,5795,5796,6212
4793,6212,6211,5795
4794,6215,5799,5800
4795,5800,6216,6215
4796,7029,7028,6617
4797,6617,6618,7029
4798,6213,6214,6617
4799,6617,6616,6213
4800,6214,6215,6618
4801,6618,6617,6214
4802,5799,6215,6214
4803,6214,5798,5799
4804,6221,6222,6625
4805,6625,6624,6221
4806,6222,6223,6626
4807,6626,6625,6222
4808,6223,5807,5808
4809,5808,6224,6223
4810,5807,6223,6222
4811,6222,5806,5807
4812,6218,5802,5803
4813,5803,6219,6218
4814,5803,5804,6220
4815,6220,6219,5803
4816,6265,6266,5858
4817,5858,5857,6265
4818,5247,5246,5858
4819,5858,5859,5247
4820,6267,5859,5858
4821,5858,6266,6267
4822,5859,5860,5248
4823,5248,5247,5859
4824,6269,5861,5860
4825,5860,6268,6269
4826,5859,6267,6268
4827,6268,5860,5859
4828,6273,5865,5864
4829,5864,6272,6273
4830,5863,5864,5252
4831,5252,5251,5863
4832,5863,6271,6272
4833,6272,5864,5863
4834,6271,6270,6682
4835,6682,6683,6271
4836,5251,5250,5862
4837,5862,5863,5251
4838,6269,6270,5862
4839,5862,5861,6269
4840,6271,5863,5862
4841,5862,6270,6271
4842,5663,5664,6080
4843,6080,6079,5663
4844,6893,6892,6481
4845,6481,6482,6893
4846,6077,6078,6481
4847,6481,6480,6077
4848,6078,6079,6482
4849,6482,6481,6078
4850,6078,5662,5663
4851,5663,6079,6078
4852,6074,5658,5659
4853,5659,6075,6074
4854,6889,6478,6479
4855,6479,6890,6889
4856,6076,6077,6480
4857,6480,6479,6076
4858,6075,6076,6479
4859,6479,6478,6075
4860,5659,5660,6076
4861,6076,6075,5659
4862,6066,5650,5651
4863,5651,6067,6066
4864,6068,6069,6472
4865,6472,6471,6068
4866,6067,6068,6471
4867,6471,6470,6067
4868,5651,5652,6068
4869,6068,6067,5651
4870,5655,5656,6072
4871,6072,6071,5655
4872,5655,6071,6070
4873,6070,5654,5655
4874,6297,6298,5890
4875,5890,5889,6297
4876,5891,5279,5278
4877,5278,5890,5891
4878,6299,5891,5890
4879,5890,6298,6299
4880,5279,5891,5892
4881,5892,5280,5279
4882,6301,5893,5892
4883,5892,6300,6301
4884,6299,6300,5892
4885,5892,5891,6299
4886,6305,5897,5896
4887,5896,6304,6305
4888,5895,5896,5284
4889,5284,5283,5895
4890,5895,6303,6304
4891,6304,5896,5895
4892,6301,6713,6714
4893,6714,6302,6301
4894,5283,5282,5894
4895,5894,5895,5283
4896,6301,6302,5894
4897,5894,5893,6301
4898,6303,5895,5894
4899,5894,6302,6303
4900,5695,5696,6112
4901,6112,6111,5695
4902,6925,6924,6513
4903,6513,6514,6925
4904,6109,6110,6513
4905,6513,6512,6109
4906,6110,6111,6514
4907,6514,6513,6110
4908,6110,5694,5695
4909,5695,6111,6110
4910,6106,5690,5691
4911,5691,6107,6106
4912,6510,6511,6922
4913,6922,6921,6510
4914,6108,6109,6512
4915,6512,6511,6108
4916,6510,6107,6108
4917,6108,6511,6510
4918,5691,5692,6108
4919,6108,6107,5691
4920,6098,5682,5683
4921,5683,6099,6098
4922,5683,5684,6100
4923,6100,6099,5683
4924,5687,5688,6104
4925,6104,6103,5687
4926,6101,6102,6505
4927,6505,6504,6101
4928,6102,6103,6506
4929,6506,6505,6102
4930,5687,6103,6102
4931,6102,5686,5687
4932,6330,5922,5921
4933,5921,6329,6330
4934,5922,5923,5311
4935,5311,5310,5922
4936,5922,6330,6331
4937,6331,5923,5922
4938,6333,6332,6744
4939,6744,6745,6333
4940,6331,6743,6744
4941,6744,6332,6331
4942,5312,5311,5923
4943,5923,5924,5312
4944,6333,5925,5924
4945,5924,6332,6333
4946,6331,6332,5924
4947,5924,5923,6331
4948,6337,5929,5928
4949,5928,6336,6337
4950,5315,5927,5928
4951,5928,5316,5315
4952,6335,6336,5928
4953,5928,5927,6335
4954,6335,6334,6746
4955,6746,6747,6335
4956,5314,5926,5927
4957,5927,5315,5314
4958,5926,5925,6333
4959,6333,6334,5926
4960,6334,6335,5927
4961,5927,5926,6334
4962,5727,5728,6144
4963,6144,6143,5727
4964,6957,6956,6545
4965,6545,6546,6957
4966,6545,6544,6141
4967,6141,6142,6545
4968,6142,6143,6546
4969,6546,6545,6142
4970,6142,5726,5727
4971,5727,6143,6142
4972,6138,5722,5723
4973,5723,6139,6138
4974,6953,6542,6543
4975,6543,6954,6953
4976,6140,6141,6544
4977,6544,6543,6140
4978,6139,6140,6543
4979,6543,6542,6139
4980,5723,5724,6140
4981,6140,6139,5723
4982,6130,5714,5715
4983,5715,6131,6130
4984,5715,5716,6132
4985,6132,6131,5715
4986,6136,6135,5719
4987,5719,5720,6136
4988,6133,6134,6537
4989,6537,6536,6133
4990,6134,6135,6538
4991,6538,6537,6134
4992,5719,6135,6134
4993,6134,5718,5719
4994,6361,6362,5954
4995,5954,5953,6361
4996,5342,5954,5955
4997,5955,5343,5342
4998,6363,5955,5954
4999,5954,6362,6363
5000,5343,5955,5956
5001,5956,5344,5343
5002,6365,5957,5956
5003,5956,6364,6365
5004,6363,6364,5956
5005,5956,5955,6363
5006,6369,5961,5960
5007,5960,6368,6369
5008,5960,5348,5347
5009,5347,5959,5960
5010,6367,6368,5960
5011,5960,5959,6367
5012,5347,5346,5958
5013,5958,5959,5347
5014,5958,5957,6365
5015,6365,6366,5958
5016,6366,6367,5959
5017,5959,5958,6366
5018,5759,5760,6176
5019,6176,6175,5759
5020,6989,6988,6577
5021,6577,6578,6989
5022,6173,6174,6577
5023,6577,6576,6173
5024,6578,6577,6174
5025,6174,6175,6578
5026,6174,5758,5759
5027,5759,6175,6174
5028,6170,5754,5755
5029,5755,6171,6170
5030,6574,6575,6986
5031,6986,6985,6574
5032,6172,6173,6576
5033,6576,6575,6172
5034,6574,6171,6172
5035,6172,6575,6574
5036,5755,5756,6172
5037,6172,6171,5755
5038,5746,5747,6163
5039,6163,6162,5746
5040,5747,5748,6164
5041,6164,6163,5747
5042,5751,5752,6168
5043,6168,6167,5751
5044,5751,6167,6166
5045,6166,5750,5751
5046,6393,6394,5986
5047,5986,5985,6393
5048,5375,5374,5986
5049,5986,5987,5375
5050,6395,5987,5986
5051,5986,6394,6395
5052,5987,5988,5376
5053,5376,5375,5987
5054,6397,5989,5988
5055,5988,6396,6397
5056,6395,6396,5988
5057,5988,5987,6395
5058,6401,5993,5992
5059,5992,6400,6401
5060,5379,5991,5992
5061,5992,5380,5379
5062,6399,6400,5992
5063,5992,5991,6399
5064,6811,6399,6398
5065,6398,6810,6811
5066,5379,5378,5990
5067,5990,5991,5379
5068,6397,6398,5990
5069,5990,5989,6397
5070,6399,5991,5990
5071,5990,6398,6399
5072,5791,5792,6208
5073,6208,6207,5791
5074,7021,7020,6609
5075,6609,6610,7021
5076,6205,6206,6609
5077,6609,6608,6205
5078,6207,6610,6609
5079,6609,6206,6207
5080,6206,5790,5791
5081,5791,6207,6206
5082,5787,6203,6202
5083,6202,5786,5787
5084,7017,6606,6607
5085,6607,7018,7017
5086,6204,6205,6608
5087,6608,6607,6204
5088,6203,6204,6607
5089,6607,6606,6203
5090,6203,5787,5788
5091,5788,6204,6203
5092,6195,6194,5778
5093,5778,5779,6195
5094,6196,6197,6600
5095,6600,6599,6196
5096,6598,6195,6196
5097,6196,6599,6598
5098,5779,5780,6196
5099,6196,6195,5779
5100,6199,5783,5784
5101,5784,6200,6199
5102,5783,6199,6198
5103,6198,5782,5783
5104,6425,6426,6018
5105,6018,6017,6425
5106,5407,5406,6018
5107,6018,6019,5407
5108,6427,6019,6018
5109,6018,6426,6427
5110,5407,6019,6020
5111,6020,5408,5407
5112,6429,6021,6020
5113,6020,6428,6429
5114,6427,6428,6020
5115,6020,6019,6427
5116,6433,6025,6024
5117,6024,6432,6433
5118,5411,6023,6024
5119,6024,5412,5411
5120,6431,6432,6024
5121,6024,6023,6431
5122,6429,6841,6842
5123,6842,6430,6429
5124,5411,5410,6022
5125,6022,6023,5411
5126,6429,6430,6022
5127,6022,6021,6429
5128,6431,6023,6022
5129,6022,6430,6431
5130,6239,5823,5824
5131,5824,6240,6239
5132,6642,7053,7052
5133,7052,6641,6642
5134,6237,6238,6641
5135,6641,6640,6237
5136,6642,6641,6238
5137,6238,6239,6642
5138,5823,6239,6238
5139,6238,5822,5823
5140,5819,6235,6234
5141,6234,5818,5819
5142,7049,6638,6639
5143,6639,7050,7049
5144,6236,6237,6640
5145,6640,6639,6236
5146,6235,6236,6639
5147,6639,6638,6235
5148,6235,5819,5820
5149,5820,6236,6235
5150,5811,6227,6226
5151,6226,5810,5811
5152,6227,5811,5812
5153,5812,6228,6227
5154,5815,5816,6232
5155,6232,6231,5815
5156,6229,6230,6633
5157,6633,6632,6229
5158,6231,6634,6633
5159,6633,6230,6231
5160,6231,6230,5814
5161,5814,5815,6231
5162,6645,6644,6241
5163,6241,6242,6645
5164,7057,7056,6645
5165,6645,6646,7057
5166,6646,6645,6242
5167,6242,6243,6646
5168,6452,6451,6048
5169,6048,6049,6452
5170,6861,6450,6451
5171,6451,6862,6861
5172,6451,6450,6047
5173,6047,6048,6451
5174,5827,6243,6242
5175,6242,5826,5827
5176,7057,6646,6647
5177,6647,7058,7057
5178,6244,6045,6649
5179,6649,6647,6244
5180,6243,6244,6647
5181,6647,6646,6243
5182,5827,5828,6244
5183,6244,6243,5827
5184,6858,7063,7061
5185,7061,6651,6858
5186,6448,6651,6649
5187,6649,6045,6448
5188,6045,6042,6448
5189,6245,6448,6042
5190,6042,6040,6245
5191,6040,6042,5831
5192,5831,5833,6040
5193,5631,5632,6048
5194,6048,6047,5631
5195,6861,6860,6449
5196,6449,6450,6861
5197,6046,6449,6648
5198,6648,6044,6046
5199,6450,6449,6046
5200,6046,6047,6450
5201,6047,6046,5630
5202,5630,5631,6047
5203,6857,6650,7060
5204,7060,7062,6857
5205,6447,6041,6044
5206,6447,6044,6648
5207,6648,6650,6447
5208,6041,6447,6043
5209,6043,6039,6041
5210,6039,5832,5830
5211,5830,6041,6039
5212,4711,4503,5022
5213,5022,5123,4711
5214,5123,5238,5239
5215,5239,5023,5123
5216,4711,5123,5023
5217,5023,4504,4711
5218,5124,5023,5239
5219,5239,5240,5124
5220,4712,5124,5024
5221,5024,4505,4712
5222,4712,4504,5023
5223,5023,5124,4712
5224,4714,5126,5026
5225,5026,4507,4714
5226,5126,5025,5243
5227,5243,5244,5126
5228,4714,4506,5025
5229,5025,5126,4714
5230,4713,4505,5024
5231,5024,5125,4713
5232,5125,5242,5243
5233,5243,5025,5125
5234,4713,5125,5025
5235,5025,4506,4713
5236,4917,4817,5442
5237,5442,5441,4917
5238,4919,4819,5446
5239,5446,5445,4919
5240,4727,4519,5038
5241,5038,5139,4727
5242,5139,5270,5271
5243,5271,5039,5139
5244,4727,5139,5039
5245,5039,4520,4727
5246,5140,5039,5271
5247,5271,5272,5140
5248,4728,5140,5040
5249,5040,4521,4728
5250,4728,4520,5039
5251,5039,5140,4728
5252,4730,5142,5042
5253,5042,4523,4730
5254,5142,5041,5275
5255,5275,5276,5142
5256,4730,4522,5041
5257,5041,5142,4730
5258,4729,4521,5040
5259,5040,5141,4729
5260,5141,5274,5275
5261,5275,5041,5141
5262,4729,5141,5041
5263,5041,4522,4729
5264,4930,5467,5466
5265,5466,4829,4930
5266,4928,5463,5462
5267,5462,4827,4928
5268,4933,4833,5474
5269,5474,5473,4933
5270,4743,4535,5054
5271,5054,5155,4743
5272,5155,5302,5303
5273,5303,5055,5155
5274,4743,5155,5055
5275,5055,4536,4743
5276,5156,5055,5303
5277,5303,5304,5156
5278,4744,5156,5056
5279,5056,4537,4744
5280,4744,4536,5055
5281,5055,5156,4744
5282,4746,5158,5058
5283,5058,4539,4746
5284,5158,5057,5307
5285,5307,5308,5158
5286,4746,4538,5057
5287,5057,5158,4746
5288,4745,4537,5056
5289,5056,5157,4745
5290,5157,5306,5307
5291,5307,5057,5157
5292,4745,5157,5057
5293,5057,4538,4745
5294,4949,4849,5506
5295,5506,5505,4949
5296,4951,4851,5510
5297,5510,5509,4951
5298,4759,4551,5070
5299,5070,5171,4759
5300,5171,5334,5335
5301,5335,5071,5171
5302,4759,5171,5071
5303,5071,4552,4759
5304,5172,5071,5335
5305,5335,5336,5172
5306,4760,5172,5072
5307,5072,4553,4760
5308,4760,4552,5071
5309,5071,5172,4760
5310,4762,5174,5074
5311,5074,4555,4762
5312,5174,5073,5339
5313,5339,5340,5174
5314,4762,4554,5073
5315,5073,5174,4762
5316,4761,4553,5072
5317,5072,5173,4761
5318,5173,5338,5339
5319,5339,5073,5173
5320,4761,5173,5073
5321,5073,4554,4761
5322,4962,5531,5530
5323,5530,4861,4962
5324,4960,5527,5526
5325,5526,4859,4960
5326,4965,4865,5538
5327,5538,5537,4965
5328,4775,4567,5086
5329,5086,5187,4775
5330,5187,5366,5367
5331,5367,5087,5187
5332,4775,5187,5087
5333,5087,4568,4775
5334,5188,5087,5367
5335,5367,5368,5188
5336,4776,5188,5088
5337,5088,4569,4776
5338,4776,4568,5087
5339,5087,5188,4776
5340,4778,5190,5090
5341,5090,4571,4778
5342,5190,5089,5371
5343,5371,5372,5190
5344,4778,4570,5089
5345,5089,5190,4778
5346,4777,4569,5088
5347,5088,5189,4777
5348,5189,5370,5371
5349,5371,5089,5189
5350,4777,5189,5089
5351,5089,4570,4777
5352,4981,4881,5570
5353,5570,5569,4981
5354,4983,4883,5574
5355,5574,5573,4983
5356,4791,4583,5102
5357,5102,5203,4791
5358,5203,5398,5399
5359,5399,5103,5203
5360,4791,5203,5103
5361,5103,4584,4791
5362,5204,5103,5399
5363,5399,5400,5204
5364,4792,5204,5104
5365,5104,4585,4792
5366,4792,4584,5103
5367,5103,5204,4792
5368,4794,5206,5106
5369,5106,4587,4794
5370,5206,5105,5403
5371,5403,5404,5206
5372,4794,4586,5105
5373,5105,5206,4794
5374,4793,4585,5104
5375,5104,5205,4793
5376,5205,5402,5403
5377,5403,5105,5205
5378,4793,5205,5105
5379,5105,4586,4793
5380,4994,5595,5594
5381,5594,4893,4994
5382,4992,5591,5590
5383,5590,4891,4992
5384,4997,4897,5602
5385,5602,5601,4997
5386,4718,5130,5030
5387,5030,4511,4718
5388,5130,5029,5251
5389,5251,5252,5130
5390,4718,4510,5029
5391,5029,5130,4718
5392,4717,4509,5028
5393,5028,5129,4717
5394,5129,5250,5251
5395,5251,5029,5129
5396,4717,5129,5029
5397,5029,4510,4717
5398,4715,4507,5026
5399,5026,5127,4715
5400,5127,5246,5247
5401,5247,5027,5127
5402,4715,5127,5027
5403,5027,4508,4715
5404,4716,5128,5028
5405,5028,4509,4716
5406,5128,5027,5247
5407,5247,5248,5128
5408,4716,4508,5027
5409,5027,5128,4716
5410,4924,5455,5454
5411,5454,4823,4924
5412,4925,4825,5458
5413,5458,5457,4925
5414,4927,4827,5462
5415,5462,5461,4927
5416,4920,5447,5446
5417,5446,4819,4920
5418,4921,4821,5450
5419,5450,5449,4921
5420,4734,5146,5046
5421,5046,4527,4734
5422,5146,5045,5283
5423,5283,5284,5146
5424,4734,4526,5045
5425,5045,5146,4734
5426,4733,4525,5044
5427,5044,5145,4733
5428,5145,5282,5283
5429,5283,5045,5145
5430,4733,5145,5045
5431,5045,4526,4733
5432,4731,4523,5042
5433,5042,5143,4731
5434,5143,5278,5279
5435,5279,5043,5143
5436,4731,5143,5043
5437,5043,4524,4731
5438,4732,5144,5044
5439,5044,4525,4732
5440,5144,5043,5279
5441,5279,5280,5144
5442,4732,4524,5043
5443,5043,5144,4732
5444,4941,4841,5490
5445,5490,5489,4941
5446,4943,4843,5494
5447,5494,5493,4943
5448,4942,5491,5490
5449,5490,4841,4942
5450,4750,5162,5062
5451,5062,4543,4750
5452,5162,5061,5315
5453,5315,5316,5162
5454,4750,4542,5061
5455,5061,5162,4750
5456,4749,4541,5060
5457,5060,5161,4749
5458,5161,5314,5315
5459,5315,5061,5161
5460,4749,5161,5061
5461,5061,4542,4749
5462,4747,4539,5058
5463,5058,5159,4747
5464,5159,5310,5311
5465,5311,5059,5159
5466,4747,5159,5059
5467,5059,4540,4747
5468,4748,5160,5060
5469,5060,4541,4748
5470,5160,5059,5311
5471,5311,5312,5160
5472,4748,4540,5059
5473,5059,5160,4748
5474,4956,5519,5518
5475,5518,4855,4956
5476,4957,4857,5522
5477,5522,5521,4957
5478,4959,4859,5526
5479,5526,5525,4959
5480,4952,5511,5510
5481,5510,4851,4952
5482,4953,4853,5514
5483,5514,5513,4953
5484,4766,5178,5078
5485,5078,4559,4766
5486,5178,5077,5347
5487,5347,5348,5178
5488,4766,4558,5077
5489,5077,5178,4766
5490,4765,4557,5076
5491,5076,5177,4765
5492,5177,5346,5347
5493,5347,5077,5177
5494,4765,5177,5077
5495,5077,4558,4765
5496,4763,4555,5074
5497,5074,5175,4763
5498,5175,5342,5343
5499,5343,5075,5175
5500,4763,5175,5075
5501,5075,4556,4763
5502,4764,5176,5076
5503,5076,4557,4764
5504,5176,5075,5343
5505,5343,5344,5176
5506,4764,4556,5075
5507,5075,5176,4764
5508,4973,4873,5554
5509,5554,5553,4973
5510,4975,4875,5558
5511,5558,5557,4975
5512,4974,5555,5554
5513,5554,4873,4974
5514,4782,5194,5094
5515,5094,4575,4782
5516,5194,5093,5379
5517,5379,5380,5194
5518,4782,4574,5093
5519,5093,5194,4782
5520,4781,4573,5092
5521,5092,5193,4781
5522,5193,5378,5379
5523,5379,5093,5193
5524,4781,5193,5093
5525,5093,4574,4781
5526,4779,4571,5090
5527,5090,5191,4779
5528,5191,5374,5375
5529,5375,5091,5191
5530,4779,5191,5091
5531,5091,4572,4779
5532,4780,5192,5092
5533,5092,4573,4780
5534,5192,5091,5375
5535,5375,5376,5192
5536,4780,4572,5091
5537,5091,5192,4780
5538,4988,5583,5582
5539,5582,4887,4988
5540,4989,4889,5586
5541,5586,5585,4989
5542,4991,4891,5590
5543,5590,5589,4991
5544,4984,5575,5574
5545,5574,4883,4984
5546,4985,4885,5578
5547,5578,5577,4985
5548,4798,5210,5110
5549,5110,4591,4798
5550,5210,5109,5411
5551,5411,5412,5210
5552,4798,4590,5109
5553,5109,5210,4798
5554,4797,4589,5108
5555,5108,5209,4797
5556,5209,5410,5411
5557,5411,5109,5209
5558,4797,5209,5109
5559,5109,4590,4797
5560,4795,4587,5106
5561,5106,5207,4795
5562,5207,5406,5407
5563,5407,5107,5207
5564,4795,5207,5107
5565,5107,4588,4795
5566,4796,5208,5108
5567,5108,4589,4796
5568,5208,5107,5407
5569,5407,5408,5208
5570,4796,4588,5107
5571,5107,5208,4796
5572,5005,4905,5618
5573,5618,5617,5005
5574,5007,4907,5622
5575,5622,5621,5007
5576,5006,5619,5618
5577,5618,4905,5006
5578,5009,4909,5626
5579,5626,5625,5009
5580,5011,5628,5626
5581,5626,4909,5011
5582,4910,5427,5426
5583,5426,4809,4910
5584,1480,1478,1682
5585,1682,1777,1480
5586,1688,1490,1491
5587,1491,1689,1688
5588,1886,1981,1777
5589,1777,1682,1886
5590,1893,1892,1688
5591,1688,1689,1893
5592,1696,1498,1499
5593,1499,1697,1696
5594,1491,1492,1690
5595,1690,1689,1491
5596,1901,1900,1696
5597,1696,1697,1901
5598,1690,1894,1893
5599,1893,1689,1690
5600,1698,1697,1499
5601,1499,1500,1698
5602,1704,1506,1507
5603,1507,1705,1704
5604,1698,1902,1901
5605,1901,1697,1698
5606,1909,1908,1704
5607,1704,1705,1909
5608,1712,1514,1515
5609,1515,1713,1712
5610,1507,1508,1706
5611,1706,1705,1507
5612,1917,1916,1712
5613,1712,1713,1917
5614,1706,1910,1909
5615,1909,1705,1706
5616,1516,1714,1713
5617,1713,1515,1516
5618,1720,1522,1523
5619,1523,1721,1720
5620,1714,1918,1917
5621,1917,1713,1714
5622,1925,1924,1720
5623,1720,1721,1925
5624,1531,1729,1728
5625,1728,1530,1531
5626,1523,1524,1722
5627,1722,1721,1523
5628,1729,1933,1932
5629,1932,1728,1729
5630,1722,1926,1925
5631,1925,1721,1722
5632,1729,1531,1532
5633,1532,1730,1729
5634,1736,1538,1539
5635,1539,1737,1736
5636,1933,1729,1730
5637,1730,1934,1933
5638,1941,1940,1736
5639,1736,1737,1941
5640,1744,1546,1547
5641,1547,1745,1744
5642,1539,1540,1738
5643,1738,1737,1539
5644,1949,1948,1744
5645,1744,1745,1949
5646,1738,1942,1941
5647,1941,1737,1738
5648,1548,1746,1745
5649,1745,1547,1548
5650,1752,1554,1555
5651,1555,1753,1752
5652,1746,1950,1949
5653,1949,1745,1746
5654,1957,1956,1752
5655,1752,1753,1957
5656,1760,1562,1563
5657,1563,1761,1760
5658,1555,1556,1754
5659,1754,1753,1555
5660,1965,1964,1760
5661,1760,1761,1965
5662,1754,1958,1957
5663,1957,1753,1754
5664,1563,1564,1762
5665,1762,1761,1563
5666,1570,1571,1769
5667,1769,1768,1570
5668,1762,1966,1965
5669,1965,1761,1762
5670,1973,1972,1768
5671,1768,1769,1973
5672,1481,1778,1776
5673,1776,1479,1481
5674,1571,1572,1770
5675,1770,1769,1571
5676,1980,1776,1778
5677,1778,1982,1980
5678,1770,1974,1973
5679,1973,1769,1770
5680,944,732,731
5681,731,943,944
5682,735,734,946
5683,946,947,735
5684,734,735,621
5685,621,619,734
5686,747,748,429
5687,429,428,747
5688,748,747,959
5689,959,960,748
5690,962,963,751
5691,751,750,962
5692,976,764,763
5693,763,975,976
5694,766,978,979
5695,979,767,766
5696,766,767,448
5697,448,447,766
5698,779,780,461
5699,461,460,779
5700,779,991,992
5701,992,780,779
5702,783,782,994
5703,994,995,783
5704,782,783,464
5705,464,463,782
5706,795,796,477
5707,477,476,795
5708,1008,796,795
5709,795,1007,1008
5710,799,798,1010
5711,1010,1011,799
5712,798,799,480
5713,480,479,798
5714,811,812,493
5715,493,492,811
5716,1024,812,811
5717,811,1023,1024
5718,1026,1027,815
5719,815,814,1026
5720,495,814,815
5721,815,496,495
5722,747,746,958
5723,958,959,747
5724,956,744,743
5725,743,955,956
5726,2739,3066,3065
5727,3065,2738,2739
5728,763,762,974
5729,974,975,763
5730,972,760,759
5731,759,971,972
5732,2755,3082,3081
5733,3081,2754,2755
5734,991,779,778
5735,778,990,991
5736,988,776,775
5737,775,987,988
5738,2771,3098,3097
5739,3097,2770,2771
5740,795,794,1006
5741,1006,1007,795
5742,792,791,1003
5743,1003,1004,792
5744,2787,3114,3113
5745,3113,2786,2787
5746,1022,1023,811
5747,811,810,1022
5748,1020,808,807
5749,807,1019,1020
5750,3130,3129,2802
5751,2802,2803,3130
5752,826,1038,1039
5753,1039,827,826
5754,1036,824,823
5755,823,1035,1036
5756,3054,3052,2818
5757,2818,2819,3054
5758,1777,1779,1484
5759,1484,1480,1777
5760,1984,1779,1777
5761,1777,1981,1984
5762,1243,1247,944
5763,944,943,1243
5764,946,1147,1148
5765,1148,947,946
5766,738,739,420
5767,420,419,738
5768,739,738,950
5769,950,951,739
5770,948,736,735
5771,735,947,948
5772,950,1151,1152
5773,1152,951,950
5774,1148,1149,948
5775,948,947,1148
5776,1161,960,959
5777,959,1160,1161
5778,962,1163,1164
5779,1164,963,962
5780,754,755,436
5781,436,435,754
5782,755,754,966
5783,966,967,755
5784,964,752,751
5785,751,963,964
5786,966,1167,1168
5787,1168,967,966
5788,1164,1165,964
5789,964,963,1164
5790,1177,976,975
5791,975,1176,1177
5792,978,1179,1180
5793,1180,979,978
5794,771,770,982
5795,982,983,771
5796,980,768,767
5797,767,979,980
5798,982,1183,1184
5799,1184,983,982
5800,1180,1181,980
5801,980,979,1180
5802,1192,1193,992
5803,992,991,1192
5804,994,1195,1196
5805,1196,995,994
5806,786,787,468
5807,468,467,786
5808,787,786,998
5809,998,999,787
5810,996,784,783
5811,783,995,996
5812,998,1199,1200
5813,1200,999,998
5814,1196,1197,996
5815,996,995,1196
5816,1008,1007,1208
5817,1208,1209,1008
5818,1010,1211,1212
5819,1212,1011,1010
5820,802,803,484
5821,484,483,802
5822,802,1014,1015
5823,1015,803,802
5824,800,799,1011
5825,1011,1012,800
5826,800,481,480
5827,480,799,800
5828,1014,1215,1216
5829,1216,1015,1014
5830,1213,1012,1011
5831,1011,1212,1213
5832,1224,1225,1024
5833,1024,1023,1224
5834,1026,1227,1228
5835,1228,1027,1026
5836,818,819,500
5837,500,499,818
5838,819,818,1030
5839,1030,1031,819
5840,1028,816,815
5841,815,1027,1028
5842,815,816,497
5843,497,496,815
5844,1030,1231,1232
5845,1232,1031,1030
5846,1228,1229,1028
5847,1028,1027,1228
5848,1778,1481,1485
5849,1485,1780,1778
5850,1983,1982,1778
5851,1778,1780,1983
5852,1474,1472,1685
5853,1685,1684,1474
5854,1685,1472,1488
5855,1488,1686,1685
5856,1889,1888,1684
5857,1684,1685,1889
5858,1686,1890,1889
5859,1889,1685,1686
5860,1495,1496,1694
5861,1694,1693,1495
5862,1692,1494,1495
5863,1495,1693,1692
5864,1694,1898,1897
5865,1897,1693,1694
5866,1897,1896,1692
5867,1692,1693,1897
5868,3045,2733,2734
5869,2734,3042,3045
5870,952,740,739
5871,739,951,952
5872,954,955,743
5873,743,742,954
5874,958,1159,1160
5875,1160,959,958
5876,1156,1157,956
5877,956,955,1156
5878,1152,1153,952
5879,952,951,1152
5880,954,1155,1156
5881,1156,955,954
5882,2737,2738,3065
5883,3065,2935,2737
5884,1700,1502,1503
5885,1503,1701,1700
5886,1504,1702,1701
5887,1701,1503,1504
5888,1905,1904,1700
5889,1700,1701,1905
5890,1702,1906,1905
5891,1905,1701,1702
5892,1511,1512,1710
5893,1710,1709,1511
5894,1708,1510,1511
5895,1511,1709,1708
5896,1710,1914,1913
5897,1913,1709,1710
5898,1913,1912,1708
5899,1708,1709,1913
5900,968,756,755
5901,755,967,968
5902,759,758,970
5903,970,971,759
5904,974,1175,1176
5905,1176,975,974
5906,1172,1173,972
5907,972,971,1172
5908,1168,1169,968
5909,968,967,1168
5910,970,1171,1172
5911,1172,971,970
5912,2753,2754,3081
5913,3081,3080,2753
5914,1716,1518,1519
5915,1519,1717,1716
5916,1519,1520,1718
5917,1718,1717,1519
5918,1921,1920,1716
5919,1716,1717,1921
5920,1718,1922,1921
5921,1921,1717,1718
5922,1527,1528,1726
5923,1726,1725,1527
5924,1724,1526,1527
5925,1527,1725,1724
5926,1726,1930,1929
5927,1929,1725,1726
5928,1929,1928,1724
5929,1724,1725,1929
5930,2765,2766,3093
5931,3093,3092,2765
5932,984,772,771
5933,771,983,984
5934,775,774,986
5935,986,987,775
5936,991,990,1191
5937,1191,1192,991
5938,1188,1189,988
5939,988,987,1188
5940,1184,1185,984
5941,984,983,1184
5942,986,1187,1188
5943,1188,987,986
5944,2769,2770,3097
5945,3097,3096,2769
5946,1732,1534,1535
5947,1535,1733,1732
5948,1535,1536,1734
5949,1734,1733,1535
5950,1937,1936,1732
5951,1732,1733,1937
5952,1734,1938,1937
5953,1937,1733,1734
5954,1543,1544,1742
5955,1742,1741,1543
5956,1740,1542,1543
5957,1543,1741,1740
5958,1742,1946,1945
5959,1945,1741,1742
5960,1945,1944,1740
5961,1740,1741,1945
5962,1000,788,787
5963,787,999,1000
5964,791,790,1002
5965,1002,1003,791
5966,1006,1207,1208
5967,1208,1007,1006
5968,1204,1205,1004
5969,1004,1003,1204
5970,1200,1201,1000
5971,1000,999,1200
5972,1002,1203,1204
5973,1204,1003,1002
5974,2785,2786,3113
5975,3113,3112,2785
5976,1748,1550,1551
5977,1551,1749,1748
5978,1551,1552,1750
5979,1750,1749,1551
5980,1953,1952,1748
5981,1748,1749,1953
5982,1750,1954,1953
5983,1953,1749,1750
5984,1758,1757,1559
5985,1559,1560,1758
5986,1756,1558,1559
5987,1559,1757,1756
5988,1758,1962,1961
5989,1961,1757,1758
5990,1960,1756,1757
5991,1757,1961,1960
5992,2797,2798,3125
5993,3125,3124,2797
5994,1016,804,803
5995,803,1015,1016
5996,806,1018,1019
5997,1019,807,806
5998,1022,1223,1224
5999,1224,1023,1022
6000,1220,1221,1020
6001,1020,1019,1220
6002,1216,1217,1016
6003,1016,1015,1216
6004,1018,1219,1220
6005,1220,1019,1018
6006,2801,2802,3129
6007,3129,3128,2801
6008,1764,1566,1567
6009,1567,1765,1764
6010,1567,1568,1766
6011,1766,1765,1567
6012,1764,1765,1969
6013,1969,1968,1764
6014,1766,1970,1969
6015,1969,1765,1766
6016,1475,1774,1773
6017,1773,1473,1475
6018,1773,1772,1574
6019,1574,1473,1773
6020,1978,1977,1773
6021,1773,1774,1978
6022,1977,1976,1772
6023,1772,1773,1977
6024,820,819,1031
6025,1031,1032,820
6026,823,822,1034
6027,1034,1035,823
6028,1244,1039,1038
6029,1038,1248,1244
6030,1236,1237,1036
6031,1036,1035,1236
6032,1232,1233,1032
6033,1032,1031,1232
6034,1235,1236,1035
6035,1035,1034,1235
6036,3052,3050,2817
6037,2817,2818,3052
6038,4215,4087,4086
6039,4086,4214,4215
6040,4211,4212,4084
6041,4084,4083,4211
6042,4338,3978,3979
6043,3979,4336,4338
6044,4230,4231,4103
6045,4103,4102,4230
6046,4227,4228,4100
6047,4100,4099,4227
6048,4206,3994,3995
6049,3995,4202,4206
6050,4247,4119,4118
6051,4118,4246,4247
6052,4353,4013,4014
6053,4014,4354,4353
6054,4116,4115,4243
6055,4243,4244,4116
6056,4263,4135,4134
6057,4134,4262,4263
6058,4369,4029,4030
6059,4030,4370,4369
6060,4131,4259,4260
6061,4260,4132,4131
6062,4026,4027,4367
6063,4367,4366,4026
6064,4150,4278,4279
6065,4279,4151,4150
6066,4385,4045,4046
6067,4046,4386,4385
6068,4275,4276,4148
6069,4148,4147,4275
6070,4294,4295,4167
6071,4167,4166,4294
6072,4292,4164,4163
6073,4163,4291,4292
6074,4209,4207,4058
6075,4058,4059,4209
6076,828,827,1039
6077,1039,1040,828
6078,523,522,215
6079,215,216,523
6080,109,110,215
6081,215,214,109
6082,84,110,109
6083,109,82,84
6084,521,214,215
6085,215,522,521
6086,111,216,215
6087,215,110,111
6088,86,111,110
6089,110,84,86
6090,229,536,535
6091,535,228,229
6092,125,230,229
6093,229,124,125
6094,125,124,6
6095,6,7,125
6096,428,329,328
6097,328,427,428
6098,426,427,328
6099,328,327,426
6100,536,229,230
6101,230,537,536
6102,123,124,229
6103,229,228,123
6104,123,5,6
6105,6,124,123
6106,3058,3056,3146
6107,3146,3145,3058
6108,3159,3158,3067
6109,3067,3068,3159
6110,538,231,232
6111,232,539,538
6112,231,230,125
6113,125,126,231
6114,8,126,125
6115,125,7,8
6116,231,538,537
6117,537,230,231
6118,126,127,232
6119,232,231,126
6120,126,8,9
6121,9,127,126
6122,552,551,244
6123,244,245,552
6124,141,246,245
6125,245,140,141
6126,141,140,22
6127,22,23,141
6128,444,345,344
6129,344,443,444
6130,442,443,344
6131,344,343,442
6132,245,246,553
6133,553,552,245
6134,139,140,245
6135,245,244,139
6136,139,21,22
6137,22,140,139
6138,3161,3070,3071
6139,3071,3162,3161
6140,3084,3175,3174
6141,3174,3083,3084
6142,247,248,555
6143,555,554,247
6144,142,247,246
6145,246,141,142
6146,141,23,24
6147,24,142,141
6148,554,553,246
6149,246,247,554
6150,247,142,143
6151,143,248,247
6152,143,142,24
6153,24,25,143
6154,567,260,261
6155,261,568,567
6156,157,262,261
6157,261,156,157
6158,39,157,156
6159,156,38,39
6160,460,361,360
6161,360,459,460
6162,458,459,360
6163,360,359,458
6164,569,568,261
6165,261,262,569
6166,155,156,261
6167,261,260,155
6168,155,37,38
6169,38,156,155
6170,3177,3086,3087
6171,3087,3178,3177
6172,3190,3099,3100
6173,3100,3191,3190
6174,571,570,263
6175,263,264,571
6176,262,157,158
6177,158,263,262
6178,157,39,40
6179,40,158,157
6180,262,263,570
6181,570,569,262
6182,159,264,263
6183,263,158,159
6184,159,158,40
6185,40,41,159
6186,583,276,277
6187,277,584,583
6188,173,278,277
6189,277,172,173
6190,54,55,173
6191,173,172,54
6192,376,475,476
6193,476,377,376
6194,475,376,375
6195,375,474,475
6196,585,584,277
6197,277,278,585
6198,171,172,277
6199,277,276,171
6200,172,171,53
6201,53,54,172
6202,3102,3103,3194
6203,3194,3193,3102
6204,3206,3115,3116
6205,3116,3207,3206
6206,587,586,279
6207,279,280,587
6208,174,279,278
6209,278,173,174
6210,173,55,56
6211,56,174,173
6212,585,278,279
6213,279,586,585
6214,279,174,175
6215,175,280,279
6216,175,174,56
6217,56,57,175
6218,599,292,293
6219,293,600,599
6220,293,188,189
6221,189,294,293
6222,189,188,70
6223,70,71,189
6224,492,393,392
6225,392,491,492
6226,490,491,392
6227,392,391,490
6228,601,600,293
6229,293,294,601
6230,188,293,292
6231,292,187,188
6232,187,69,70
6233,70,188,187
6234,3209,3118,3119
6235,3119,3210,3209
6236,3222,3131,3132
6237,3132,3223,3222
6238,295,296,603
6239,603,602,295
6240,190,295,294
6241,294,189,190
6242,189,71,72
6243,72,190,189
6244,602,601,294
6245,294,295,602
6246,295,190,191
6247,191,296,295
6248,191,190,72
6249,72,73,191
6250,615,308,309
6251,309,616,615
6252,204,205,310
6253,310,309,204
6254,85,83,205
6255,205,204,85
6256,509,409,408
6257,408,511,509
6258,511,408,407
6259,407,513,511
6260,309,308,203
6261,203,204,309
6262,87,85,204
6263,204,203,87
6264,617,616,309
6265,309,310,617
6266,3134,3135,3226
6267,3226,3225,3134
6268,3059,3239,3238
6269,3238,3057,3059
6270,506,730,731
6271,731,508,506
6272,942,943,731
6273,731,730,942
6274,1367,1366,1579
6275,1579,1580,1367
6276,1783,1784,1579
6277,1579,1578,1783
6278,1365,1578,1579
6279,1579,1366,1365
6280,1785,1580,1579
6281,1579,1784,1785
6282,1371,1584,1585
6283,1585,1372,1371
6284,1791,1586,1585
6285,1585,1790,1791
6286,1789,1790,1585
6287,1585,1584,1789
6288,1373,1372,1585
6289,1585,1586,1373
6290,1373,1152,1151
6291,1151,1372,1373
6292,4223,4224,4096
6293,4096,4095,4223
6294,4313,3990,3991
6295,3991,4311,4313
6296,4227,4099,4098
6297,4098,4226,4227
6298,1382,1595,1596
6299,1596,1383,1382
6300,1799,1800,1595
6301,1595,1594,1799
6302,1595,1382,1381
6303,1381,1594,1595
6304,1801,1596,1595
6305,1595,1800,1801
6306,1387,1600,1601
6307,1601,1388,1387
6308,1807,1602,1601
6309,1601,1806,1807
6310,1805,1806,1601
6311,1601,1600,1805
6312,1389,1388,1601
6313,1601,1602,1389
6314,1389,1168,1167
6315,1167,1388,1389
6316,4112,4111,4239
6317,4239,4240,4112
6318,4347,4346,4006
6319,4006,4007,4347
6320,4114,4242,4243
6321,4243,4115,4114
6322,1398,1611,1612
6323,1612,1399,1398
6324,1815,1816,1611
6325,1611,1610,1815
6326,1611,1398,1397
6327,1397,1610,1611
6328,1817,1612,1611
6329,1611,1816,1817
6330,1403,1616,1617
6331,1617,1404,1403
6332,1823,1618,1617
6333,1617,1822,1823
6334,1821,1822,1617
6335,1617,1616,1821
6336,1405,1404,1617
6337,1617,1618,1405
6338,1405,1184,1183
6339,1183,1404,1405
6340,4255,4256,4128
6341,4128,4127,4255
6342,4363,4362,4022
6343,4022,4023,4363
6344,4259,4131,4130
6345,4130,4258,4259
6346,4366,4365,4025
6347,4025,4026,4366
6348,1415,1414,1627
6349,1627,1628,1415
6350,1831,1832,1627
6351,1627,1626,1831
6352,1413,1626,1627
6353,1627,1414,1413
6354,1833,1628,1627
6355,1627,1832,1833
6356,1419,1632,1633
6357,1633,1420,1419
6358,1419,1420,1199
6359,1199,1198,1419
6360,1839,1634,1633
6361,1633,1838,1839
6362,1837,1838,1633
6363,1633,1632,1837
6364,1421,1420,1633
6365,1633,1634,1421
6366,1421,1200,1199
6367,1199,1420,1421
6368,4272,4144,4143
6369,4143,4271,4272
6370,4039,4379,4378
6371,4378,4038,4039
6372,4275,4147,4146
6373,4146,4274,4275
6374,4381,4041,4042
6375,4042,4382,4381
6376,1209,1430,1431
6377,1431,1210,1209
6378,1431,1430,1643
6379,1643,1644,1431
6380,1643,1642,1847
6381,1847,1848,1643
6382,1429,1642,1643
6383,1643,1430,1429
6384,1848,1849,1644
6385,1644,1643,1848
6386,1435,1648,1649
6387,1649,1436,1435
6388,1215,1214,1435
6389,1435,1436,1215
6390,1649,1854,1855
6391,1855,1650,1649
6392,1854,1649,1648
6393,1648,1853,1854
6394,1437,1436,1649
6395,1649,1650,1437
6396,1436,1437,1216
6397,1216,1215,1436
6398,4287,4288,4160
6399,4160,4159,4287
6400,4162,4290,4291
6401,4291,4163,4162
6402,4207,4203,4057
6403,4057,4058,4207
6404,1447,1226,1225
6405,1225,1446,1447
6406,1659,1660,1447
6407,1447,1446,1659
6408,1863,1864,1659
6409,1659,1658,1863
6410,1446,1445,1658
6411,1658,1659,1446
6412,1865,1660,1659
6413,1659,1864,1865
6414,1451,1664,1665
6415,1665,1452,1451
6416,1231,1230,1451
6417,1451,1452,1231
6418,1665,1870,1871
6419,1871,1666,1665
6420,1870,1665,1664
6421,1664,1869,1870
6422,1453,1452,1665
6423,1665,1666,1453
6424,1452,1453,1232
6425,1232,1231,1452
6426,4303,4304,4176
6427,4176,4175,4303
6428,4178,4306,4307
6429,4307,4179,4178
6430,1478,1476,1683
6431,1683,1682,1478
6432,527,220,221
6433,221,528,527
6434,221,116,117
6435,117,222,221
6436,98,117,116
6437,116,96,98
6438,116,221,220
6439,220,115,116
6440,96,116,115
6441,115,94,96
6442,529,528,221
6443,221,222,529
6444,1489,1490,1688
6445,1688,1687,1489
6446,1491,1490,1267
6447,1267,1268,1491
6448,1981,1886,2100
6449,2100,2099,1981
6450,2316,2099,2100
6451,2100,2311,2316
6452,1887,1886,1682
6453,1682,1683,1887
6454,1891,1687,1688
6455,1688,1892,1891
6456,2106,1892,1893
6457,1893,2107,2106
6458,2105,2106,2323
6459,2323,2322,2105
6460,531,530,223
6461,223,224,531
6462,223,222,117
6463,117,118,223
6464,100,118,117
6465,117,98,100
6466,420,421,322
6467,322,321,420
6468,118,119,224
6469,224,223,118
6470,100,1,119
6471,119,118,100
6472,529,222,223
6473,223,530,529
6474,422,323,322
6475,322,421,422
6476,1497,1498,1696
6477,1696,1695,1497
6478,1492,1491,1268
6479,1268,1269,1492
6480,1493,1691,1690
6481,1690,1492,1493
6482,1900,1901,2115
6483,2115,2114,1900
6484,1899,1695,1696
6485,1696,1900,1899
6486,2114,2331,2330
6487,2330,2113,2114
6488,2108,2107,1893
6489,1893,1894,2108
6490,2107,2108,2325
6491,2325,2324,2107
6492,1895,1894,1690
6493,1690,1691,1895
6494,2108,2109,2326
6495,2326,2325,2108
6496,2277,2280,1992
6497,1992,1991,2277
6498,1784,1783,1990
6499,1990,1991,1784
6500,2274,2277,1991
6501,1991,1990,2274
6502,1991,1992,1785
6503,1785,1784,1991
6504,3047,3045,3151
6505,3151,3150,3047
6506,2288,2290,1997
6507,1997,1996,2288
6508,1791,1790,1997
6509,1997,1998,1791
6510,1789,1996,1997
6511,1997,1790,1789
6512,2290,2292,1998
6513,1998,1997,2290
6514,1379,1592,1593
6515,1593,1380,1379
6516,1799,1594,1593
6517,1593,1798,1799
6518,1381,1380,1593
6519,1593,1594,1381
6520,1797,1798,1593
6521,1593,1592,1797
6522,1375,1374,1587
6523,1587,1588,1375
6524,1791,1792,1587
6525,1587,1586,1791
6526,1373,1586,1587
6527,1587,1374,1373
6528,1373,1374,1153
6529,1153,1152,1373
6530,1793,1588,1587
6531,1587,1792,1793
6532,2941,2937,3154
6533,3154,3153,2941
6534,2200,2201,2005
6535,2005,2004,2200
6536,1799,1798,2005
6537,2005,2006,1799
6538,1797,2004,2005
6539,2005,1798,1797
6540,2202,2006,2005
6541,2005,2201,2202
6542,2294,2296,2000
6543,2000,1999,2294
6544,1791,1998,1999
6545,1999,1792,1791
6546,2292,2294,1999
6547,1999,1998,2292
6548,1793,1792,1999
6549,1999,2000,1793
6550,1277,1500,1499
6551,1499,1276,1277
6552,1500,1501,1699
6553,1699,1698,1500
6554,543,236,237
6555,237,544,543
6556,133,238,237
6557,237,132,133
6558,132,14,15
6559,15,133,132
6560,131,132,237
6561,237,236,131
6562,14,132,131
6563,131,13,14
6564,545,544,237
6565,237,238,545
6566,1505,1506,1704
6567,1704,1703,1505
6568,2116,2115,1901
6569,1901,1902,2116
6570,1902,1698,1699
6571,1699,1903,1902
6572,2116,2117,2334
6573,2334,2333,2116
6574,1907,1703,1704
6575,1704,1908,1907
6576,2122,1908,1909
6577,1909,2123,2122
6578,2122,2123,2340
6579,2340,2339,2122
6580,2121,2122,2339
6581,2339,2338,2121
6582,547,546,239
6583,239,240,547
6584,239,238,133
6585,133,134,239
6586,16,134,133
6587,133,15,16
6588,436,437,338
6589,338,337,436
6590,134,135,240
6591,240,239,134
6592,134,16,17
6593,17,135,134
6594,545,238,239
6595,239,546,545
6596,438,339,338
6597,338,437,438
6598,1513,1514,1712
6599,1712,1711,1513
6600,1509,1707,1706
6601,1706,1508,1509
6602,1916,1917,2131
6603,2131,2130,1916
6604,1915,1711,1712
6605,1712,1916,1915
6606,2124,2123,1909
6607,1909,1910,2124
6608,2123,2124,2341
6609,2341,2340,2123
6610,1910,1706,1707
6611,1707,1911,1910
6612,2124,2125,2342
6613,2342,2341,2124
6614,2204,2008,2007
6615,2007,2203,2204
6616,1799,2006,2007
6617,2007,1800,1799
6618,1801,1800,2007
6619,2007,2008,1801
6620,2202,2203,2007
6621,2007,2006,2202
6622,3166,3075,3076
6623,3076,3167,3166
6624,2013,2012,2208
6625,2208,2209,2013
6626,1806,2013,2014
6627,2014,1807,1806
6628,2013,1806,1805
6629,1805,2012,2013
6630,2209,2210,2014
6631,2014,2013,2209
6632,1395,1396,1175
6633,1175,1174,1395
6634,1395,1608,1609
6635,1609,1396,1395
6636,1815,1610,1609
6637,1609,1814,1815
6638,1397,1396,1609
6639,1609,1610,1397
6640,1813,1814,1609
6641,1609,1608,1813
6642,1391,1390,1603
6643,1603,1604,1391
6644,1807,1808,1603
6645,1603,1602,1807
6646,1389,1602,1603
6647,1603,1390,1389
6648,1389,1390,1169
6649,1169,1168,1389
6650,1809,1604,1603
6651,1603,1808,1809
6652,3078,3079,3170
6653,3170,3169,3078
6654,2216,2217,2021
6655,2021,2020,2216
6656,1815,1814,2021
6657,2021,2022,1815
6658,1813,2020,2021
6659,2021,1814,1813
6660,2218,2022,2021
6661,2021,2217,2218
6662,2212,2016,2015
6663,2015,2211,2212
6664,1808,1807,2014
6665,2014,2015,1808
6666,2210,2211,2015
6667,2015,2014,2210
6668,2015,2016,1809
6669,1809,1808,2015
6670,1714,1516,1517
6671,1517,1715,1714
6672,559,252,253
6673,253,560,559
6674,149,254,253
6675,253,148,149
6676,149,148,30
6677,30,31,149
6678,147,148,253
6679,253,252,147
6680,147,29,30
6681,30,148,147
6682,561,560,253
6683,253,254,561
6684,1521,1522,1720
6685,1720,1719,1521
6686,1523,1522,1299
6687,1299,1300,1523
6688,2132,2131,1917
6689,1917,1918,2132
6690,2132,2349,2348
6691,2348,2131,2132
6692,1919,1918,1714
6693,1714,1715,1919
6694,1923,1719,1720
6695,1720,1924,1923
6696,2138,1924,1925
6697,1925,2139,2138
6698,2137,2138,2355
6699,2355,2354,2137
6700,563,562,255
6701,255,256,563
6702,149,150,255
6703,255,254,149
6704,149,31,32
6705,32,150,149
6706,452,453,354
6707,354,353,452
6708,151,256,255
6709,255,150,151
6710,151,150,32
6711,32,33,151
6712,561,254,255
6713,255,562,561
6714,454,355,354
6715,354,453,454
6716,1529,1530,1728
6717,1728,1727,1529
6718,1524,1523,1300
6719,1300,1301,1524
6720,1525,1723,1722
6721,1722,1524,1525
6722,1933,2147,2146
6723,2146,1932,1933
6724,1931,1727,1728
6725,1728,1932,1931
6726,2145,2146,2363
6727,2363,2362,2145
6728,2140,2139,1925
6729,1925,1926,2140
6730,2139,2140,2357
6731,2357,2356,2139
6732,1927,1926,1722
6733,1722,1723,1927
6734,2140,2141,2358
6735,2358,2357,2140
6736,2023,2219,2220
6737,2220,2024,2023
6738,1816,1815,2022
6739,2022,2023,1816
6740,2023,2024,1817
6741,1817,1816,2023
6742,2219,2023,2022
6743,2022,2218,2219
6744,3182,3091,3092
6745,3092,3183,3182
6746,2224,2225,2029
6747,2029,2028,2224
6748,1823,1822,2029
6749,2029,2030,1823
6750,1821,2028,2029
6751,2029,1822,1821
6752,2226,2030,2029
6753,2029,2225,2226
6754,1411,1624,1625
6755,1625,1412,1411
6756,1831,1626,1625
6757,1625,1830,1831
6758,1413,1412,1625
6759,1625,1626,1413
6760,1829,1830,1625
6761,1625,1624,1829
6762,1407,1406,1619
6763,1619,1620,1407
6764,1823,1824,1619
6765,1619,1618,1823
6766,1405,1618,1619
6767,1619,1406,1405
6768,1405,1406,1185
6769,1185,1184,1405
6770,1825,1620,1619
6771,1619,1824,1825
6772,3094,3095,3186
6773,3186,3185,3094
6774,2232,2233,2037
6775,2037,2036,2232
6776,2038,1831,1830
6777,1830,2037,2038
6778,1829,2036,2037
6779,2037,1830,1829
6780,2038,2037,2233
6781,2233,2234,2038
6782,2228,2032,2031
6783,2031,2227,2228
6784,1823,2030,2031
6785,2031,1824,1823
6786,2226,2227,2031
6787,2031,2030,2226
6788,1825,1824,2031
6789,2031,2032,1825
6790,1308,1309,1532
6791,1532,1531,1308
6792,1533,1731,1730
6793,1730,1532,1533
6794,575,268,269
6795,269,576,575
6796,165,270,269
6797,269,164,165
6798,165,164,46
6799,46,47,165
6800,163,164,269
6801,269,268,163
6802,163,45,46
6803,46,164,163
6804,577,576,269
6805,269,270,577
6806,1537,1538,1736
6807,1736,1735,1537
6808,2147,1933,1934
6809,1934,2148,2147
6810,1935,1934,1730
6811,1730,1731,1935
6812,2148,2149,2366
6813,2366,2365,2148
6814,1939,1735,1736
6815,1736,1940,1939
6816,2154,1940,1941
6817,1941,2155,2154
6818,2154,2155,2372
6819,2372,2371,2154
6820,2153,2154,2371
6821,2371,2370,2153
6822,579,578,271
6823,271,272,579
6824,165,166,271
6825,271,270,165
6826,165,47,48
6827,48,166,165
6828,468,469,370
6829,370,369,468
6830,167,272,271
6831,271,166,167
6832,167,166,48
6833,48,49,167
6834,577,270,271
6835,271,578,577
6836,470,371,370
6837,370,469,470
6838,1545,1546,1744
6839,1744,1743,1545
6840,1541,1739,1738
6841,1738,1540,1541
6842,1948,1949,2163
6843,2163,2162,1948
6844,1947,1743,1744
6845,1744,1948,1947
6846,2156,2155,1941
6847,1941,1942,2156
6848,2155,2156,2373
6849,2373,2372,2155
6850,1943,1942,1738
6851,1738,1739,1943
6852,2156,2157,2374
6853,2374,2373,2156
6854,2236,2040,2039
6855,2039,2235,2236
6856,1831,2038,2039
6857,2039,1832,1831
6858,1833,1832,2039
6859,2039,2040,1833
6860,2234,2235,2039
6861,2039,2038,2234
6862,3198,3107,3108
6863,3108,3199,3198
6864,2240,2241,2045
6865,2045,2044,2240
6866,1839,1838,2045
6867,2045,2046,1839
6868,1837,2044,2045
6869,2045,1838,1837
6870,2242,2046,2045
6871,2045,2241,2242
6872,1427,1428,1207
6873,1207,1206,1427
6874,1427,1640,1641
6875,1641,1428,1427
6876,1847,1642,1641
6877,1641,1846,1847
6878,1429,1428,1641
6879,1641,1642,1429
6880,1845,1846,1641
6881,1641,1640,1845
6882,1423,1422,1635
6883,1635,1636,1423
6884,1839,1840,1635
6885,1635,1634,1839
6886,1421,1634,1635
6887,1635,1422,1421
6888,1421,1422,1201
6889,1201,1200,1421
6890,1841,1636,1635
6891,1635,1840,1841
6892,3110,3111,3202
6893,3202,3201,3110
6894,2248,2249,2053
6895,2053,2052,2248
6896,2053,2054,1847
6897,1847,1846,2053
6898,1846,1845,2052
6899,2052,2053,1846
6900,2250,2054,2053
6901,2053,2249,2250
6902,2244,2048,2047
6903,2047,2243,2244
6904,1839,2046,2047
6905,2047,1840,1839
6906,2242,2243,2047
6907,2047,2046,2242
6908,1841,1840,2047
6909,2047,2048,1841
6910,1746,1548,1549
6911,1549,1747,1746
6912,591,284,285
6913,285,592,591
6914,181,286,285
6915,285,180,181
6916,180,62,63
6917,63,181,180
6918,179,180,285
6919,285,284,179
6920,62,180,179
6921,179,61,62
6922,593,592,285
6923,285,286,593
6924,1554,1752,1751
6925,1751,1553,1554
6926,1331,1332,1555
6927,1555,1554,1331
6928,2164,2163,1949
6929,1949,1950,2164
6930,2164,2381,2380
6931,2380,2163,2164
6932,1951,1950,1746
6933,1746,1747,1951
6934,1955,1751,1752
6935,1752,1956,1955
6936,2170,1956,1957
6937,1957,2171,2170
6938,2387,2386,2169
6939,2169,2170,2387
6940,595,594,287
6941,287,288,595
6942,181,182,287
6943,287,286,181
6944,64,182,181
6945,181,63,64
6946,484,485,386
6947,386,385,484
6948,183,288,287
6949,287,182,183
6950,182,64,65
6951,65,183,182
6952,593,286,287
6953,287,594,593
6954,486,387,386
6955,386,485,486
6956,1562,1760,1759
6957,1759,1561,1562
6958,1556,1555,1332
6959,1332,1333,1556
6960,1557,1755,1754
6961,1754,1556,1557
6962,1964,1965,2179
6963,2179,2178,1964
6964,1963,1759,1760
6965,1760,1964,1963
6966,2178,2395,2394
6967,2394,2177,2178
6968,2172,2171,1957
6969,1957,1958,2172
6970,2389,2388,2171
6971,2171,2172,2389
6972,1959,1958,1754
6973,1754,1755,1959
6974,2172,2173,2390
6975,2390,2389,2172
6976,2251,2252,2056
6977,2056,2055,2251
6978,2055,1848,1847
6979,1847,2054,2055
6980,1848,2055,2056
6981,2056,1849,1848
6982,2055,2054,2250
6983,2250,2251,2055
6984,3124,3215,3214
6985,3214,3123,3124
6986,2256,2257,2061
6987,2061,2060,2256
6988,1855,1854,2061
6989,2061,2062,1855
6990,1853,2060,2061
6991,2061,1854,1853
6992,2258,2062,2061
6993,2061,2257,2258
6994,1443,1656,1657
6995,1657,1444,1443
6996,1863,1658,1657
6997,1657,1862,1863
6998,1445,1444,1657
6999,1657,1658,1445
7000,1861,1862,1657
7001,1657,1656,1861
7002,1438,1651,1652
7003,1652,1439,1438
7004,1651,1650,1855
7005,1855,1856,1651
7006,1651,1438,1437
7007,1437,1650,1651
7008,1217,1216,1437
7009,1437,1438,1217
7010,1856,1857,1652
7011,1652,1651,1856
7012,3126,3127,3218
7013,3218,3217,3126
7014,2265,2069,2068
7015,2068,2264,2265
7016,1863,1862,2069
7017,2069,2070,1863
7018,1861,2068,2069
7019,2069,1862,1861
7020,2069,2265,2266
7021,2266,2070,2069
7022,2260,2064,2063
7023,2063,2259,2260
7024,1855,2062,2063
7025,2063,1856,1855
7026,2258,2259,2063
7027,2063,2062,2258
7028,1857,1856,2063
7029,2063,2064,1857
7030,1564,1563,1340
7031,1340,1341,1564
7032,1565,1763,1762
7033,1762,1564,1565
7034,301,608,607
7035,607,300,301
7036,197,302,301
7037,301,196,197
7038,101,99,197
7039,197,196,101
7040,195,196,301
7041,301,300,195
7042,101,196,195
7043,195,77,101
7044,608,301,302
7045,302,609,608
7046,1768,1767,1569
7047,1569,1570,1768
7048,2180,2179,1965
7049,1965,1966,2180
7050,1966,1762,1763
7051,1763,1967,1966
7052,2180,2181,2398
7053,2398,2397,2180
7054,1971,1767,1768
7055,1768,1972,1971
7056,2186,1972,1973
7057,1973,2187,2186
7058,2186,2187,2404
7059,2404,2403,2186
7060,2185,2186,2403
7061,2403,2402,2185
7062,611,610,303
7063,303,304,611
7064,198,303,302
7065,302,197,198
7066,99,97,198
7067,198,197,99
7068,501,402,401
7069,401,500,501
7070,303,198,199
7071,199,304,303
7072,97,95,199
7073,199,198,97
7074,609,302,303
7075,303,610,609
7076,402,501,502
7077,502,403,402
7078,1479,1776,1775
7079,1775,1477,1479
7080,1573,1771,1770
7081,1770,1572,1573
7082,1982,2098,2194
7083,2194,1980,1982
7084,1979,1775,1776
7085,1776,1980,1979
7086,2188,2187,1973
7087,1973,1974,2188
7088,2187,2188,2405
7089,2405,2404,2187
7090,1975,1974,1770
7091,1770,1771,1975
7092,2188,2189,2406
7093,2406,2405,2188
7094,2267,2268,2072
7095,2072,2071,2267
7096,2071,1864,1863
7097,1863,2070,2071
7098,1864,2071,2072
7099,2072,1865,1864
7100,2071,2070,2266
7101,2266,2267,2071
7102,2942,3231,3230
7103,3230,2938,2942
7104,2295,2077,2076
7105,2076,2297,2295
7106,1871,1870,2077
7107,2077,2078,1871
7108,1869,2076,2077
7109,2077,1870,1869
7110,2293,2078,2077
7111,2077,2295,2293
7112,1460,1248,1238
7113,1238,1459,1460
7114,1673,1460,1459
7115,1459,1672,1673
7116,1878,1879,1577
7117,1577,1673,1878
7118,1460,1673,1577
7119,1577,1364,1460
7120,1877,1878,1673
7121,1673,1672,1877
7122,1455,1454,1667
7123,1667,1668,1455
7124,1871,1872,1667
7125,1667,1666,1871
7126,1453,1666,1667
7127,1667,1454,1453
7128,1454,1233,1232
7129,1232,1453,1454
7130,1873,1668,1667
7131,1667,1872,1873
7132,3048,3234,3233
7133,3233,3046,3048
7134,2276,2085,2084
7135,2084,2281,2276
7136,1879,1878,2085
7137,2085,1989,1879
7138,2275,1989,2085
7139,2085,2276,2275
7140,1878,1877,2084
7141,2084,2085,1878
7142,2289,2080,2079
7143,2079,2291,2289
7144,1871,2078,2079
7145,2079,1872,1871
7146,2291,2079,2078
7147,2078,2293,2291
7148,1873,1872,2079
7149,2079,2080,1873
7150,944,945,733
7151,733,732,944
7152,733,734,619
7153,619,512,733
7154,733,945,946
7155,946,734,733
7156,4215,4216,4088
7157,4088,4087,4215
7158,4330,3982,3983
7159,3983,4328,4330
7160,4219,4091,4090
7161,4090,4218,4219
7162,6879,6878,6467
7163,6467,6468,6879
7164,6879,7088,7087
7165,7087,6878,6879
7166,6677,6676,7087
7167,7087,7088,6677
7168,6871,6460,6461
7169,6461,6872,6871
7170,6871,6872,7081
7171,7081,7080,6871
7172,7081,6670,6669
7173,6669,7080,7081
7174,4710,4503,4215
7175,4502,4710,4215
7176,4215,4214,4502
7177,4602,4399,4332
7178,4400,4602,4332
7179,4332,4330,4400
7180,4707,4500,4212
7181,4499,4707,4212
7182,4212,4211,4499
7183,4599,4396,4338
7184,4397,4599,4338
7185,4338,4336,4397
7186,6863,6864,7073
7187,7073,7072,6863
7188,7073,6662,6661
7189,6661,7072,7073
7190,6661,6662,6250
7191,6250,6249,6661
7192,6871,7080,7079
7193,7079,6870,6871
7194,6669,6668,7079
7195,7079,7080,6669
7196,4603,4400,4330
7197,4401,4603,4330
7198,4330,4328,4401
7199,4606,4403,4324
7200,4404,4606,4324
7201,4324,4322,4404
7202,960,961,749
7203,749,748,960
7204,750,749,961
7205,961,962,750
7206,4231,4232,4104
7207,4104,4103,4231
7208,4196,3998,3999
7209,3999,4194,4196
7210,4235,4107,4106
7211,4106,4234,4235
7212,4190,4001,4002
7213,4002,4188,4190
7214,6911,6910,6499
7215,6499,6500,6911
7216,6911,7120,7119
7217,7119,6910,6911
7218,6709,6708,7119
7219,7119,7120,6709
7220,6903,6492,6493
7221,6493,6904,6903
7222,6903,6904,7113
7223,7113,7112,6903
7224,6701,6702,6290
7225,6290,6289,6701
7226,7113,6702,6701
7227,6701,7112,7113
7228,4519,4231,4230
7229,4230,4726,4519
7230,4230,4518,4726
7231,4618,4415,4198
7232,4416,4618,4198
7233,4198,4196,4416
7234,4723,4516,4228
7235,4515,4723,4228
7236,4228,4227,4515
7237,4615,4412,4206
7238,4413,4615,4206
7239,4206,4202,4413
7240,6895,6896,7105
7241,7105,7104,6895
7242,7105,6694,6693
7243,6693,7104,7105
7244,6693,6694,6282
7245,6282,6281,6693
7246,6903,7112,7111
7247,7111,6902,6903
7248,6700,6701,6289
7249,6289,6288,6700
7250,6701,6700,7111
7251,7111,7112,6701
7252,4619,4416,4196
7253,4417,4619,4196
7254,4196,4194,4417
7255,4622,4419,4190
7256,4420,4622,4190
7257,4190,4188,4420
7258,976,977,765
7259,765,764,976
7260,447,446,765
7261,765,766,447
7262,978,766,765
7263,765,977,978
7264,4247,4248,4120
7265,4120,4119,4247
7266,4355,4354,4014
7267,4014,4015,4355
7268,4251,4123,4122
7269,4122,4250,4251
7270,4357,4017,4018
7271,4018,4358,4357
7272,6942,6531,6532
7273,6532,6943,6942
7274,6943,7152,7151
7275,7151,6942,6943
7276,6741,6740,7151
7277,7151,7152,6741
7278,6740,6741,6329
7279,6329,6328,6740
7280,6525,6936,6935
7281,6935,6524,6525
7282,7145,7144,6935
7283,6935,6936,7145
7284,6733,6734,6322
7285,6322,6321,6733
7286,7145,6734,6733
7287,6733,7144,7145
7288,4742,4535,4247
7289,4534,4742,4247
7290,4247,4246,4534
7291,4634,4431,4353
7292,4432,4634,4353
7293,4353,4354,4432
7294,4532,4244,4243
7295,4243,4739,4532
7296,4243,4531,4739
7297,4428,4350,4351
7298,4351,4631,4428
7299,4351,4429,4631
7300,6927,6928,7137
7301,7137,7136,6927
7302,7137,6726,6725
7303,6725,7136,7137
7304,6935,7144,7143
7305,7143,6934,6935
7306,6733,6732,7143
7307,7143,7144,6733
7308,4635,4432,4354
7309,4433,4635,4354
7310,4354,4355,4433
7311,4638,4435,4357
7312,4436,4638,4357
7313,4357,4358,4436
7314,992,993,781
7315,781,780,992
7316,781,782,463
7317,463,462,781
7318,781,993,994
7319,994,782,781
7320,4263,4264,4136
7321,4136,4135,4263
7322,4371,4370,4030
7323,4030,4031,4371
7324,4267,4139,4138
7325,4138,4266,4267
7326,4373,4033,4034
7327,4034,4374,4373
7328,6563,6564,6975
7329,6975,6974,6563
7330,7183,6974,6975
7331,6975,7184,7183
7332,6773,6772,7183
7333,7183,7184,6773
7334,6772,6773,6361
7335,6361,6360,6772
7336,6967,6556,6557
7337,6557,6968,6967
7338,6967,6968,7177
7339,7177,7176,6967
7340,6765,6766,6354
7341,6354,6353,6765
7342,7177,6766,6765
7343,6765,7176,7177
7344,4758,4551,4263
7345,4550,4758,4263
7346,4263,4262,4550
7347,4650,4447,4369
7348,4448,4650,4369
7349,4369,4370,4448
7350,4755,4548,4260
7351,4547,4755,4260
7352,4260,4259,4547
7353,4647,4444,4366
7354,4445,4647,4366
7355,4366,4367,4445
7356,7168,6959,6960
7357,6960,7169,7168
7358,7169,6758,6757
7359,6757,7168,7169
7360,6967,7176,7175
7361,7175,6966,6967
7362,6765,6764,7175
7363,7175,7176,6765
7364,4651,4448,4370
7365,4449,4651,4370
7366,4370,4371,4449
7367,4654,4451,4373
7368,4452,4654,4373
7369,4373,4374,4452
7370,796,797,478
7371,478,477,796
7372,1008,1009,797
7373,797,796,1008
7374,797,798,479
7375,479,478,797
7376,797,1009,1010
7377,1010,798,797
7378,4279,4280,4152
7379,4152,4151,4279
7380,4283,4155,4154
7381,4154,4282,4283
7382,7007,7006,6595
7383,6595,6596,7007
7384,7007,7216,7215
7385,7215,7006,7007
7386,6805,6804,7215
7387,7215,7216,6805
7388,6999,6588,6589
7389,6589,7000,6999
7390,6999,7000,7209
7391,7209,7208,6999
7392,7209,6798,6797
7393,6797,7208,7209
7394,4774,4567,4279
7395,4566,4774,4279
7396,4279,4278,4566
7397,4666,4463,4385
7398,4464,4666,4385
7399,4385,4386,4464
7400,4771,4564,4276
7401,4563,4771,4276
7402,4276,4275,4563
7403,4663,4460,4382
7404,4461,4663,4382
7405,4382,4383,4461
7406,6991,6992,7201
7407,7201,7200,6991
7408,7201,6790,6789
7409,6789,7200,7201
7410,6789,6790,6378
7411,6378,6377,6789
7412,6999,7208,7207
7413,7207,6998,6999
7414,6797,6796,7207
7415,7207,7208,6797
7416,4464,4386,4387
7417,4387,4667,4464
7418,4387,4465,4667
7419,4670,4467,4187
7420,4468,4670,4187
7421,4187,4189,4468
7422,812,813,494
7423,494,493,812
7424,1024,1025,813
7425,813,812,1024
7426,814,813,1025
7427,1025,1026,814
7428,4295,4296,4168
7429,4168,4167,4295
7430,4316,4314,4062
7431,4062,4063,4316
7432,4299,4171,4170
7433,4170,4298,4299
7434,7039,7038,6627
7435,6627,6628,7039
7436,7039,7248,7247
7437,7247,7038,7039
7438,6837,6836,7247
7439,7247,7248,6837
7440,7031,6620,6621
7441,6621,7032,7031
7442,7031,7032,7241
7443,7241,7240,7031
7444,6829,6830,6418
7445,6418,6417,6829
7446,7241,6830,6829
7447,6829,7240,7241
7448,4583,4295,4294
7449,4294,4790,4583
7450,4294,4582,4790
7451,4682,4479,4312
7452,4480,4682,4312
7453,4312,4314,4480
7454,4787,4580,4292
7455,4579,4787,4292
7456,4292,4291,4579
7457,4679,4476,4207
7458,4477,4679,4207
7459,4207,4209,4477
7460,7023,7024,7233
7461,7233,7232,7023
7462,7233,6822,6821
7463,6821,7232,7233
7464,6821,6822,6410
7465,6410,6409,6821
7466,7031,7240,7239
7467,7239,7030,7031
7468,6828,6829,6417
7469,6417,6416,6828
7470,6829,6828,7239
7471,7239,7240,6829
7472,4683,4480,4314
7473,4481,4683,4314
7474,4314,4316,4481
7475,4686,4483,4320
7476,4484,4686,4320
7477,4320,4323,4484
7478,1244,1246,1040
7479,1040,1039,1244
7480,523,630,629
7481,629,522,523
7482,836,628,629
7483,629,837,836
7484,521,522,629
7485,629,628,521
7486,838,837,629
7487,629,630,838
7488,523,216,217
7489,217,524,523
7490,217,112,113
7491,113,218,217
7492,90,113,112
7493,112,88,90
7494,112,217,216
7495,216,111,112
7496,88,112,111
7497,111,86,88
7498,525,524,217
7499,217,218,525
7500,227,228,535
7501,535,534,227
7502,122,227,226
7503,226,121,122
7504,121,3,4
7505,4,122,121
7506,424,425,326
7507,326,325,424
7508,426,327,326
7509,326,425,426
7510,227,122,123
7511,123,228,227
7512,123,122,4
7513,4,5,123
7514,534,533,226
7515,226,227,534
7516,535,536,643
7517,643,642,535
7518,428,427,746
7519,746,747,428
7520,852,851,643
7521,643,644,852
7522,537,644,643
7523,643,536,537
7524,850,642,643
7525,643,851,850
7526,424,743,744
7527,744,425,424
7528,426,425,744
7529,744,745,426
7530,2946,2837,2836
7531,2836,2945,2946
7532,3058,2727,2728
7533,2728,3056,3058
7534,3251,2945,2944
7535,2944,3250,3251
7536,3056,3053,3147
7537,3147,3146,3056
7538,2944,2945,2836
7539,2836,2835,2944
7540,2946,2945,3251
7541,3251,3252,2946
7542,3056,2728,2729
7543,2729,3053,3056
7544,745,746,427
7545,427,426,745
7546,958,746,745
7547,745,957,958
7548,956,957,745
7549,745,744,956
7550,2848,2847,2956
7551,2956,2957,2848
7552,3066,3067,3158
7553,3158,3157,3066
7554,3068,3067,2740
7555,2740,2741,3068
7556,3264,2958,2957
7557,2957,3263,3264
7558,3263,2957,2956
7559,2956,3262,3263
7560,3066,2739,2740
7561,2740,3067,3066
7562,2848,2957,2958
7563,2958,2849,2848
7564,538,539,646
7565,646,645,538
7566,852,644,645
7567,645,853,852
7568,645,644,537
7569,537,538,645
7570,854,853,645
7571,645,646,854
7572,233,540,539
7573,539,232,233
7574,129,234,233
7575,233,128,129
7576,129,128,10
7577,10,11,129
7578,127,128,233
7579,233,232,127
7580,127,9,10
7581,10,128,127
7582,540,233,234
7583,234,541,540
7584,550,243,244
7585,244,551,550
7586,137,138,243
7587,243,242,137
7588,137,19,20
7589,20,138,137
7590,342,341,440
7591,440,441,342
7592,441,442,343
7593,343,342,441
7594,139,244,243
7595,243,138,139
7596,139,138,20
7597,20,21,139
7598,243,550,549
7599,549,242,243
7600,551,552,659
7601,659,658,551
7602,444,443,762
7603,762,763,444
7604,867,659,660
7605,660,868,867
7606,553,660,659
7607,659,552,553
7608,659,867,866
7609,866,658,659
7610,440,759,760
7611,760,441,440
7612,442,441,760
7613,760,761,442
7614,2852,2961,2962
7615,2962,2853,2852
7616,3071,3070,2743
7617,2743,2744,3071
7618,3267,2961,2960
7619,2960,3266,3267
7620,3072,3163,3162
7621,3162,3071,3072
7622,2962,2961,3267
7623,3267,3268,2962
7624,2851,2960,2961
7625,2961,2852,2851
7626,3072,3071,2744
7627,2744,2745,3072
7628,761,762,443
7629,443,442,761
7630,974,762,761
7631,761,973,974
7632,760,972,973
7633,973,761,760
7634,2864,2863,2972
7635,2972,2973,2864
7636,3082,3083,3174
7637,3174,3173,3082
7638,3084,3083,2756
7639,2756,2757,3084
7640,2974,2973,3279
7641,3279,3280,2974
7642,2972,3278,3279
7643,3279,2973,2972
7644,3082,2755,2756
7645,2756,3083,3082
7646,2865,2864,2973
7647,2973,2974,2865
7648,555,662,661
7649,661,554,555
7650,868,660,661
7651,661,869,868
7652,553,554,661
7653,661,660,553
7654,870,869,661
7655,661,662,870
7656,555,248,249
7657,249,556,555
7658,249,144,145
7659,145,250,249
7660,26,27,145
7661,145,144,26
7662,144,249,248
7663,248,143,144
7664,144,143,25
7665,25,26,144
7666,557,556,249
7667,249,250,557
7668,567,566,259
7669,259,260,567
7670,153,154,259
7671,259,258,153
7672,153,35,36
7673,36,154,153
7674,456,457,358
7675,358,357,456
7676,458,359,358
7677,358,457,458
7678,155,260,259
7679,259,154,155
7680,155,154,36
7681,36,37,155
7682,565,258,259
7683,259,566,565
7684,567,568,675
7685,675,674,567
7686,460,459,778
7687,778,779,460
7688,884,883,675
7689,675,676,884
7690,676,675,568
7691,568,569,676
7692,882,674,675
7693,675,883,882
7694,456,775,776
7695,776,457,456
7696,458,457,776
7697,776,777,458
7698,2868,2977,2978
7699,2978,2869,2868
7700,3087,3086,2759
7701,2759,2760,3087
7702,3283,2977,2976
7703,2976,3282,3283
7704,3178,3087,3088
7705,3088,3179,3178
7706,2978,2977,3283
7707,3283,3284,2978
7708,2976,2977,2868
7709,2868,2867,2976
7710,3088,3087,2760
7711,2760,2761,3088
7712,777,778,459
7713,459,458,777
7714,990,778,777
7715,777,989,990
7716,988,989,777
7717,777,776,988
7718,2880,2879,2988
7719,2988,2989,2880
7720,3098,3099,3190
7721,3190,3189,3098
7722,3100,3099,2772
7723,2772,2773,3100
7724,2990,2989,3295
7725,3295,3296,2990
7726,3295,2989,2988
7727,2988,3294,3295
7728,3098,2771,2772
7729,2772,3099,3098
7730,2880,2989,2990
7731,2990,2881,2880
7732,571,678,677
7733,677,570,571
7734,884,676,677
7735,677,885,884
7736,569,570,677
7737,677,676,569
7738,886,885,677
7739,677,678,886
7740,571,264,265
7741,265,572,571
7742,161,266,265
7743,265,160,161
7744,161,160,42
7745,42,43,161
7746,159,160,265
7747,265,264,159
7748,159,41,42
7749,42,160,159
7750,573,572,265
7751,265,266,573
7752,582,275,276
7753,276,583,582
7754,275,274,169
7755,169,170,275
7756,52,170,169
7757,169,51,52
7758,374,373,472
7759,472,473,374
7760,473,474,375
7761,375,374,473
7762,170,171,276
7763,276,275,170
7764,170,52,53
7765,53,171,170
7766,275,582,581
7767,581,274,275
7768,583,584,691
7769,691,690,583
7770,476,475,794
7771,794,795,476
7772,900,899,691
7773,691,692,900
7774,585,692,691
7775,691,584,585
7776,898,690,691
7777,691,899,898
7778,792,473,472
7779,472,791,792
7780,473,792,793
7781,793,474,473
7782,2884,2993,2994
7783,2994,2885,2884
7784,3103,3102,2775
7785,2775,2776,3103
7786,3299,2993,2992
7787,2992,3298,3299
7788,3194,3103,3104
7789,3104,3195,3194
7790,2994,2993,3299
7791,3299,3300,2994
7792,2992,2993,2884
7793,2884,2883,2992
7794,3104,3103,2776
7795,2776,2777,3104
7796,793,794,475
7797,475,474,793
7798,1006,794,793
7799,793,1005,1006
7800,1004,1005,793
7801,793,792,1004
7802,2895,3004,3005
7803,3005,2896,2895
7804,3205,3114,3115
7805,3115,3206,3205
7806,2789,3116,3115
7807,3115,2788,2789
7808,3006,3005,3311
7809,3311,3312,3006
7810,3311,3005,3004
7811,3004,3310,3311
7812,3114,2787,2788
7813,2788,3115,3114
7814,3006,2897,2896
7815,2896,3005,3006
7816,586,587,694
7817,694,693,586
7818,900,692,693
7819,693,901,900
7820,693,692,585
7821,585,586,693
7822,902,901,693
7823,693,694,902
7824,587,280,281
7825,281,588,587
7826,177,282,281
7827,281,176,177
7828,177,176,58
7829,58,59,177
7830,175,176,281
7831,281,280,175
7832,175,57,58
7833,58,176,175
7834,589,588,281
7835,281,282,589
7836,599,598,291
7837,291,292,599
7838,185,186,291
7839,291,290,185
7840,185,67,68
7841,68,186,185
7842,488,489,390
7843,390,389,488
7844,490,391,390
7845,390,489,490
7846,187,292,291
7847,291,186,187
7848,187,186,68
7849,68,69,187
7850,597,290,291
7851,291,598,597
7852,707,706,599
7853,599,600,707
7854,492,491,810
7855,810,811,492
7856,916,915,707
7857,707,708,916
7858,600,601,708
7859,708,707,600
7860,914,706,707
7861,707,915,914
7862,808,489,488
7863,488,807,808
7864,489,808,809
7865,809,490,489
7866,2901,2900,3009
7867,3009,3010,2901
7868,3119,3118,2791
7869,2791,2792,3119
7870,3315,3009,3008
7871,3008,3314,3315
7872,3211,3210,3119
7873,3119,3120,3211
7874,3316,3010,3009
7875,3009,3315,3316
7876,3008,3009,2900
7877,2900,2899,3008
7878,2793,3120,3119
7879,3119,2792,2793
7880,809,810,491
7881,491,490,809
7882,810,809,1021
7883,1021,1022,810
7884,1020,1021,809
7885,809,808,1020
7886,2911,3020,3021
7887,3021,2912,2911
7888,3130,3131,3222
7889,3222,3221,3130
7890,3132,3131,2804
7891,2804,2805,3132
7892,3022,3021,3327
7893,3327,3328,3022
7894,3326,3327,3021
7895,3021,3020,3326
7896,2803,2804,3131
7897,3131,3130,2803
7898,2912,3021,3022
7899,3022,2913,2912
7900,709,602,603
7901,603,710,709
7902,917,916,708
7903,708,709,917
7904,602,709,708
7905,708,601,602
7906,709,710,918
7907,918,917,709
7908,603,296,297
7909,297,604,603
7910,192,193,298
7911,298,297,192
7912,192,74,75
7913,75,193,192
7914,297,296,191
7915,191,192,297
7916,74,192,191
7917,191,73,74
7918,605,604,297
7919,297,298,605
7920,615,614,307
7921,307,308,615
7922,201,202,307
7923,307,306,201
7924,91,89,202
7925,202,201,91
7926,620,406,405
7927,405,622,620
7928,513,407,406
7929,406,620,513
7930,203,308,307
7931,307,202,203
7932,89,87,203
7933,203,202,89
7934,613,306,307
7935,307,614,613
7936,615,616,723
7937,723,722,615
7938,509,511,826
7939,826,827,509
7940,932,931,723
7941,723,724,932
7942,617,724,723
7943,723,616,617
7944,930,722,723
7945,723,931,930
7946,824,620,622
7947,622,823,824
7948,825,513,620
7949,620,824,825
7950,3026,2917,2916
7951,2916,3025,3026
7952,3135,3134,2807
7953,2807,2808,3135
7954,3331,3025,3024
7955,3024,3330,3331
7956,3226,3135,3136
7957,3136,3227,3226
7958,3026,3025,3331
7959,3331,3332,3026
7960,2915,3024,3025
7961,3025,2916,2915
7962,3136,3135,2808
7963,2808,2809,3136
7964,511,513,825
7965,825,826,511
7966,1038,826,825
7967,825,1037,1038
7968,824,1036,1037
7969,1037,825,824
7970,3036,3037,2928
7971,2928,2927,3036
7972,3057,3238,3237
7973,3237,3054,3057
7974,3059,3057,2820
7975,2820,2821,3059
7976,3038,3037,3343
7977,3343,3344,3038
7978,3036,3342,3343
7979,3343,3037,3036
7980,2929,2928,3037
7981,3037,3038,2929
7982,3057,3054,2819
7983,2819,2820,3057
7984,1243,943,942
7985,942,1245,1243
7986,1243,1365,1366
7987,1366,1247,1243
7988,944,1247,1146
7989,1146,945,944
7990,1367,1368,1147
7991,1147,1146,1367
7992,1367,1580,1581
7993,1581,1368,1367
7994,1787,1582,1581
7995,1581,1786,1787
7996,1369,1368,1581
7997,1581,1582,1369
7998,1785,1786,1581
7999,1581,1580,1785
8000,946,945,1146
8001,1146,1147,946
8002,1148,1147,1368
8003,1368,1369,1148
8004,950,738,737
8005,737,949,950
8006,737,738,419
8007,419,418,737
8008,948,949,737
8009,737,736,948
8010,1371,1370,1583
8011,1583,1584,1371
8012,1787,1788,1583
8013,1583,1582,1787
8014,1369,1370,1149
8015,1149,1148,1369
8016,1369,1582,1583
8017,1583,1370,1369
8018,1789,1584,1583
8019,1583,1788,1789
8020,1150,1151,950
8021,950,949,1150
8022,948,1149,1150
8023,1150,949,948
8024,4094,4222,4223
8025,4223,4095,4094
8026,4315,3989,3990
8027,3990,4313,4315
8028,4219,4220,4092
8029,4092,4091,4219
8030,6879,6468,6469
8031,6469,6880,6879
8032,6879,6880,7089
8033,7089,7088,6879
8034,7089,6678,6677
8035,6677,7088,7089
8036,6677,6678,6266
8037,6266,6265,6677
8038,6887,6886,6475
8039,6475,6476,6887
8040,6887,7096,7095
8041,7095,6886,6887
8042,6684,6685,6273
8043,6273,6272,6684
8044,6685,6684,7095
8045,7095,7096,6685
8046,4719,4512,4224
8047,4511,4719,4224
8048,4224,4223,4511
8049,4611,4408,4313
8050,4409,4611,4313
8051,4313,4311,4409
8052,4722,4515,4227
8053,4514,4722,4227
8054,4227,4226,4514
8055,4614,4411,4208
8056,4412,4614,4208
8057,4208,4206,4412
8058,4610,4407,4315
8059,4408,4610,4315
8060,4315,4313,4408
8061,4607,4404,4322
8062,4405,4607,4322
8063,4322,4319,4405
8064,6895,7104,7103
8065,7103,6894,6895
8066,6693,6692,7103
8067,7103,7104,6693
8068,6887,6888,7097
8069,7097,7096,6887
8070,7097,6686,6685
8071,6685,7096,7097
8072,1161,1160,1381
8073,1381,1382,1161
8074,960,1161,1162
8075,1162,961,960
8076,1383,1384,1163
8077,1163,1162,1383
8078,1383,1596,1597
8079,1597,1384,1383
8080,1803,1598,1597
8081,1597,1802,1803
8082,1385,1384,1597
8083,1597,1598,1385
8084,1801,1802,1597
8085,1597,1596,1801
8086,962,961,1162
8087,1162,1163,962
8088,1164,1163,1384
8089,1384,1385,1164
8090,966,754,753
8091,753,965,966
8092,964,965,753
8093,753,752,964
8094,1387,1386,1599
8095,1599,1600,1387
8096,1803,1804,1599
8097,1599,1598,1803
8098,1385,1386,1165
8099,1165,1164,1385
8100,1385,1598,1599
8101,1599,1386,1385
8102,1805,1600,1599
8103,1599,1804,1805
8104,1166,1167,966
8105,966,965,1166
8106,964,1165,1166
8107,1166,965,964
8108,4238,4239,4111
8109,4111,4110,4238
8110,4005,4006,4346
8111,4346,4345,4005
8112,4108,4107,4235
8113,4235,4236,4108
8114,4188,4002,4003
8115,4003,4186,4188
8116,6911,6500,6501
8117,6501,6912,6911
8118,6911,6912,7121
8119,7121,7120,6911
8120,7121,6710,6709
8121,6709,7120,7121
8122,6709,6710,6298
8123,6298,6297,6709
8124,6919,6918,6507
8125,6507,6508,6919
8126,6919,7128,7127
8127,7127,6918,6919
8128,6717,6716,7127
8129,7127,7128,6717
8130,4735,4528,4240
8131,4527,4735,4240
8132,4240,4239,4527
8133,4627,4424,4346
8134,4425,4627,4346
8135,4346,4347,4425
8136,4738,4531,4243
8137,4530,4738,4243
8138,4243,4242,4530
8139,4427,4349,4350
8140,4350,4630,4427
8141,4350,4428,4630
8142,4423,4345,4346
8143,4346,4626,4423
8144,4346,4424,4626
8145,4623,4420,4188
8146,4421,4623,4188
8147,4188,4186,4421
8148,6927,7136,7135
8149,7135,6926,6927
8150,6725,6724,7135
8151,7135,7136,6725
8152,6919,6920,7129
8153,7129,7128,6919
8154,7129,6718,6717
8155,6717,7128,7129
8156,1177,1176,1397
8157,1397,1398,1177
8158,976,1177,1178
8159,1178,977,976
8160,1399,1400,1179
8161,1179,1178,1399
8162,1399,1612,1613
8163,1613,1400,1399
8164,1819,1614,1613
8165,1613,1818,1819
8166,1401,1400,1613
8167,1613,1614,1401
8168,1817,1818,1613
8169,1613,1612,1817
8170,978,977,1178
8171,1178,1179,978
8172,1180,1179,1400
8173,1400,1401,1180
8174,982,770,769
8175,769,981,982
8176,980,981,769
8177,769,768,980
8178,1403,1402,1615
8179,1615,1616,1403
8180,1819,1820,1615
8181,1615,1614,1819
8182,1401,1402,1181
8183,1181,1180,1401
8184,1401,1614,1615
8185,1615,1402,1401
8186,1821,1616,1615
8187,1615,1820,1821
8188,1182,1183,982
8189,982,981,1182
8190,980,1181,1182
8191,1182,981,980
8192,4255,4127,4126
8193,4126,4254,4255
8194,4361,4021,4022
8195,4022,4362,4361
8196,4251,4252,4124
8197,4124,4123,4251
8198,6943,6532,6533
8199,6533,6944,6943
8200,7153,7152,6943
8201,6943,6944,7153
8202,7153,6742,6741
8203,6741,7152,7153
8204,6330,6329,6741
8205,6741,6742,6330
8206,6951,6950,6539
8207,6539,6540,6951
8208,6951,7160,7159
8209,7159,6950,6951
8210,6748,6749,6337
8211,6337,6336,6748
8212,6749,6748,7159
8213,7159,7160,6749
8214,4751,4544,4256
8215,4543,4751,4256
8216,4256,4255,4543
8217,4643,4440,4362
8218,4441,4643,4362
8219,4362,4363,4441
8220,4754,4547,4259
8221,4546,4754,4259
8222,4259,4258,4546
8223,4646,4443,4365
8224,4444,4646,4365
8225,4365,4366,4444
8226,4642,4439,4361
8227,4440,4642,4361
8228,4361,4362,4440
8229,4639,4436,4358
8230,4437,4639,4358
8231,4358,4359,4437
8232,6959,7168,7167
8233,7167,6958,6959
8234,6757,6756,7167
8235,7167,7168,6757
8236,6756,6757,6345
8237,6345,6344,6756
8238,6951,6952,7161
8239,7161,7160,6951
8240,6750,6749,7160
8241,7160,7161,6750
8242,1192,1413,1414
8243,1414,1193,1192
8244,1194,993,992
8245,992,1193,1194
8246,1415,1416,1195
8247,1195,1194,1415
8248,1415,1628,1629
8249,1629,1416,1415
8250,1835,1630,1629
8251,1629,1834,1835
8252,1417,1416,1629
8253,1629,1630,1417
8254,1833,1834,1629
8255,1629,1628,1833
8256,994,993,1194
8257,1194,1195,994
8258,1196,1195,1416
8259,1416,1417,1196
8260,998,786,785
8261,785,997,998
8262,996,997,785
8263,785,784,996
8264,1419,1418,1631
8265,1631,1632,1419
8266,1835,1836,1631
8267,1631,1630,1835
8268,1417,1418,1197
8269,1197,1196,1417
8270,1417,1630,1631
8271,1631,1418,1417
8272,1837,1632,1631
8273,1631,1836,1837
8274,1198,1199,998
8275,998,997,1198
8276,996,1197,1198
8277,1198,997,996
8278,4271,4143,4142
8279,4142,4270,4271
8280,4267,4268,4140
8281,4140,4139,4267
8282,6976,6975,6564
8283,6564,6565,6976
8284,6975,6976,7185
8285,7185,7184,6975
8286,7185,6774,6773
8287,6773,7184,7185
8288,6362,6361,6773
8289,6773,6774,6362
8290,6983,6982,6571
8291,6571,6572,6983
8292,6983,7192,7191
8293,7191,6982,6983
8294,6780,6781,6369
8295,6369,6368,6780
8296,6781,6780,7191
8297,7191,7192,6781
8298,4767,4560,4272
8299,4559,4767,4272
8300,4272,4271,4559
8301,4659,4456,4378
8302,4457,4659,4378
8303,4378,4379,4457
8304,4770,4563,4275
8305,4562,4770,4275
8306,4275,4274,4562
8307,4459,4381,4382
8308,4382,4662,4459
8309,4382,4460,4662
8310,4658,4455,4377
8311,4456,4658,4377
8312,4377,4378,4456
8313,4655,4452,4374
8314,4453,4655,4374
8315,4374,4375,4453
8316,6991,7200,7199
8317,7199,6990,6991
8318,6789,6788,7199
8319,7199,7200,6789
8320,6983,6984,7193
8321,7193,7192,6983
8322,7193,6782,6781
8323,6781,7192,7193
8324,1430,1209,1208
8325,1208,1429,1430
8326,1209,1210,1009
8327,1009,1008,1209
8328,1211,1210,1431
8329,1431,1432,1211
8330,1645,1432,1431
8331,1431,1644,1645
8332,1851,1646,1645
8333,1645,1850,1851
8334,1432,1645,1646
8335,1646,1433,1432
8336,1849,1850,1645
8337,1645,1644,1849
8338,1010,1009,1210
8339,1210,1211,1010
8340,1432,1433,1212
8341,1212,1211,1432
8342,1014,802,801
8343,801,1013,1014
8344,1012,1013,801
8345,801,800,1012
8346,1434,1435,1214
8347,1214,1213,1434
8348,1434,1647,1648
8349,1648,1435,1434
8350,1647,1646,1851
8351,1851,1852,1647
8352,1213,1212,1433
8353,1433,1434,1213
8354,1647,1434,1433
8355,1433,1646,1647
8356,1852,1853,1648
8357,1648,1647,1852
8358,1214,1215,1014
8359,1014,1013,1214
8360,1012,1213,1214
8361,1214,1013,1012
8362,4287,4159,4158
8363,4158,4286,4287
8364,4197,4195,4053
8365,4053,4054,4197
8366,4156,4155,4283
8367,4283,4284,4156
8368,4191,4189,4050
8369,4050,4051,4191
8370,7007,6596,6597
8371,6597,7008,7007
8372,7007,7008,7217
8373,7217,7216,7007
8374,7217,6806,6805
8375,6805,7216,7217
8376,6805,6806,6394
8377,6394,6393,6805
8378,7015,7014,6603
8379,6603,6604,7015
8380,7015,7224,7223
8381,7223,7014,7015
8382,6812,6813,6401
8383,6401,6400,6812
8384,6813,6812,7223
8385,7223,7224,6813
8386,4783,4576,4288
8387,4575,4783,4288
8388,4288,4287,4575
8389,4675,4472,4197
8390,4473,4675,4197
8391,4197,4199,4473
8392,4579,4291,4290
8393,4290,4786,4579
8394,4290,4578,4786
8395,4678,4475,4203
8396,4476,4678,4203
8397,4203,4207,4476
8398,4674,4471,4195
8399,4472,4674,4195
8400,4195,4197,4472
8401,4671,4468,4189
8402,4469,4671,4189
8403,4189,4191,4469
8404,7023,7232,7231
8405,7231,7022,7023
8406,6821,6820,7231
8407,7231,7232,6821
8408,7015,7016,7225
8409,7225,7224,7015
8410,7225,6814,6813
8411,6813,7224,7225
8412,1224,1445,1446
8413,1446,1225,1224
8414,1226,1025,1024
8415,1024,1225,1226
8416,1661,1448,1447
8417,1447,1660,1661
8418,1866,1867,1662
8419,1662,1661,1866
8420,1448,1661,1662
8421,1662,1449,1448
8422,1661,1660,1865
8423,1865,1866,1661
8424,1227,1026,1025
8425,1025,1226,1227
8426,1448,1449,1228
8427,1228,1227,1448
8428,1030,818,817
8429,817,1029,1030
8430,817,818,499
8431,499,498,817
8432,1028,1029,817
8433,817,816,1028
8434,817,498,497
8435,497,816,817
8436,1663,1664,1451
8437,1451,1450,1663
8438,1868,1663,1662
8439,1662,1867,1868
8440,1450,1229,1228
8441,1228,1449,1450
8442,1450,1449,1662
8443,1662,1663,1450
8444,1663,1868,1869
8445,1869,1664,1663
8446,1230,1231,1030
8447,1030,1029,1230
8448,1028,1229,1230
8449,1230,1029,1028
8450,4303,4175,4174
8451,4174,4302,4303
8452,4331,4329,4069
8453,4069,4070,4331
8454,4299,4300,4172
8455,4172,4171,4299
8456,7039,6628,6629
8457,6629,7040,7039
8458,7039,7040,7249
8459,7249,7248,7039
8460,7249,6838,6837
8461,6837,7248,7249
8462,6837,6838,6426
8463,6426,6425,6837
8464,7047,7046,6635
8465,6635,6636,7047
8466,7047,7256,7255
8467,7255,7046,7047
8468,6845,6844,7255
8469,7255,7256,6845
8470,4799,4592,4304
8471,4591,4799,4304
8472,4304,4303,4591
8473,4488,4331,4333
8474,4333,4691,4488
8475,4333,4489,4691
8476,4802,4595,4307
8477,4594,4802,4307
8478,4307,4306,4594
8479,4491,4337,4339
8480,4339,4694,4491
8481,4339,4492,4694
8482,4690,4487,4329
8483,4488,4690,4329
8484,4329,4331,4488
8485,4687,4484,4323
8486,4485,4687,4323
8487,4323,4325,4485
8488,7055,7264,7263
8489,7263,7054,7055
8490,6853,6852,7263
8491,7263,7264,6853
8492,7047,7048,7257
8493,7257,7256,7047
8494,7257,6846,6845
8495,6845,7256,7257
8496,1262,1261,1047
8497,1047,1048,1262
8498,836,837,1047
8499,1047,1046,836
8500,838,1048,1047
8501,1047,837,838
8502,1260,1046,1047
8503,1047,1261,1260
8504,1476,1474,1684
8505,1684,1683,1476
8506,527,526,219
8507,219,220,527
8508,113,114,219
8509,219,218,113
8510,92,114,113
8511,113,90,92
8512,525,218,219
8513,219,526,525
8514,115,220,219
8515,219,114,115
8516,94,115,114
8517,114,92,94
8518,527,528,635
8519,635,634,527
8520,844,843,635
8521,635,636,844
8522,842,634,635
8523,635,843,842
8524,529,636,635
8525,635,528,529
8526,1686,1488,1489
8527,1489,1687,1686
8528,1264,1265,1488
8529,1488,1472,1264
8530,1266,1052,1053
8531,1053,1267,1266
8532,844,1054,1053
8533,1053,843,844
8534,842,843,1053
8535,1053,1052,842
8536,1268,1267,1053
8537,1053,1054,1268
8538,1887,1683,1684
8539,1684,1888,1887
8540,1889,2103,2102
8541,2102,1888,1889
8542,2102,2103,2320
8543,2320,2319,2102
8544,2101,2102,2319
8545,2319,2309,2101
8546,1891,1890,1686
8547,1686,1687,1891
8548,2104,2103,1889
8549,1889,1890,2104
8550,531,224,225
8551,225,532,531
8552,120,121,226
8553,226,225,120
8554,120,2,3
8555,3,121,120
8556,424,325,324
8557,324,423,424
8558,533,532,225
8559,225,226,533
8560,225,224,119
8561,119,120,225
8562,2,120,119
8563,119,1,2
8564,422,423,324
8565,324,323,422
8566,531,638,637
8567,637,530,531
8568,420,739,740
8569,740,421,420
8570,844,636,637
8571,637,845,844
8572,529,530,637
8573,637,636,529
8574,846,845,637
8575,637,638,846
8576,424,423,742
8577,742,743,424
8578,1274,1060,1061
8579,1061,1275,1274
8580,852,1062,1061
8581,1061,851,852
8582,850,851,1061
8583,1061,1060,850
8584,1276,1275,1061
8585,1061,1062,1276
8586,1694,1496,1497
8587,1497,1695,1694
8588,1270,1269,1055
8589,1055,1056,1270
8590,844,845,1055
8591,1055,1054,844
8592,1268,1054,1055
8593,1055,1269,1268
8594,846,1056,1055
8595,1055,845,846
8596,1692,1691,1493
8597,1493,1494,1692
8598,1899,1898,1694
8599,1694,1695,1899
8600,1897,1898,2112
8601,2112,2111,1897
8602,1895,1691,1692
8603,1692,1896,1895
8604,2110,1896,1897
8605,1897,2111,2110
8606,2282,2416,2417
8607,2417,2284,2282
8608,2277,2414,2415
8609,2415,2280,2277
8610,2280,2282,1993
8611,1993,1992,2280
8612,1786,1993,1994
8613,1994,1787,1786
8614,1993,1786,1785
8615,1785,1992,1993
8616,2282,2284,1994
8617,1994,1993,2282
8618,2274,2413,2414
8619,2414,2277,2274
8620,2840,2839,2948
8621,2948,2949,2840
8622,3049,3047,3150
8623,3150,3149,3049
8624,3047,2732,2733
8625,2733,3045,3047
8626,2950,2949,3255
8627,3255,3256,2950
8628,3255,2949,2948
8629,2948,3254,3255
8630,3049,2731,2732
8631,2732,3047,3049
8632,2840,2949,2950
8633,2950,2841,2840
8634,2284,2417,2418
8635,2418,2286,2284
8636,2286,2288,1996
8637,1996,1995,2286
8638,1787,1994,1995
8639,1995,1788,1787
8640,1789,1788,1995
8641,1995,1996,1789
8642,2284,2286,1995
8643,1995,1994,2284
8644,2290,2420,2421
8645,2421,2292,2290
8646,741,422,421
8647,421,740,741
8648,952,953,741
8649,741,740,952
8650,741,742,423
8651,423,422,741
8652,742,741,953
8653,953,954,742
8654,1160,1159,1380
8655,1380,1381,1160
8656,1158,1159,958
8657,958,957,1158
8658,1379,1158,1157
8659,1157,1378,1379
8660,1379,1378,1591
8661,1591,1592,1379
8662,1795,1796,1591
8663,1591,1590,1795
8664,1377,1590,1591
8665,1591,1378,1377
8666,1797,1592,1591
8667,1591,1796,1797
8668,1158,957,956
8669,956,1157,1158
8670,1156,1377,1378
8671,1378,1157,1156
8672,1154,953,952
8673,952,1153,1154
8674,1155,1154,1375
8675,1375,1376,1155
8676,1589,1376,1375
8677,1375,1588,1589
8678,1795,1590,1589
8679,1589,1794,1795
8680,1376,1589,1590
8681,1590,1377,1376
8682,1793,1794,1589
8683,1589,1588,1793
8684,1155,954,953
8685,953,1154,1155
8686,1376,1377,1156
8687,1156,1155,1376
8688,2844,2953,2954
8689,2954,2845,2844
8690,2937,2935,3155
8691,3155,3154,2937
8692,2941,2735,2736
8693,2736,2937,2941
8694,2952,3258,3259
8695,3259,2953,2952
8696,2954,2953,3259
8697,3259,3260,2954
8698,2937,2736,2737
8699,2737,2935,2937
8700,2952,2953,2844
8701,2844,2843,2952
8702,2199,2198,2425
8703,2425,2426,2199
8704,2428,2201,2200
8705,2200,2427,2428
8706,2200,2004,2003
8707,2003,2199,2200
8708,1795,2002,2003
8709,2003,1796,1795
8710,1797,1796,2003
8711,2003,2004,1797
8712,2198,2199,2003
8713,2003,2002,2198
8714,2201,2428,2429
8715,2429,2202,2201
8716,2000,2296,2197
8717,2197,2001,2000
8718,2001,2002,1795
8719,1795,1794,2001
8720,1794,1793,2000
8721,2000,2001,1794
8722,2001,2197,2198
8723,2198,2002,2001
8724,2292,2421,2422
8725,2422,2294,2292
8726,1063,1064,1278
8727,1278,1277,1063
8728,853,1063,1062
8729,1062,852,853
8730,1063,853,854
8731,854,1064,1063
8732,1277,1276,1062
8733,1062,1063,1277
8734,1502,1700,1699
8735,1699,1501,1502
8736,1279,1280,1503
8737,1503,1502,1279
8738,543,542,235
8739,235,236,543
8740,129,130,235
8741,235,234,129
8742,129,11,12
8743,12,130,129
8744,541,234,235
8745,235,542,541
8746,131,236,235
8747,235,130,131
8748,131,130,12
8749,12,13,131
8750,543,544,651
8751,651,650,543
8752,860,859,651
8753,651,652,860
8754,858,650,651
8755,651,859,858
8756,545,652,651
8757,651,544,545
8758,1702,1504,1505
8759,1505,1703,1702
8760,1283,1282,1068
8761,1068,1069,1283
8762,860,1070,1069
8763,1069,859,860
8764,858,859,1069
8765,1069,1068,858
8766,1069,1070,1284
8767,1284,1283,1069
8768,1903,1699,1700
8769,1700,1904,1903
8770,1904,1905,2119
8771,2119,2118,1904
8772,2335,2118,2119
8773,2119,2336,2335
8774,1907,1906,1702
8775,1702,1703,1907
8776,2120,2119,1905
8777,1905,1906,2120
8778,2120,2337,2336
8779,2336,2119,2120
8780,547,240,241
8781,241,548,547
8782,137,242,241
8783,241,136,137
8784,136,18,19
8785,19,137,136
8786,439,440,341
8787,341,340,439
8788,549,548,241
8789,241,242,549
8790,135,136,241
8791,241,240,135
8792,18,136,135
8793,135,17,18
8794,340,339,438
8795,438,439,340
8796,547,654,653
8797,653,546,547
8798,436,755,756
8799,756,437,436
8800,860,652,653
8801,653,861,860
8802,545,546,653
8803,653,652,545
8804,862,861,653
8805,653,654,862
8806,440,439,758
8807,758,759,440
8808,1290,1076,1077
8809,1077,1291,1290
8810,867,868,1078
8811,1078,1077,867
8812,1077,1076,866
8813,866,867,1077
8814,1292,1291,1077
8815,1077,1078,1292
8816,1710,1512,1513
8817,1513,1711,1710
8818,1511,1288,1289
8819,1289,1512,1511
8820,1286,1285,1071
8821,1071,1072,1286
8822,860,861,1071
8823,1071,1070,860
8824,1284,1070,1071
8825,1071,1285,1284
8826,862,1072,1071
8827,1071,861,862
8828,1510,1708,1707
8829,1707,1509,1510
8830,1914,1710,1711
8831,1711,1915,1914
8832,2128,2127,1913
8833,1913,1914,2128
8834,2127,2128,2345
8835,2345,2344,2127
8836,2128,2129,2346
8837,2346,2345,2128
8838,1911,1707,1708
8839,1708,1912,1911
8840,2126,1912,1913
8841,1913,2127,2126
8842,2204,2203,2430
8843,2430,2431,2204
8844,2202,2429,2430
8845,2430,2203,2202
8846,2009,2008,2204
8847,2204,2205,2009
8848,1802,2009,2010
8849,2010,1803,1802
8850,2009,1802,1801
8851,1801,2008,2009
8852,2205,2206,2010
8853,2010,2009,2205
8854,2856,2855,2964
8855,2964,2965,2856
8856,3074,3075,3166
8857,3166,3165,3074
8858,3076,3075,2748
8859,2748,2749,3076
8860,3272,2966,2965
8861,2965,3271,3272
8862,3271,2965,2964
8863,2964,3270,3271
8864,3074,2747,2748
8865,2748,3075,3074
8866,2856,2965,2966
8867,2966,2857,2856
8868,2433,2434,2207
8869,2207,2206,2433
8870,2207,2208,2012
8871,2012,2011,2207
8872,1803,2010,2011
8873,2011,1804,1803
8874,1805,1804,2011
8875,2011,2012,1805
8876,2011,2010,2206
8877,2206,2207,2011
8878,2210,2209,2436
8879,2436,2437,2210
8880,757,438,437
8881,437,756,757
8882,968,969,757
8883,757,756,968
8884,757,758,439
8885,439,438,757
8886,757,969,970
8887,970,758,757
8888,1176,1175,1396
8889,1396,1397,1176
8890,1174,1175,974
8891,974,973,1174
8892,1395,1174,1173
8893,1173,1394,1395
8894,1395,1394,1607
8895,1607,1608,1395
8896,1811,1812,1607
8897,1607,1606,1811
8898,1393,1394,1173
8899,1173,1172,1393
8900,1393,1606,1607
8901,1607,1394,1393
8902,1813,1608,1607
8903,1607,1812,1813
8904,1174,973,972
8905,972,1173,1174
8906,1170,969,968
8907,968,1169,1170
8908,1171,1170,1391
8909,1391,1392,1171
8910,1605,1392,1391
8911,1391,1604,1605
8912,1811,1606,1605
8913,1605,1810,1811
8914,1392,1393,1172
8915,1172,1171,1392
8916,1392,1605,1606
8917,1606,1393,1392
8918,1809,1810,1605
8919,1605,1604,1809
8920,1171,970,969
8921,969,1170,1171
8922,2860,2969,2970
8923,2970,2861,2860
8924,3170,3079,3080
8925,3080,3171,3170
8926,3079,3078,2751
8927,2751,2752,3079
8928,2968,3274,3275
8929,3275,2969,2968
8930,2970,2969,3275
8931,3275,3276,2970
8932,3080,3079,2752
8933,2752,2753,3080
8934,2968,2969,2860
8935,2860,2859,2968
8936,2441,2442,2215
8937,2215,2214,2441
8938,2217,2216,2443
8939,2443,2444,2217
8940,2019,2215,2216
8941,2216,2020,2019
8942,1812,1811,2018
8943,2018,2019,1812
8944,2019,2020,1813
8945,1813,1812,2019
8946,2215,2019,2018
8947,2018,2214,2215
8948,2444,2445,2218
8949,2218,2217,2444
8950,2440,2441,2214
8951,2214,2213,2440
8952,2212,2213,2017
8953,2017,2016,2212
8954,2017,2018,1811
8955,1811,1810,2017
8956,1810,1809,2016
8957,2016,2017,1810
8958,2214,2018,2017
8959,2017,2213,2214
8960,2438,2211,2210
8961,2210,2437,2438
8962,1079,1080,1294
8963,1294,1293,1079
8964,869,1079,1078
8965,1078,868,869
8966,1079,869,870
8967,870,1080,1079
8968,1293,1292,1078
8969,1078,1079,1293
8970,1518,1716,1715
8971,1715,1517,1518
8972,559,558,251
8973,251,252,559
8974,145,146,251
8975,251,250,145
8976,145,27,28
8977,28,146,145
8978,557,250,251
8979,251,558,557
8980,147,252,251
8981,251,146,147
8982,147,146,28
8983,28,29,147
8984,559,560,667
8985,667,666,559
8986,876,875,667
8987,667,668,876
8988,874,666,667
8989,667,875,874
8990,561,668,667
8991,667,560,561
8992,1718,1520,1521
8993,1521,1719,1718
8994,1520,1519,1296
8995,1296,1297,1520
8996,1298,1084,1085
8997,1085,1299,1298
8998,876,1086,1085
8999,1085,875,876
9000,874,875,1085
9001,1085,1084,874
9002,1300,1299,1085
9003,1085,1086,1300
9004,1919,1715,1716
9005,1716,1920,1919
9006,1920,1921,2135
9007,2135,2134,1920
9008,2134,2135,2352
9009,2352,2351,2134
9010,2133,2134,2351
9011,2351,2350,2133
9012,1923,1922,1718
9013,1718,1719,1923
9014,2136,2135,1921
9015,1921,1922,2136
9016,563,256,257
9017,257,564,563
9018,153,258,257
9019,257,152,153
9020,153,152,34
9021,34,35,153
9022,456,357,356
9023,356,455,456
9024,565,564,257
9025,257,258,565
9026,151,152,257
9027,257,256,151
9028,151,33,34
9029,34,152,151
9030,454,455,356
9031,356,355,454
9032,563,670,669
9033,669,562,563
9034,452,771,772
9035,772,453,452
9036,876,668,669
9037,669,877,876
9038,561,562,669
9039,669,668,561
9040,878,877,669
9041,669,670,878
9042,456,455,774
9043,774,775,456
9044,1306,1092,1093
9045,1093,1307,1306
9046,1094,1093,883
9047,883,884,1094
9048,882,883,1093
9049,1093,1092,882
9050,1094,1308,1307
9051,1307,1093,1094
9052,1726,1528,1529
9053,1529,1727,1726
9054,1302,1301,1087
9055,1087,1088,1302
9056,876,877,1087
9057,1087,1086,876
9058,1300,1086,1087
9059,1087,1301,1300
9060,878,1088,1087
9061,1087,877,878
9062,1724,1723,1525
9063,1525,1526,1724
9064,1931,1930,1726
9065,1726,1727,1931
9066,1929,1930,2144
9067,2144,2143,1929
9068,1927,1723,1724
9069,1724,1928,1927
9070,2142,1928,1929
9071,1929,2143,2142
9072,2449,2222,2221
9073,2221,2448,2449
9074,2220,2219,2446
9075,2446,2447,2220
9076,2025,2024,2220
9077,2220,2221,2025
9078,1819,1818,2025
9079,2025,2026,1819
9080,1817,2024,2025
9081,2025,1818,1817
9082,2221,2222,2026
9083,2026,2025,2221
9084,2445,2446,2219
9085,2219,2218,2445
9086,2872,2871,2980
9087,2980,2981,2872
9088,3090,3091,3182
9089,3182,3181,3090
9090,3092,3091,2764
9091,2764,2765,3092
9092,2982,2981,3287
9093,3287,3288,2982
9094,3287,2981,2980
9095,2980,3286,3287
9096,3090,2763,2764
9097,2764,3091,3090
9098,2872,2981,2982
9099,2982,2873,2872
9100,2449,2450,2223
9101,2223,2222,2449
9102,2224,2028,2027
9103,2027,2223,2224
9104,1819,2026,2027
9105,2027,1820,1819
9106,1821,1820,2027
9107,2027,2028,1821
9108,2222,2223,2027
9109,2027,2026,2222
9110,2226,2225,2452
9111,2452,2453,2226
9112,773,454,453
9113,453,772,773
9114,984,985,773
9115,773,772,984
9116,773,774,455
9117,455,454,773
9118,773,985,986
9119,986,774,773
9120,1192,1191,1412
9121,1412,1413,1192
9122,1190,1191,990
9123,990,989,1190
9124,1411,1190,1189
9125,1189,1410,1411
9126,1411,1410,1623
9127,1623,1624,1411
9128,1827,1828,1623
9129,1623,1622,1827
9130,1409,1622,1623
9131,1623,1410,1409
9132,1829,1624,1623
9133,1623,1828,1829
9134,1190,989,988
9135,988,1189,1190
9136,1188,1409,1410
9137,1410,1189,1188
9138,1186,985,984
9139,984,1185,1186
9140,1407,1408,1187
9141,1187,1186,1407
9142,1407,1620,1621
9143,1621,1408,1407
9144,1827,1622,1621
9145,1621,1826,1827
9146,1409,1408,1621
9147,1621,1622,1409
9148,1825,1826,1621
9149,1621,1620,1825
9150,986,985,1186
9151,1186,1187,986
9152,1188,1187,1408
9153,1408,1409,1188
9154,2876,2985,2986
9155,2986,2877,2876
9156,3186,3095,3096
9157,3096,3187,3186
9158,3095,3094,2767
9159,2767,2768,3095
9160,3291,2985,2984
9161,2984,3290,3291
9162,2986,2985,3291
9163,3291,3292,2986
9164,3096,3095,2768
9165,2768,2769,3096
9166,2984,2985,2876
9167,2876,2875,2984
9168,2457,2458,2231
9169,2231,2230,2457
9170,2232,2459,2460
9171,2460,2233,2232
9172,2232,2036,2035
9173,2035,2231,2232
9174,1827,2034,2035
9175,2035,1828,1827
9176,1829,1828,2035
9177,2035,2036,1829
9178,2230,2231,2035
9179,2035,2034,2230
9180,2234,2233,2460
9181,2460,2461,2234
9182,2228,2229,2033
9183,2033,2032,2228
9184,1827,1826,2033
9185,2033,2034,1827
9186,1825,2032,2033
9187,2033,1826,1825
9188,2230,2034,2033
9189,2033,2229,2230
9190,2453,2454,2227
9191,2227,2226,2453
9192,1310,1309,1095
9193,1095,1096,1310
9194,884,885,1095
9195,1095,1094,884
9196,886,1096,1095
9197,1095,885,886
9198,1308,1094,1095
9199,1095,1309,1308
9200,1732,1731,1533
9201,1533,1534,1732
9202,1535,1534,1311
9203,1311,1312,1535
9204,575,574,267
9205,267,268,575
9206,161,162,267
9207,267,266,161
9208,161,43,44
9209,44,162,161
9210,573,266,267
9211,267,574,573
9212,163,268,267
9213,267,162,163
9214,163,162,44
9215,44,45,163
9216,575,576,683
9217,683,682,575
9218,892,891,683
9219,683,684,892
9220,890,682,683
9221,683,891,890
9222,577,684,683
9223,683,576,577
9224,1734,1536,1537
9225,1537,1735,1734
9226,1314,1100,1101
9227,1101,1315,1314
9228,892,1102,1101
9229,1101,891,892
9230,890,891,1101
9231,1101,1100,890
9232,1316,1315,1101
9233,1101,1102,1316
9234,1935,1731,1732
9235,1732,1936,1935
9236,1937,2151,2150
9237,2150,1936,1937
9238,2150,2151,2368
9239,2368,2367,2150
9240,1939,1938,1734
9241,1734,1735,1939
9242,2152,2151,1937
9243,1937,1938,2152
9244,2151,2152,2369
9245,2369,2368,2151
9246,579,272,273
9247,273,580,579
9248,169,274,273
9249,273,168,169
9250,169,168,50
9251,50,51,169
9252,472,373,372
9253,372,471,472
9254,581,580,273
9255,273,274,581
9256,167,168,273
9257,273,272,167
9258,167,49,50
9259,50,168,167
9260,470,471,372
9261,372,371,470
9262,579,686,685
9263,685,578,579
9264,468,787,788
9265,788,469,468
9266,892,684,685
9267,685,893,892
9268,577,578,685
9269,685,684,577
9270,894,893,685
9271,685,686,894
9272,472,471,790
9273,790,791,472
9274,1322,1108,1109
9275,1109,1323,1322
9276,1109,899,900
9277,900,1110,1109
9278,899,1109,1108
9279,1108,898,899
9280,1324,1323,1109
9281,1109,1110,1324
9282,1742,1544,1545
9283,1545,1743,1742
9284,1543,1320,1321
9285,1321,1544,1543
9286,1318,1317,1103
9287,1103,1104,1318
9288,892,893,1103
9289,1103,1102,892
9290,1316,1102,1103
9291,1103,1317,1316
9292,894,1104,1103
9293,1103,893,894
9294,1740,1739,1541
9295,1541,1542,1740
9296,1946,1742,1743
9297,1743,1947,1946
9298,1945,1946,2160
9299,2160,2159,1945
9300,2377,2376,2159
9301,2159,2160,2377
9302,2160,2161,2378
9303,2378,2377,2160
9304,1943,1739,1740
9305,1740,1944,1943
9306,2158,1944,1945
9307,1945,2159,2158
9308,2236,2235,2462
9309,2462,2463,2236
9310,2461,2462,2235
9311,2235,2234,2461
9312,2236,2237,2041
9313,2041,2040,2236
9314,1835,1834,2041
9315,2041,2042,1835
9316,1833,2040,2041
9317,2041,1834,1833
9318,2238,2042,2041
9319,2041,2237,2238
9320,2888,2887,2996
9321,2996,2997,2888
9322,3106,3107,3198
9323,3198,3197,3106
9324,3108,3107,2780
9325,2780,2781,3108
9326,2998,2997,3303
9327,3303,3304,2998
9328,3303,2997,2996
9329,2996,3302,3303
9330,3106,2779,2780
9331,2780,3107,3106
9332,2888,2997,2998
9333,2998,2889,2888
9334,2465,2466,2239
9335,2239,2238,2465
9336,2240,2044,2043
9337,2043,2239,2240
9338,1835,2042,2043
9339,2043,1836,1835
9340,1837,1836,2043
9341,2043,2044,1837
9342,2238,2239,2043
9343,2043,2042,2238
9344,2242,2241,2468
9345,2468,2469,2242
9346,789,470,469
9347,469,788,789
9348,1000,1001,789
9349,789,788,1000
9350,789,790,471
9351,471,470,789
9352,789,1001,1002
9353,1002,790,789
9354,1208,1207,1428
9355,1428,1429,1208
9356,1206,1207,1006
9357,1006,1005,1206
9358,1427,1206,1205
9359,1205,1426,1427
9360,1426,1639,1640
9361,1640,1427,1426
9362,1843,1844,1639
9363,1639,1638,1843
9364,1425,1426,1205
9365,1205,1204,1425
9366,1639,1426,1425
9367,1425,1638,1639
9368,1845,1640,1639
9369,1639,1844,1845
9370,1206,1005,1004
9371,1004,1205,1206
9372,1202,1001,1000
9373,1000,1201,1202
9374,1423,1424,1203
9375,1203,1202,1423
9376,1423,1636,1637
9377,1637,1424,1423
9378,1843,1638,1637
9379,1637,1842,1843
9380,1425,1204,1203
9381,1203,1424,1425
9382,1425,1424,1637
9383,1637,1638,1425
9384,1841,1842,1637
9385,1637,1636,1841
9386,1002,1001,1202
9387,1202,1203,1002
9388,2892,3001,3002
9389,3002,2893,2892
9390,3202,3111,3112
9391,3112,3203,3202
9392,3111,3110,2783
9393,2783,2784,3111
9394,3307,3001,3000
9395,3000,3306,3307
9396,3002,3001,3307
9397,3307,3308,3002
9398,3112,3111,2784
9399,2784,2785,3112
9400,3000,3001,2892
9401,2892,2891,3000
9402,2247,2246,2473
9403,2473,2474,2247
9404,2476,2249,2248
9405,2248,2475,2476
9406,2051,2247,2248
9407,2248,2052,2051
9408,1844,1843,2050
9409,2050,2051,1844
9410,2051,2052,1845
9411,1845,1844,2051
9412,2247,2051,2050
9413,2050,2246,2247
9414,2249,2476,2477
9415,2477,2250,2249
9416,2472,2473,2246
9417,2246,2245,2472
9418,2244,2245,2049
9419,2049,2048,2244
9420,1843,1842,2049
9421,2049,2050,1843
9422,1841,2048,2049
9423,2049,1842,1841
9424,2246,2050,2049
9425,2049,2245,2246
9426,2469,2470,2243
9427,2243,2242,2469
9428,1325,1111,1112
9429,1112,1326,1325
9430,900,901,1111
9431,1111,1110,900
9432,902,1112,1111
9433,1111,901,902
9434,1111,1325,1324
9435,1324,1110,1111
9436,1550,1748,1747
9437,1747,1549,1550
9438,590,283,284
9439,284,591,590
9440,177,178,283
9441,283,282,177
9442,178,177,59
9443,59,60,178
9444,283,590,589
9445,589,282,283
9446,179,284,283
9447,283,178,179
9448,60,61,179
9449,179,178,60
9450,699,698,591
9451,591,592,699
9452,908,907,699
9453,699,700,908
9454,906,698,699
9455,699,907,906
9456,592,593,700
9457,700,699,592
9458,1750,1552,1553
9459,1553,1751,1750
9460,1552,1551,1328
9461,1328,1329,1552
9462,1117,1331,1330
9463,1330,1116,1117
9464,908,1118,1117
9465,1117,907,908
9466,906,907,1117
9467,1117,1116,906
9468,1331,1117,1118
9469,1118,1332,1331
9470,1951,1747,1748
9471,1748,1952,1951
9472,1952,1953,2167
9473,2167,2166,1952
9474,2166,2167,2384
9475,2384,2383,2166
9476,2165,2166,2383
9477,2383,2382,2165
9478,1954,1750,1751
9479,1751,1955,1954
9480,2168,2167,1953
9481,1953,1954,2168
9482,596,595,288
9483,288,289,596
9484,289,184,185
9485,185,290,289
9486,66,67,185
9487,185,184,66
9488,488,389,388
9489,388,487,488
9490,289,290,597
9491,597,596,289
9492,184,289,288
9493,288,183,184
9494,184,183,65
9495,65,66,184
9496,486,487,388
9497,388,387,486
9498,594,595,702
9499,702,701,594
9500,485,484,803
9501,803,804,485
9502,701,909,908
9503,908,700,701
9504,701,700,593
9505,593,594,701
9506,909,701,702
9507,702,910,909
9508,488,487,806
9509,806,807,488
9510,1338,1124,1125
9511,1125,1339,1338
9512,916,1126,1125
9513,1125,915,916
9514,914,915,1125
9515,1125,1124,914
9516,1340,1339,1125
9517,1125,1126,1340
9518,1560,1561,1759
9519,1759,1758,1560
9520,1334,1333,1119
9521,1119,1120,1334
9522,908,909,1119
9523,1119,1118,908
9524,1332,1118,1119
9525,1119,1333,1332
9526,910,1120,1119
9527,1119,909,910
9528,1756,1755,1557
9529,1557,1558,1756
9530,1963,1962,1758
9531,1758,1759,1963
9532,1962,2176,2175
9533,2175,1961,1962
9534,1756,1960,1959
9535,1959,1755,1756
9536,1960,1961,2175
9537,2175,2174,1960
9538,2480,2481,2254
9539,2254,2253,2480
9540,2252,2251,2478
9541,2478,2479,2252
9542,2252,2253,2057
9543,2057,2056,2252
9544,1851,1850,2057
9545,2057,2058,1851
9546,1849,2056,2057
9547,2057,1850,1849
9548,2254,2058,2057
9549,2057,2253,2254
9550,2477,2478,2251
9551,2251,2250,2477
9552,2904,2903,3012
9553,3012,3013,2904
9554,3122,3123,3214
9555,3214,3213,3122
9556,3124,3123,2796
9557,2796,2797,3124
9558,3014,3013,3319
9559,3319,3320,3014
9560,3318,3319,3013
9561,3013,3012,3318
9562,3122,2795,2796
9563,2796,3123,3122
9564,2904,3013,3014
9565,3014,2905,2904
9566,2481,2482,2255
9567,2255,2254,2481
9568,2255,2256,2060
9569,2060,2059,2255
9570,2059,1852,1851
9571,1851,2058,2059
9572,1852,2059,2060
9573,2060,1853,1852
9574,2059,2058,2254
9575,2254,2255,2059
9576,2484,2485,2258
9577,2258,2257,2484
9578,804,805,486
9579,486,485,804
9580,804,1016,1017
9581,1017,805,804
9582,805,806,487
9583,487,486,805
9584,1018,806,805
9585,805,1017,1018
9586,1444,1445,1224
9587,1224,1223,1444
9588,1223,1022,1021
9589,1021,1222,1223
9590,1443,1222,1221
9591,1221,1442,1443
9592,1443,1442,1655
9593,1655,1656,1443
9594,1859,1860,1655
9595,1655,1654,1859
9596,1441,1654,1655
9597,1655,1442,1441
9598,1861,1656,1655
9599,1655,1860,1861
9600,1222,1021,1020
9601,1020,1221,1222
9602,1220,1441,1442
9603,1442,1221,1220
9604,1218,1017,1016
9605,1016,1217,1218
9606,1219,1218,1439
9607,1439,1440,1219
9608,1653,1440,1439
9609,1439,1652,1653
9610,1858,1859,1654
9611,1654,1653,1858
9612,1440,1653,1654
9613,1654,1441,1440
9614,1653,1652,1857
9615,1857,1858,1653
9616,1018,1017,1218
9617,1218,1219,1018
9618,1440,1441,1220
9619,1220,1219,1440
9620,2908,3017,3018
9621,3018,2909,2908
9622,3218,3127,3128
9623,3128,3219,3218
9624,2799,2800,3127
9625,3127,3126,2799
9626,3323,3017,3016
9627,3016,3322,3323
9628,3018,3017,3323
9629,3323,3324,3018
9630,3128,3127,2800
9631,2800,2801,3128
9632,2907,3016,3017
9633,3017,2908,2907
9634,2490,2263,2262
9635,2262,2489,2490
9636,2264,2491,2492
9637,2492,2265,2264
9638,2264,2068,2067
9639,2067,2263,2264
9640,1860,1859,2066
9641,2066,2067,1860
9642,2067,2068,1861
9643,1861,1860,2067
9644,2262,2263,2067
9645,2067,2066,2262
9646,2493,2266,2265
9647,2265,2492,2493
9648,2260,2261,2065
9649,2065,2064,2260
9650,1859,1858,2065
9651,2065,2066,1859
9652,1857,2064,2065
9653,2065,1858,1857
9654,2262,2066,2065
9655,2065,2261,2262
9656,2486,2259,2258
9657,2258,2485,2486
9658,1127,1128,1342
9659,1342,1341,1127
9660,917,1127,1126
9661,1126,916,917
9662,1127,917,918
9663,918,1128,1127
9664,1341,1340,1126
9665,1126,1127,1341
9666,1566,1764,1763
9667,1763,1565,1566
9668,1567,1566,1343
9669,1343,1344,1567
9670,299,300,607
9671,607,606,299
9672,194,299,298
9673,298,193,194
9674,193,75,76
9675,76,194,193
9676,606,605,298
9677,298,299,606
9678,299,194,195
9679,195,300,299
9680,195,194,76
9681,76,77,195
9682,607,608,715
9683,715,714,607
9684,715,716,924
9685,924,923,715
9686,923,922,714
9687,714,715,923
9688,609,716,715
9689,715,608,609
9690,1766,1568,1569
9691,1569,1767,1766
9692,1346,1132,1133
9693,1133,1347,1346
9694,1133,923,924
9695,924,1134,1133
9696,923,1133,1132
9697,1132,922,923
9698,1348,1347,1133
9699,1133,1134,1348
9700,1968,1967,1763
9701,1763,1764,1968
9702,2182,1968,1969
9703,1969,2183,2182
9704,2182,2183,2400
9705,2400,2399,2182
9706,1970,1766,1767
9707,1767,1971,1970
9708,2184,2183,1969
9709,1969,1970,2184
9710,2401,2400,2183
9711,2183,2184,2401
9712,611,304,305
9713,305,612,611
9714,201,306,305
9715,305,200,201
9716,93,91,201
9717,201,200,93
9718,405,404,503
9719,503,622,405
9720,613,612,305
9721,305,306,613
9722,199,200,305
9723,305,304,199
9724,95,93,200
9725,200,199,95
9726,503,404,403
9727,403,502,503
9728,610,611,718
9729,718,717,610
9730,500,819,820
9731,820,501,500
9732,924,716,717
9733,717,925,924
9734,717,716,609
9735,609,610,717
9736,926,925,717
9737,717,718,926
9738,823,622,503
9739,503,822,823
9740,1354,1140,1141
9741,1141,1355,1354
9742,932,1142,1141
9743,1141,931,932
9744,930,931,1141
9745,1141,1140,930
9746,1356,1355,1141
9747,1141,1142,1356
9748,1477,1775,1774
9749,1774,1475,1477
9750,1475,1473,1352
9751,1352,1353,1475
9752,1350,1349,1135
9753,1135,1136,1350
9754,924,925,1135
9755,1135,1134,924
9756,1348,1134,1135
9757,1135,1349,1348
9758,926,1136,1135
9759,1135,925,926
9760,1772,1771,1573
9761,1573,1574,1772
9762,1774,1775,1979
9763,1979,1978,1774
9764,1977,1978,2192
9765,2192,2191,1977
9766,2191,2192,2409
9767,2409,2408,2191
9768,2193,2310,2409
9769,2409,2192,2193
9770,1975,1771,1772
9771,1772,1976,1975
9772,1976,1977,2191
9773,2191,2190,1976
9774,2267,2494,2495
9775,2495,2268,2267
9776,2494,2267,2266
9777,2266,2493,2494
9778,2073,2072,2268
9779,2268,2269,2073
9780,1866,2073,2074
9781,2074,1867,1866
9782,2073,1866,1865
9783,1865,2072,2073
9784,2269,2270,2074
9785,2074,2073,2269
9786,2920,2919,3028
9787,3028,3029,2920
9788,2938,3230,3229
9789,3229,2936,2938
9790,2942,2938,2812
9791,2812,2813,2942
9792,3030,3029,3335
9793,3335,3336,3030
9794,3335,3029,3028
9795,3028,3334,3335
9796,2938,2936,2811
9797,2811,2812,2938
9798,2920,3029,3030
9799,3030,2921,2920
9800,2498,2271,2270
9801,2270,2497,2498
9802,2076,2075,2271
9803,2271,2297,2076
9804,1867,2074,2075
9805,2075,1868,1867
9806,1869,1868,2075
9807,2075,2076,1869
9808,2075,2074,2270
9809,2270,2271,2075
9810,2293,2295,2500
9811,2500,2501,2293
9812,821,502,501
9813,501,820,821
9814,1032,1033,821
9815,821,820,1032
9816,821,822,503
9817,503,502,821
9818,821,1033,1034
9819,1034,822,821
9820,1244,1248,1460
9821,1460,1364,1244
9822,1038,1037,1238
9823,1238,1248,1038
9824,1459,1238,1237
9825,1237,1458,1459
9826,1459,1458,1671
9827,1671,1672,1459
9828,1875,1876,1671
9829,1671,1670,1875
9830,1457,1458,1237
9831,1237,1236,1457
9832,1457,1670,1671
9833,1671,1458,1457
9834,1877,1672,1671
9835,1671,1876,1877
9836,1238,1037,1036
9837,1036,1237,1238
9838,1234,1033,1032
9839,1032,1233,1234
9840,1455,1456,1235
9841,1235,1234,1455
9842,1669,1456,1455
9843,1455,1668,1669
9844,1874,1875,1670
9845,1670,1669,1874
9846,1457,1236,1235
9847,1235,1456,1457
9848,1456,1669,1670
9849,1670,1457,1456
9850,1669,1668,1873
9851,1873,1874,1669
9852,1034,1033,1234
9853,1234,1235,1034
9854,2924,3033,3034
9855,3034,2925,2924
9856,3050,3235,3234
9857,3234,3048,3050
9858,3048,3046,2815
9859,2815,2816,3048
9860,3339,3033,3032
9861,3032,3338,3339
9862,3034,3033,3339
9863,3339,3340,3034
9864,3050,3048,2816
9865,2816,2817,3050
9866,2923,3032,3033
9867,3033,2924,2923
9868,2283,2285,2505
9869,2505,2506,2283
9870,2276,2281,2507
9871,2507,2509,2276
9872,2281,2084,2083
9873,2083,2283,2281
9874,1875,2082,2083
9875,2083,1876,1875
9876,1877,1876,2083
9877,2083,2084,1877
9878,2283,2083,2082
9879,2082,2285,2283
9880,2275,2276,2509
9881,2509,2412,2275
9882,2285,2287,2504
9883,2504,2505,2285
9884,2287,2081,2080
9885,2080,2289,2287
9886,1875,1874,2081
9887,2081,2082,1875
9888,1873,2080,2081
9889,2081,1874,1873
9890,2285,2082,2081
9891,2081,2287,2285
9892,2291,2293,2501
9893,2501,2502,2291
9894,3562,3563,3769
9895,3769,3768,3562
9896,3564,3770,3769
9897,3769,3563,3564
9898,3579,3785,3784
9899,3784,3578,3579
9900,3785,3579,3580
9901,3580,3786,3785
9902,3612,3818,3817
9903,3817,3611,3612
9904,3627,3628,3834
9905,3834,3833,3627
9906,3849,3848,3642
9907,3642,3643,3849
9908,4307,4308,4180
9909,4180,4179,4307
9910,213,108,109
9911,109,214,213
9912,82,109,108
9913,108,80,82
9914,506,508,313
9915,313,312,506
9916,521,520,213
9917,213,214,521
9918,213,520,518
9919,518,211,213
9920,312,411,504
9921,504,506,312
9922,108,213,211
9923,211,106,108
9924,106,78,80
9925,80,108,106
9926,3143,3243,3064
9927,3064,3062,3143
9928,3577,3578,3784
9929,3784,3783,3577
9930,3576,3577,3783
9931,3783,3782,3576
9932,3592,3593,3799
9933,3799,3798,3592
9934,3625,3626,3832
9935,3832,3831,3625
9936,3847,3641,3642
9937,3642,3848,3847
9938,3657,3658,3864
9939,3864,3863,3657
9940,3656,3657,3863
9941,3863,3862,3656
9942,206,311,310
9943,310,205,206
9944,83,81,206
9945,206,205,83
9946,618,617,310
9947,310,311,618
9948,311,212,519
9949,519,618,311
9950,206,107,212
9951,212,311,206
9952,107,206,81
9953,81,79,107
9954,3241,3063,3138
9955,3138,3244,3241
9956,4211,4083,4082
9957,4082,4210,4211
9958,4342,3977,3978
9959,3978,4338,4342
9960,3791,3585,3586
9961,3586,3792,3791
9962,3585,3791,3790
9963,3790,3584,3585
9964,3602,3808,3807
9965,3807,3601,3602
9966,3618,3824,3823
9967,3823,3617,3618
9968,3616,3617,3823
9969,3823,3822,3616
9970,3633,3839,3838
9971,3838,3632,3633
9972,3648,3649,3855
9973,3855,3854,3648
9974,1575,1577,1879
9975,1879,1781,1575
9976,1364,1461,1246
9977,1246,1244,1364
9978,1461,1364,1577
9979,1577,1575,1461
9980,1359,1240,1246
9981,1246,1461,1359
9982,1461,1463,1359
9983,1463,1461,1575
9984,1575,1470,1463
9985,1575,1781,1681
9986,1681,1470,1575
9987,1779,1880,1483
9988,1483,1484,1779
9989,2097,1984,1981
9990,1981,2099,2097
9991,2099,2316,2313
9992,2313,2097,2099
9993,1984,1987,1880
9994,1880,1779,1984
9995,1576,1782,1783
9996,1783,1578,1576
9997,1462,1576,1578
9998,1578,1365,1462
9999,1358,1464,1462
10000,1358,1462,1245
10001,1245,1239,1358
10002,1464,1471,1576
10003,1576,1462,1464
10004,1576,1471,1680
10005,1680,1782,1576
10006,1783,1782,2088
10007,2088,1990,1783
10008,2272,2274,1990
10009,1990,2088,2272
10010,2088,2086,2273
10011,2273,2272,2088
10012,1782,1680,2086
10013,2086,2088,1782
10014,3571,3572,3778
10015,3778,3777,3571
10016,3793,3792,3586
10017,3586,3587,3793
10018,3587,3588,3794
10019,3794,3793,3587
10020,3603,3604,3810
10021,3810,3809,3603
10022,3841,3635,3636
10023,3636,3842,3841
10024,3651,3857,3856
10025,3856,3650,3651
10026,1780,1485,1482
10027,1482,1881,1780
10028,2096,2098,1982
10029,1982,1983,2096
10030,1983,1780,1881
10031,1881,1988,1983
10032,2300,2317,2314
10033,2314,2096,2300
10034,2096,2095,2300
10035,1879,1989,2089
10036,2089,1781,1879
10037,2275,2278,2089
10038,2089,1989,2275
10039,2089,2278,2279
10040,2279,2087,2089
10041,1781,2089,2087
10042,2087,1681,1781
10043,3711,3873,3874
10044,3874,3713,3711
10045,4334,3980,3981
10046,3981,4332,4334
10047,3770,3771,3981
10048,3981,3980,3770
10049,3875,3874,4086
10050,4086,4087,3875
10051,4213,4214,4086
10052,4086,4085,4213
10053,3873,4085,4086
10054,4086,3874,3873
10055,3772,3982,3981
10056,3981,3771,3772
10057,4336,3979,3980
10058,3980,4334,4336
10059,3871,4083,4084
10060,4084,3872,3871
10061,4213,4085,4084
10062,4084,4212,4213
10063,3873,3872,4084
10064,4084,4085,3873
10065,3743,3889,3890
10066,3890,3745,3743
10067,4200,3996,3997
10068,3997,4198,4200
10069,3997,3996,3786
10070,3786,3787,3997
10071,3891,3890,4102
10072,4102,4103,3891
10073,4102,4101,4229
10074,4229,4230,4102
10075,3889,4101,4102
10076,4102,3890,3889
10077,3787,3788,3998
10078,3998,3997,3787
10079,4202,3995,3996
10080,3996,4200,4202
10081,3888,3887,4099
10082,4099,4100,3888
10083,4229,4101,4100
10084,4100,4228,4229
10085,4100,4101,3889
10086,3889,3888,4100
10087,3667,3666,3904
10088,3904,3905,3667
10089,3667,3905,3906
10090,3906,3668,3667
10091,4013,4353,4352
10092,4352,4012,4013
10093,3803,4013,4012
10094,4012,3802,3803
10095,3907,3906,4118
10096,4118,4119,3907
10097,4245,4246,4118
10098,4118,4117,4245
10099,3905,4117,4118
10100,4118,3906,3905
10101,4013,3803,3804
10102,3804,4014,4013
10103,4351,4011,4012
10104,4012,4352,4351
10105,4116,3904,3903
10106,3903,4115,4116
10107,4244,4245,4117
10108,4117,4116,4244
10109,3904,4116,4117
10110,4117,3905,3904
10111,3683,3682,3920
10112,3920,3921,3683
10113,3683,3921,3922
10114,3922,3684,3683
10115,4029,4369,4368
10116,4368,4028,4029
10117,3818,3819,4029
10118,4029,4028,3818
10119,3923,3922,4134
10120,4134,4135,3923
10121,4261,4262,4134
10122,4134,4133,4261
10123,3921,4133,4134
10124,4134,3922,3921
10125,3820,4030,4029
10126,4029,3819,3820
10127,4027,4028,4368
10128,4368,4367,4027
10129,3919,4131,4132
10130,4132,3920,3919
10131,4261,4133,4132
10132,4132,4260,4261
10133,3921,3920,4132
10134,4132,4133,3921
10135,3936,3937,3699
10136,3699,3698,3936
10137,3629,3835,3834
10138,3834,3628,3629
10139,3700,3699,3937
10140,3937,3938,3700
10141,4045,4385,4384
10142,4384,4044,4045
10143,4045,4044,3834
10144,3834,3835,4045
10145,3939,3938,4150
10146,4150,4151,3939
10147,4278,4150,4149
10148,4149,4277,4278
10149,3937,4149,4150
10150,4150,3938,3937
10151,3835,3836,4046
10152,4046,4045,3835
10153,4043,4044,4384
10154,4384,4383,4043
10155,3935,4147,4148
10156,4148,3936,3935
10157,4277,4149,4148
10158,4148,4276,4277
10159,3937,3936,4148
10160,4148,4149,3937
10161,3646,3852,3851
10162,3851,3645,3646
10163,3734,3736,3953
10164,3953,3954,3734
10165,4312,4310,4060
10166,4060,4061,4312
10167,3851,4061,4060
10168,4060,3850,3851
10169,3955,3954,4166
10170,4166,4167,3955
10171,4166,4165,4293
10172,4293,4294,4166
10173,3953,4165,4166
10174,4166,3954,3953
10175,4061,3851,3852
10176,3852,4062,4061
10177,4310,4209,4059
10178,4059,4060,4310
10179,3952,3951,4163
10180,4163,4164,3952
10181,4164,4292,4293
10182,4293,4165,4164
10183,4164,4165,3953
10184,3953,3952,4164
10185,940,830,828
10186,828,1040,940
10187,937,832,830
10188,830,940,937
10189,4596,4308,4307
10190,4307,4803,4596
10191,4307,4595,4803
10192,4492,4339,4343
10193,4343,4695,4492
10194,4343,4493,4695
10195,7055,7056,7265
10196,7265,7264,7055
10197,7265,6854,6853
10198,6853,7264,7265
10199,836,835,627
10200,627,628,836
10201,521,628,627
10202,627,520,521
10203,627,726,518
10204,518,520,627
10205,835,934,726
10206,726,627,835
10207,211,518,516
10208,516,207,211
10209,415,504,411
10210,411,413,415
10211,207,104,106
10212,106,211,207
10213,103,78,106
10214,106,104,103
10215,623,831,829
10216,623,829,504
10217,504,415,623
10218,730,506,504
10219,504,829,730
10220,941,942,730
10221,730,829,941
10222,936,941,829
10223,829,831,936
10224,2823,3062,3064
10225,3064,2725,2823
10226,3247,3248,3039
10227,3039,2939,3247
10228,2832,2830,2939
10229,2939,3039,2832
10230,2933,2939,2830
10231,2830,2828,2933
10232,3243,3347,3139
10233,3139,3064,3243
10234,2939,2933,3141
10235,3141,3247,2939
10236,3064,3139,2827
10237,2725,3064,2827
10238,2827,2723,2725
10239,3735,3885,3886
10240,3886,3737,3735
10241,3733,3884,3885
10242,3885,3735,3733
10243,4311,3991,3992
10244,3992,4309,4311
10245,3782,3992,3991
10246,3991,3781,3782
10247,3883,4095,4096
10248,4096,3884,3883
10249,4225,4097,4096
10250,4096,4224,4225
10251,3780,3781,3991
10252,3991,3990,3780
10253,3885,3884,4096
10254,4096,4097,3885
10255,4309,3992,3993
10256,3993,4208,4309
10257,3887,3886,4098
10258,4098,4099,3887
10259,4225,4226,4098
10260,4098,4097,4225
10261,3885,4097,4098
10262,4098,3886,3885
10263,3902,3664,3663
10264,3663,3901,3902
10265,3900,3901,3663
10266,3663,3662,3900
10267,4007,4008,4348
10268,4348,4347,4007
10269,4007,3797,3798
10270,3798,4008,4007
10271,4112,3900,3899
10272,3899,4111,4112
10273,4240,4241,4113
10274,4113,4112,4240
10275,3797,4007,4006
10276,4006,3796,3797
10277,3900,4112,4113
10278,4113,3901,3900
10279,4349,4348,4008
10280,4008,4009,4349
10281,4114,4115,3903
10282,3903,3902,4114
10283,4242,4114,4113
10284,4113,4241,4242
10285,3902,3901,4113
10286,4113,4114,3902
10287,3679,3917,3918
10288,3918,3680,3679
10289,3679,3678,3916
10290,3916,3917,3679
10291,4023,4024,4364
10292,4364,4363,4023
10293,3814,4024,4023
10294,4023,3813,3814
10295,3915,4127,4128
10296,4128,3916,3915
10297,4257,4129,4128
10298,4128,4256,4257
10299,3812,3813,4023
10300,4023,4022,3812
10301,3917,3916,4128
10302,4128,4129,3917
10303,4024,4025,4365
10304,4365,4364,4024
10305,4131,3919,3918
10306,3918,4130,4131
10307,4257,4258,4130
10308,4130,4129,4257
10309,3917,4129,4130
10310,4130,3918,3917
10311,3934,3696,3695
10312,3695,3933,3934
10313,3695,3694,3932
10314,3932,3933,3695
10315,4379,4039,4040
10316,4040,4380,4379
10317,3829,3830,4040
10318,4040,4039,3829
10319,3932,3931,4143
10320,4143,4144,3932
10321,4144,4272,4273
10322,4273,4145,4144
10323,4039,4038,3828
10324,3828,3829,4039
10325,4144,4145,3933
10326,3933,3932,4144
10327,4040,4041,4381
10328,4381,4380,4040
10329,4146,4147,3935
10330,3935,3934,4146
10331,4273,4274,4146
10332,4146,4145,4273
10333,3934,3933,4145
10334,4145,4146,3934
10335,3742,3744,3949
10336,3949,3950,3742
10337,3744,3746,3948
10338,3948,3949,3744
10339,4201,4199,4055
10340,4055,4056,4201
10341,4055,3845,3846
10342,3846,4056,4055
10343,3947,4159,4160
10344,4160,3948,3947
10345,4289,4161,4160
10346,4160,4288,4289
10347,3845,4055,4054
10348,4054,3844,3845
10349,3949,3948,4160
10350,4160,4161,3949
10351,4203,4201,4056
10352,4056,4057,4203
10353,3951,3950,4162
10354,4162,4163,3951
10355,4290,4162,4161
10356,4161,4289,4290
10357,3949,4161,4162
10358,4162,3950,3949
10359,3655,3656,3862
10360,3862,3861,3655
10361,3710,3712,3965
10362,3965,3966,3710
10363,4335,4333,4071
10364,4071,4072,4335
10365,3862,4072,4071
10366,4071,3861,3862
10367,4176,3964,3963
10368,3963,4175,4176
10369,4305,4177,4176
10370,4176,4304,4305
10371,3860,3861,4071
10372,4071,4070,3860
10373,3964,4176,4177
10374,4177,3965,3964
10375,4337,4335,4072
10376,4072,4073,4337
10377,4178,4179,3967
10378,3967,3966,4178
10379,4306,4178,4177
10380,4177,4305,4306
10381,3966,3965,4177
10382,4177,4178,3966
10383,725,933,932
10384,932,724,725
10385,617,618,725
10386,725,724,617
10387,725,618,519
10388,519,727,725
10389,933,725,727
10390,727,935,933
10391,212,208,517
10392,517,519,212
10393,208,212,107
10394,107,105,208
10395,102,105,107
10396,107,79,102
10397,3063,2824,2825
10398,2825,3138,3063
10399,3246,3041,2940
10400,2940,3346,3246
10401,2831,2940,3041
10402,3041,2829,2831
10403,2931,2829,3041
10404,3041,2934,2931
10405,3244,3138,3140
10406,3140,3348,3244
10407,3142,2934,3041
10408,3041,3246,3142
10409,2825,2724,2826
10410,2826,3138,2825
10411,2826,3140,3138
10412,4706,4499,4211
10413,4498,4706,4211
10414,4211,4210,4498
10415,4598,4395,4342
10416,4396,4598,4342
10417,4342,4338,4396
10418,6863,7072,7071
10419,7071,6862,6863
10420,6661,6660,7071
10421,7071,7072,6661
10422,3566,3567,3773
10423,3773,3772,3566
10424,3717,3876,3877
10425,3877,3719,3717
10426,4328,3983,3984
10427,3984,4326,4328
10428,3774,3984,3983
10429,3983,3773,3774
10430,3875,4087,4088
10431,4088,3876,3875
10432,4217,4089,4088
10433,4088,4216,4217
10434,3772,3773,3983
10435,3983,3982,3772
10436,3877,3876,4088
10437,4088,4089,3877
10438,4326,3984,3985
10439,3985,4324,4326
10440,3879,3878,4090
10441,4090,4091,3879
10442,4217,4218,4090
10443,4090,4089,4217
10444,3877,4089,4090
10445,4090,3878,3877
10446,6875,6464,6465
10447,6465,6876,6875
10448,6875,6876,7085
10449,7085,7084,6875
10450,7085,6674,6673
10451,6673,7084,7085
10452,6875,6874,6463
10453,6463,6464,6875
10454,6875,7084,7083
10455,7083,6874,6875
10456,6673,6672,7083
10457,7083,7084,6673
10458,4601,4398,4334
10459,4399,4601,4334
10460,4334,4332,4399
10461,4709,4502,4214
10462,4501,4709,4214
10463,4214,4213,4501
10464,5122,5236,5237
10465,5237,5022,5122
10466,4915,4815,5438
10467,5438,5437,4915
10468,5121,5020,5233
10469,5233,5234,5121
10470,4914,5435,5434
10471,5434,4813,4914
10472,5229,5841,5842
10473,5842,5230,5229
10474,5431,5634,5633
10475,5633,5430,5431
10476,5233,5232,5844
10477,5844,5845,5233
10478,5637,5636,5433
10479,5433,5434,5637
10480,4600,4397,4336
10481,4398,4600,4336
10482,4336,4334,4398
10483,4501,4213,4212
10484,4212,4708,4501
10485,4212,4500,4708
10486,5119,5018,5229
10487,5229,5230,5119
10488,4912,5431,5430
10489,5430,4811,4912
10490,5120,5232,5233
10491,5233,5020,5120
10492,4913,4813,5434
10493,5434,5433,4913
10494,5237,5236,5848
10495,5848,5849,5237
10496,5641,5640,5437
10497,5437,5438,5641
10498,5233,5845,5846
10499,5846,5234,5233
10500,5435,5638,5637
10501,5637,5434,5435
10502,6867,7076,7075
10503,7075,6866,6867
10504,6664,6665,6253
10505,6253,6252,6664
10506,6665,6664,7075
10507,7075,7076,6665
10508,6867,6868,7077
10509,7077,7076,6867
10510,7077,6666,6665
10511,6665,7076,7077
10512,4916,5439,5438
10513,5438,4815,4916
10514,4604,4401,4328
10515,4402,4604,4328
10516,4328,4326,4402
10517,5649,5648,5445
10518,5445,5446,5649
10519,5443,5646,5645
10520,5645,5442,5443
10521,5439,5642,5641
10522,5641,5438,5439
10523,5645,5644,5441
10524,5441,5442,5645
10525,4605,4402,4326
10526,4403,4605,4326
10527,4326,4324,4403
10528,4918,5443,5442
10529,5442,4817,4918
10530,3583,3584,3790
10531,3790,3789,3583
10532,3751,3893,3894
10533,3894,3753,3751
10534,3790,4000,3999
10535,3999,3789,3790
10536,4104,3892,3891
10537,3891,4103,4104
10538,4194,3999,4000
10539,4000,4192,4194
10540,4233,4105,4104
10541,4104,4232,4233
10542,3788,3789,3999
10543,3999,3998,3788
10544,3892,4104,4105
10545,4105,3893,3892
10546,4192,4000,4001
10547,4001,4190,4192
10548,3895,3894,4106
10549,4106,4107,3895
10550,4233,4234,4106
10551,4106,4105,4233
10552,3893,4105,4106
10553,4106,3894,3893
10554,6907,6496,6497
10555,6497,6908,6907
10556,6907,6908,7117
10557,7117,7116,6907
10558,6705,6706,6294
10559,6294,6293,6705
10560,7117,6706,6705
10561,6705,7116,7117
10562,6907,6906,6495
10563,6495,6496,6907
10564,6907,7116,7115
10565,7115,6906,6907
10566,6705,6704,7115
10567,7115,7116,6705
10568,4617,4414,4200
10569,4415,4617,4200
10570,4200,4198,4415
10571,4518,4230,4229
10572,4229,4725,4518
10573,4229,4517,4725
10574,5138,5268,5269
10575,5269,5038,5138
10576,4931,4831,5470
10577,5470,5469,4931
10578,5137,5036,5265
10579,5265,5266,5137
10580,5261,5873,5874
10581,5874,5262,5261
10582,5463,5666,5665
10583,5665,5462,5463
10584,5265,5264,5876
10585,5876,5877,5265
10586,5669,5668,5465
10587,5465,5466,5669
10588,4616,4413,4202
10589,4414,4616,4202
10590,4202,4200,4414
10591,4724,4517,4229
10592,4516,4724,4229
10593,4229,4228,4516
10594,5135,5034,5261
10595,5261,5262,5135
10596,5136,5264,5265
10597,5265,5036,5136
10598,4929,4829,5466
10599,5466,5465,4929
10600,5269,5268,5880
10601,5880,5881,5269
10602,5673,5672,5469
10603,5469,5470,5673
10604,5265,5877,5878
10605,5878,5266,5265
10606,5467,5670,5669
10607,5669,5466,5467
10608,6899,7108,7107
10609,7107,6898,6899
10610,6696,6697,6285
10611,6285,6284,6696
10612,6697,6696,7107
10613,7107,7108,6697
10614,6899,6900,7109
10615,7109,7108,6899
10616,6697,6698,6286
10617,6286,6285,6697
10618,7109,6698,6697
10619,6697,7108,7109
10620,4932,5471,5470
10621,5470,4831,4932
10622,4620,4417,4194
10623,4418,4620,4194
10624,4194,4192,4418
10625,5681,5680,5477
10626,5477,5478,5681
10627,5475,5678,5677
10628,5677,5474,5475
10629,5471,5674,5673
10630,5673,5470,5471
10631,5677,5676,5473
10632,5473,5474,5677
10633,4621,4418,4192
10634,4419,4621,4192
10635,4192,4190,4419
10636,4935,4835,5478
10637,5478,5477,4935
10638,4934,5475,5474
10639,5474,4833,4934
10640,3672,3671,3909
10641,3909,3910,3672
10642,3671,3670,3908
10643,3908,3909,3671
10644,4015,4016,4356
10645,4356,4355,4015
10646,3806,4016,4015
10647,4015,3805,3806
10648,3907,4119,4120
10649,4120,3908,3907
10650,4249,4121,4120
10651,4120,4248,4249
10652,3804,3805,4015
10653,4015,4014,3804
10654,3909,3908,4120
10655,4120,4121,3909
10656,4016,4017,4357
10657,4357,4356,4016
10658,3911,3910,4122
10659,4122,4123,3911
10660,4249,4250,4122
10661,4122,4121,4249
10662,3909,4121,4122
10663,4122,3910,3909
10664,6529,6940,6939
10665,6939,6528,6529
10666,6939,6940,7149
10667,7149,7148,6939
10668,7149,6738,6737
10669,6737,7148,7149
10670,6939,6938,6527
10671,6527,6528,6939
10672,6939,7148,7147
10673,7147,6938,6939
10674,6736,6737,6325
10675,6325,6324,6736
10676,6737,6736,7147
10677,7147,7148,6737
10678,4633,4430,4352
10679,4431,4633,4352
10680,4352,4353,4431
10681,4741,4534,4246
10682,4533,4741,4246
10683,4246,4245,4533
10684,5154,5300,5301
10685,5301,5054,5154
10686,4947,4847,5502
10687,5502,5501,4947
10688,5153,5052,5297
10689,5297,5298,5153
10690,4946,5499,5498
10691,5498,4845,4946
10692,5293,5905,5906
10693,5906,5294,5293
10694,5495,5698,5697
10695,5697,5494,5495
10696,5297,5296,5908
10697,5908,5909,5297
10698,5701,5700,5497
10699,5497,5498,5701
10700,4632,4429,4351
10701,4430,4632,4351
10702,4351,4352,4430
10703,4533,4245,4244
10704,4244,4740,4533
10705,4244,4532,4740
10706,5151,5050,5293
10707,5293,5294,5151
10708,4944,5495,5494
10709,5494,4843,4944
10710,5152,5296,5297
10711,5297,5052,5152
10712,4945,4845,5498
10713,5498,5497,4945
10714,5912,5913,5301
10715,5301,5300,5912
10716,5705,5704,5501
10717,5501,5502,5705
10718,5297,5909,5910
10719,5910,5298,5297
10720,5499,5702,5701
10721,5701,5498,5499
10722,6931,7140,7139
10723,7139,6930,6931
10724,6729,6728,7139
10725,7139,7140,6729
10726,6931,6932,7141
10727,7141,7140,6931
10728,7141,6730,6729
10729,6729,7140,7141
10730,4948,5503,5502
10731,5502,4847,4948
10732,4636,4433,4355
10733,4434,4636,4355
10734,4355,4356,4434
10735,5713,5712,5509
10736,5509,5510,5713
10737,5507,5710,5709
10738,5709,5506,5507
10739,5503,5706,5705
10740,5705,5502,5503
10741,5708,5505,5506
10742,5506,5709,5708
10743,4637,4434,4356
10744,4435,4637,4356
10745,4356,4357,4435
10746,4950,5507,5506
10747,5506,4849,4950
10748,3614,3615,3821
10749,3821,3820,3614
10750,3615,3616,3822
10751,3822,3821,3615
10752,3687,3686,3924
10753,3924,3925,3687
10754,3822,4032,4031
10755,4031,3821,3822
10756,3923,4135,4136
10757,4136,3924,3923
10758,4371,4031,4032
10759,4032,4372,4371
10760,4265,4137,4136
10761,4136,4264,4265
10762,3820,3821,4031
10763,4031,4030,3820
10764,3925,3924,4136
10765,4136,4137,3925
10766,4032,4033,4373
10767,4373,4372,4032
10768,3927,3926,4138
10769,4138,4139,3927
10770,4265,4266,4138
10771,4138,4137,4265
10772,3925,4137,4138
10773,4138,3926,3925
10774,6972,6971,6560
10775,6560,6561,6972
10776,6971,6972,7181
10777,7181,7180,6971
10778,6358,6357,6769
10779,6769,6770,6358
10780,7181,6770,6769
10781,6769,7180,7181
10782,6559,6560,6971
10783,6971,6970,6559
10784,7179,6970,6971
10785,6971,7180,7179
10786,6769,6768,7179
10787,7179,7180,6769
10788,4649,4446,4368
10789,4447,4649,4368
10790,4368,4369,4447
10791,4757,4550,4262
10792,4549,4757,4262
10793,4262,4261,4549
10794,5170,5332,5333
10795,5333,5070,5170
10796,4963,4863,5534
10797,5534,5533,4963
10798,5169,5068,5329
10799,5329,5330,5169
10800,5937,5938,5326
10801,5326,5325,5937
10802,5729,5526,5527
10803,5527,5730,5729
10804,5940,5941,5329
10805,5329,5328,5940
10806,5529,5530,5733
10807,5733,5732,5529
10808,4648,4445,4367
10809,4446,4648,4367
10810,4367,4368,4446
10811,4756,4549,4261
10812,4548,4756,4261
10813,4261,4260,4548
10814,5167,5066,5325
10815,5325,5326,5167
10816,5168,5328,5329
10817,5329,5068,5168
10818,4961,4861,5530
10819,5530,5529,4961
10820,5944,5945,5333
10821,5333,5332,5944
10822,5533,5534,5737
10823,5737,5736,5533
10824,5329,5941,5942
10825,5942,5330,5329
10826,5531,5734,5733
10827,5733,5530,5531
10828,7171,6962,6963
10829,6963,7172,7171
10830,7171,7172,6761
10831,6761,6760,7171
10832,6964,7173,7172
10833,7172,6963,6964
10834,6761,6762,6350
10835,6350,6349,6761
10836,6762,6761,7172
10837,7172,7173,6762
10838,4964,5535,5534
10839,5534,4863,4964
10840,4652,4449,4371
10841,4450,4652,4371
10842,4371,4372,4450
10843,5745,5744,5541
10844,5541,5542,5745
10845,5742,5741,5538
10846,5538,5539,5742
10847,5738,5737,5534
10848,5534,5535,5738
10849,5537,5538,5741
10850,5741,5740,5537
10851,4653,4450,4372
10852,4451,4653,4372
10853,4372,4373,4451
10854,4967,4867,5542
10855,5542,5541,4967
10856,4966,5539,5538
10857,5538,4865,4966
10858,3941,3760,3702
10859,3702,3940,3941
10860,4047,4048,4388
10861,4388,4387,4047
10862,3837,3838,4048
10863,4048,4047,3837
10864,3940,3939,4151
10865,4151,4152,3940
10866,4281,4153,4152
10867,4152,4280,4281
10868,4047,4046,3836
10869,3836,3837,4047
10870,4152,4153,3941
10871,3941,3940,4152
10872,4049,4187,4388
10873,4388,4048,4049
10874,3942,4154,4155
10875,4155,3943,3942
10876,4281,4282,4154
10877,4154,4153,4281
10878,4154,3942,3941
10879,3941,4153,4154
10880,7003,6592,6593
10881,6593,7004,7003
10882,7003,7004,7213
10883,7213,7212,7003
10884,7213,6802,6801
10885,6801,7212,7213
10886,7003,7002,6591
10887,6591,6592,7003
10888,7003,7212,7211
10889,7211,7002,7003
10890,6801,6800,7211
10891,7211,7212,6801
10892,4665,4462,4384
10893,4463,4665,4384
10894,4384,4385,4463
10895,4773,4566,4278
10896,4565,4773,4278
10897,4278,4277,4565
10898,5186,5364,5365
10899,5365,5086,5186
10900,4979,4879,5566
10901,5566,5565,4979
10902,5185,5084,5361
10903,5361,5362,5185
10904,4978,5563,5562
10905,5562,4877,4978
10906,5357,5969,5970
10907,5970,5358,5357
10908,5559,5762,5761
10909,5761,5558,5559
10910,5361,5360,5972
10911,5972,5973,5361
10912,5765,5764,5561
10913,5561,5562,5765
10914,4664,4461,4383
10915,4462,4664,4383
10916,4383,4384,4462
10917,4772,4565,4277
10918,4564,4772,4277
10919,4277,4276,4564
10920,5183,5082,5357
10921,5357,5358,5183
10922,4976,5559,5558
10923,5558,4875,4976
10924,5184,5360,5361
10925,5361,5084,5184
10926,4977,4877,5562
10927,5562,5561,4977
10928,5365,5364,5976
10929,5976,5977,5365
10930,5769,5768,5565
10931,5565,5566,5769
10932,5361,5973,5974
10933,5974,5362,5361
10934,5563,5766,5765
10935,5765,5562,5563
10936,6995,7204,7203
10937,7203,6994,6995
10938,6792,6793,6381
10939,6381,6380,6792
10940,6793,6792,7203
10941,7203,7204,6793
10942,6995,6996,7205
10943,7205,7204,6995
10944,7205,6794,6793
10945,6793,7204,7205
10946,4980,5567,5566
10947,5566,4879,4980
10948,4465,4387,4388
10949,4388,4668,4465
10950,4388,4466,4668
10951,5777,5776,5573
10952,5573,5574,5777
10953,5571,5774,5773
10954,5773,5570,5571
10955,5567,5770,5769
10956,5769,5566,5567
10957,5773,5772,5569
10958,5569,5570,5773
10959,4669,4466,4388
10960,4467,4669,4388
10961,4388,4187,4467
10962,4982,5571,5570
10963,5570,4881,4982
10964,3853,3852,3646
10965,3646,3647,3853
10966,3647,3648,3854
10967,3854,3853,3647
10968,3728,3730,3956
10969,3956,3957,3728
10970,4063,3853,3854
10971,3854,4064,4063
10972,3956,3955,4167
10973,4167,4168,3956
10974,4318,4316,4063
10975,4063,4064,4318
10976,4297,4169,4168
10977,4168,4296,4297
10978,3853,4063,4062
10979,4062,3852,3853
10980,4168,4169,3957
10981,3957,3956,4168
10982,4320,4318,4064
10983,4064,4065,4320
10984,3959,3958,4170
10985,4170,4171,3959
10986,4297,4298,4170
10987,4170,4169,4297
10988,3957,4169,4170
10989,4170,3958,3957
10990,7035,6624,6625
10991,6625,7036,7035
10992,7035,7036,7245
10993,7245,7244,7035
10994,6833,6834,6422
10995,6422,6421,6833
10996,7245,6834,6833
10997,6833,7244,7245
10998,7035,7034,6623
10999,6623,6624,7035
11000,7035,7244,7243
11001,7243,7034,7035
11002,6833,6832,7243
11003,7243,7244,6833
11004,4681,4478,4310
11005,4479,4681,4310
11006,4310,4312,4479
11007,4582,4294,4293
11008,4293,4789,4582
11009,4293,4581,4789
11010,5202,5396,5397
11011,5397,5102,5202
11012,4995,4895,5598
11013,5598,5597,4995
11014,5201,5100,5393
11015,5393,5394,5201
11016,5389,6001,6002
11017,6002,5390,5389
11018,5591,5794,5793
11019,5793,5590,5591
11020,5393,5392,6004
11021,6004,6005,5393
11022,5797,5796,5593
11023,5593,5594,5797
11024,4680,4477,4209
11025,4478,4680,4209
11026,4209,4310,4478
11027,4788,4581,4293
11028,4580,4788,4293
11029,4293,4292,4580
11030,5199,5098,5389
11031,5389,5390,5199
11032,5200,5392,5393
11033,5393,5100,5200
11034,4993,4893,5594
11035,5594,5593,4993
11036,5397,5396,6008
11037,6008,6009,5397
11038,5801,5800,5597
11039,5597,5598,5801
11040,5393,6005,6006
11041,6006,5394,5393
11042,5595,5798,5797
11043,5797,5594,5595
11044,7027,7236,7235
11045,7235,7026,7027
11046,6824,6825,6413
11047,6413,6412,6824
11048,6825,6824,7235
11049,7235,7236,6825
11050,7027,7028,7237
11051,7237,7236,7027
11052,6825,6826,6414
11053,6414,6413,6825
11054,7237,6826,6825
11055,6825,7236,7237
11056,4996,5599,5598
11057,5598,4895,4996
11058,4684,4481,4316
11059,4482,4684,4316
11060,4316,4318,4482
11061,5809,5808,5605
11062,5605,5606,5809
11063,5603,5806,5805
11064,5805,5602,5603
11065,5599,5802,5801
11066,5801,5598,5599
11067,5805,5804,5601
11068,5601,5602,5805
11069,4685,4482,4318
11070,4483,4685,4318
11071,4318,4320,4483
11072,4999,4899,5606
11073,5606,5605,4999
11074,4998,5603,5602
11075,5602,4897,4998
11076,1240,940,1040
11077,1040,1246,1240
11078,1044,937,940
11079,940,1240,1044
11080,836,1046,1045
11081,1045,835,836
11082,1045,1046,1260
11083,1260,1259,1045
11084,1258,1144,1045
11085,1045,1259,1258
11086,934,835,1045
11087,1045,1144,934
11088,1679,1487,1483
11089,1483,1880,1679
11090,1365,1243,1245
11091,1245,1462,1365
11092,1239,1245,942
11093,942,941,1239
11094,1043,1239,941
11095,941,936,1043
11096,2272,2508,2413
11097,2413,2274,2272
11098,2508,2272,2273
11099,2273,2511,2508
11100,2086,1985,2195
11101,2195,2273,2086
11102,1882,1985,2086
11103,2086,1680,1882
11104,3573,3574,3780
11105,3780,3779,3573
11106,3779,3778,3572
11107,3572,3573,3779
11108,3727,3881,3882
11109,3882,3729,3727
11110,3778,3779,3989
11111,3989,3988,3778
11112,4094,4095,3883
11113,3883,3882,4094
11114,4317,3988,3989
11115,3989,4315,4317
11116,4222,4094,4093
11117,4093,4221,4222
11118,3780,3990,3989
11119,3989,3779,3780
11120,3882,3881,4093
11121,4093,4094,3882
11122,4319,3987,3988
11123,3988,4317,4319
11124,3879,4091,4092
11125,4092,3880,3879
11126,4221,4093,4092
11127,4092,4220,4221
11128,3881,3880,4092
11129,4092,4093,3881
11130,6883,6882,6471
11131,6471,6472,6883
11132,6883,7092,7091
11133,7091,6882,6883
11134,6680,6681,6269
11135,6269,6268,6680
11136,6681,6680,7091
11137,7091,7092,6681
11138,6883,6472,6473
11139,6473,6884,6883
11140,6883,6884,7093
11141,7093,7092,6883
11142,6681,6682,6270
11143,6270,6269,6681
11144,7093,6682,6681
11145,6681,7092,7093
11146,4612,4409,4311
11147,4410,4612,4311
11148,4311,4309,4410
11149,4513,4225,4224
11150,4224,4720,4513
11151,4224,4512,4720
11152,5131,5030,5253
11153,5253,5254,5131
11154,5132,5256,5257
11155,5257,5032,5132
11156,5261,5260,5872
11157,5872,5873,5261
11158,5665,5664,5461
11159,5461,5462,5665
11160,5257,5869,5870
11161,5870,5258,5257
11162,5459,5662,5661
11163,5661,5458,5459
11164,4613,4410,4309
11165,4411,4613,4309
11166,4309,4208,4411
11167,4721,4514,4226
11168,4513,4721,4226
11169,4226,4225,4513
11170,5134,5260,5261
11171,5261,5034,5134
11172,5133,5032,5257
11173,5257,5258,5133
11174,4926,5459,5458
11175,5458,4825,4926
11176,5253,5865,5866
11177,5866,5254,5253
11178,5455,5658,5657
11179,5657,5454,5455
11180,5257,5256,5868
11181,5868,5869,5257
11182,5661,5660,5457
11183,5457,5458,5661
11184,4609,4406,4317
11185,4407,4609,4317
11186,4317,4315,4407
11187,4923,4823,5454
11188,5454,5453,4923
11189,4922,5451,5450
11190,5450,4821,4922
11191,5447,5650,5649
11192,5649,5446,5447
11193,5653,5652,5449
11194,5449,5450,5653
11195,4608,4405,4319
11196,4406,4608,4319
11197,4319,4317,4406
11198,5657,5656,5453
11199,5453,5454,5657
11200,5451,5654,5653
11201,5653,5450,5451
11202,6891,6892,7101
11203,7101,7100,6891
11204,7101,6690,6689
11205,6689,7100,7101
11206,6891,7100,7099
11207,7099,6890,6891
11208,6688,6689,6277
11209,6277,6276,6688
11210,6689,6688,7099
11211,7099,7100,6689
11212,3757,3896,3897
11213,3897,3759,3757
11214,3897,3898,3660
11215,3660,3759,3897
11216,4345,4344,4004
11217,4004,4005,4345
11218,3794,3795,4005
11219,4005,4004,3794
11220,3899,3898,4110
11221,4110,4111,3899
11222,4110,4109,4237
11223,4237,4238,4110
11224,3796,4006,4005
11225,4005,3795,3796
11226,3897,4109,4110
11227,4110,3898,3897
11228,4003,4004,4344
11229,4344,4186,4003
11230,3895,4107,4108
11231,4108,3896,3895
11232,4236,4237,4109
11233,4109,4108,4236
11234,3897,3896,4108
11235,4108,4109,3897
11236,6915,6914,6503
11237,6503,6504,6915
11238,6915,7124,7123
11239,7123,6914,6915
11240,6712,6713,6301
11241,6301,6300,6712
11242,6713,6712,7123
11243,7123,7124,6713
11244,6915,6504,6505
11245,6505,6916,6915
11246,6915,6916,7125
11247,7125,7124,6915
11248,7125,6714,6713
11249,6713,7124,7125
11250,4628,4425,4347
11251,4426,4628,4347
11252,4347,4348,4426
11253,4736,4529,4241
11254,4528,4736,4241
11255,4241,4240,4528
11256,5147,5046,5285
11257,5285,5286,5147
11258,4940,5487,5486
11259,5486,4839,4940
11260,5148,5288,5289
11261,5289,5048,5148
11262,5293,5292,5904
11263,5904,5905,5293
11264,5697,5696,5493
11265,5493,5494,5697
11266,5289,5901,5902
11267,5902,5290,5289
11268,5491,5694,5693
11269,5693,5490,5491
11270,4426,4348,4349
11271,4349,4629,4426
11272,4349,4427,4629
11273,4737,4530,4242
11274,4529,4737,4242
11275,4242,4241,4529
11276,5150,5292,5293
11277,5293,5050,5150
11278,5149,5048,5289
11279,5289,5290,5149
11280,5285,5897,5898
11281,5898,5286,5285
11282,5487,5690,5689
11283,5689,5486,5487
11284,5289,5288,5900
11285,5900,5901,5289
11286,5693,5692,5489
11287,5489,5490,5693
11288,4422,4344,4345
11289,4345,4625,4422
11290,4345,4423,4625
11291,4939,4839,5486
11292,5486,5485,4939
11293,4938,5483,5482
11294,5482,4837,4938
11295,5479,5682,5681
11296,5681,5478,5479
11297,5685,5684,5481
11298,5481,5482,5685
11299,4624,4421,4186
11300,4422,4624,4186
11301,4186,4344,4422
11302,4936,5479,5478
11303,5478,4835,4936
11304,4937,4837,5482
11305,5482,5481,4937
11306,5689,5688,5485
11307,5485,5486,5689
11308,5483,5686,5685
11309,5685,5482,5483
11310,6923,6924,7133
11311,7133,7132,6923
11312,7133,6722,6721
11313,6721,7132,7133
11314,6923,7132,7131
11315,7131,6922,6923
11316,6720,6721,6309
11317,6309,6308,6720
11318,6721,6720,7131
11319,7131,7132,6721
11320,3605,3606,3812
11321,3812,3811,3605
11322,3604,3605,3811
11323,3811,3810,3604
11324,3810,3811,4021
11325,4021,4020,3810
11326,3915,3914,4126
11327,4126,4127,3915
11328,4361,4360,4020
11329,4020,4021,4361
11330,4253,4254,4126
11331,4126,4125,4253
11332,3812,4022,4021
11333,4021,3811,3812
11334,3913,4125,4126
11335,4126,3914,3913
11336,4019,4020,4360
11337,4360,4359,4019
11338,3911,4123,4124
11339,4124,3912,3911
11340,4253,4125,4124
11341,4124,4252,4253
11342,3913,3912,4124
11343,4124,4125,3913
11344,6947,6946,6535
11345,6535,6536,6947
11346,6947,7156,7155
11347,7155,6946,6947
11348,6745,6744,7155
11349,7155,7156,6745
11350,6537,6948,6947
11351,6947,6536,6537
11352,6947,6948,7157
11353,7157,7156,6947
11354,6745,6746,6334
11355,6334,6333,6745
11356,7157,6746,6745
11357,6745,7156,7157
11358,4644,4441,4363
11359,4442,4644,4363
11360,4363,4364,4442
11361,4752,4545,4257
11362,4544,4752,4257
11363,4257,4256,4544
11364,5163,5062,5317
11365,5317,5318,5163
11366,5164,5320,5321
11367,5321,5064,5164
11368,5325,5324,5936
11369,5936,5937,5325
11370,5526,5729,5728
11371,5728,5525,5526
11372,5321,5933,5934
11373,5934,5322,5321
11374,5726,5725,5522
11375,5522,5523,5726
11376,4645,4442,4364
11377,4443,4645,4364
11378,4364,4365,4443
11379,4753,4546,4258
11380,4545,4753,4258
11381,4258,4257,4545
11382,5166,5324,5325
11383,5325,5066,5166
11384,5165,5064,5321
11385,5321,5322,5165
11386,4958,5523,5522
11387,5522,4857,4958
11388,5317,5929,5930
11389,5930,5318,5317
11390,5519,5722,5721
11391,5721,5518,5519
11392,5320,5932,5933
11393,5933,5321,5320
11394,5725,5724,5521
11395,5521,5522,5725
11396,4641,4438,4360
11397,4439,4641,4360
11398,4360,4361,4439
11399,4955,4855,5518
11400,5518,5517,4955
11401,4954,5515,5514
11402,5514,4853,4954
11403,5511,5714,5713
11404,5713,5510,5511
11405,5513,5514,5717
11406,5717,5716,5513
11407,4640,4437,4359
11408,4438,4640,4359
11409,4359,4360,4438
11410,5720,5517,5518
11411,5518,5721,5720
11412,5515,5718,5717
11413,5717,5514,5515
11414,6955,6956,7165
11415,7165,7164,6955
11416,6342,6341,6753
11417,6753,6754,6342
11418,7165,6754,6753
11419,6753,7164,7165
11420,6955,7164,7163
11421,7163,6954,6955
11422,6753,6752,7163
11423,7163,7164,6753
11424,3621,3622,3828
11425,3828,3827,3621
11426,3691,3690,3928
11427,3928,3929,3691
11428,3691,3929,3930
11429,3930,3692,3691
11430,4037,4377,4376
11431,4376,4036,4037
11432,3826,3827,4037
11433,4037,4036,3826
11434,3931,3930,4142
11435,4142,4143,3931
11436,4269,4270,4142
11437,4142,4141,4269
11438,3828,4038,4037
11439,4037,3827,3828
11440,3929,4141,4142
11441,4142,3930,3929
11442,4035,4036,4376
11443,4376,4375,4035
11444,3927,4139,4140
11445,4140,3928,3927
11446,4269,4141,4140
11447,4140,4268,4269
11448,3929,3928,4140
11449,4140,4141,3929
11450,6567,6568,6979
11451,6979,6978,6567
11452,7187,6978,6979
11453,6979,7188,7187
11454,6776,6777,6365
11455,6365,6364,6776
11456,7187,7188,6777
11457,6777,6776,7187
11458,6980,6979,6568
11459,6568,6569,6980
11460,6980,7189,7188
11461,7188,6979,6980
11462,6778,6366,6365
11463,6365,6777,6778
11464,6778,6777,7188
11465,7188,7189,6778
11466,4660,4457,4379
11467,4458,4660,4379
11468,4379,4380,4458
11469,4768,4561,4273
11470,4560,4768,4273
11471,4273,4272,4560
11472,5179,5078,5349
11473,5349,5350,5179
11474,4972,5551,5550
11475,5550,4871,4972
11476,5180,5352,5353
11477,5353,5080,5180
11478,5357,5356,5968
11479,5968,5969,5357
11480,5761,5760,5557
11481,5557,5558,5761
11482,5353,5965,5966
11483,5966,5354,5353
11484,5555,5758,5757
11485,5757,5554,5555
11486,4458,4380,4381
11487,4381,4661,4458
11488,4381,4459,4661
11489,4769,4562,4274
11490,4561,4769,4274
11491,4274,4273,4561
11492,5182,5356,5357
11493,5357,5082,5182
11494,5181,5080,5353
11495,5353,5354,5181
11496,5350,5349,5961
11497,5961,5962,5350
11498,5754,5753,5550
11499,5550,5551,5754
11500,5353,5352,5964
11501,5964,5965,5353
11502,5757,5756,5553
11503,5553,5554,5757
11504,4657,4454,4376
11505,4455,4657,4376
11506,4376,4377,4455
11507,4971,4871,5550
11508,5550,5549,4971
11509,4970,5547,5546
11510,5546,4869,4970
11511,5543,5746,5745
11512,5745,5542,5543
11513,5749,5748,5545
11514,5545,5546,5749
11515,4656,4453,4375
11516,4454,4656,4375
11517,4375,4376,4454
11518,4968,5543,5542
11519,5542,4867,4968
11520,4969,4869,5546
11521,5546,5545,4969
11522,5753,5752,5549
11523,5549,5550,5753
11524,5547,5750,5749
11525,5749,5546,5547
11526,6987,6988,7197
11527,7197,7196,6987
11528,6785,6786,6374
11529,6374,6373,6785
11530,7197,6786,6785
11531,6785,7196,7197
11532,6987,7196,7195
11533,7195,6986,6987
11534,6784,6785,6373
11535,6373,6372,6784
11536,6785,6784,7195
11537,7195,7196,6785
11538,3843,3637,3638
11539,3638,3844,3843
11540,3752,3754,3944
11541,3944,3945,3752
11542,4053,4052,3842
11543,3842,3843,4053
11544,3947,3946,4158
11545,4158,4159,3947
11546,4195,4193,4052
11547,4052,4053,4195
11548,4285,4286,4158
11549,4158,4157,4285
11550,3843,3844,4054
11551,4054,4053,3843
11552,3945,4157,4158
11553,4158,3946,3945
11554,4193,4191,4051
11555,4051,4052,4193
11556,4156,3944,3943
11557,3943,4155,4156
11558,4284,4285,4157
11559,4157,4156,4284
11560,3944,4156,4157
11561,4157,3945,3944
11562,7011,7010,6599
11563,6599,6600,7011
11564,7011,7220,7219
11565,7219,7010,7011
11566,6808,6809,6397
11567,6397,6396,6808
11568,6809,6808,7219
11569,7219,7220,6809
11570,7011,6600,6601
11571,6601,7012,7011
11572,7011,7012,7221
11573,7221,7220,7011
11574,6809,6810,6398
11575,6398,6397,6809
11576,7221,6810,6809
11577,6809,7220,7221
11578,4676,4473,4199
11579,4474,4676,4199
11580,4199,4201,4474
11581,4784,4577,4289
11582,4576,4784,4289
11583,4289,4288,4576
11584,5195,5094,5381
11585,5381,5382,5195
11586,5196,5384,5385
11587,5385,5096,5196
11588,5389,5388,6000
11589,6000,6001,5389
11590,5793,5792,5589
11591,5589,5590,5793
11592,5385,5997,5998
11593,5998,5386,5385
11594,5587,5790,5789
11595,5789,5586,5587
11596,4677,4474,4201
11597,4475,4677,4201
11598,4201,4203,4475
11599,4785,4578,4290
11600,4577,4785,4290
11601,4290,4289,4577
11602,5198,5388,5389
11603,5389,5098,5198
11604,5197,5096,5385
11605,5385,5386,5197
11606,4990,5587,5586
11607,5586,4889,4990
11608,5381,5993,5994
11609,5994,5382,5381
11610,5583,5786,5785
11611,5785,5582,5583
11612,5385,5384,5996
11613,5996,5997,5385
11614,5789,5788,5585
11615,5585,5586,5789
11616,4673,4470,4193
11617,4471,4673,4193
11618,4193,4195,4471
11619,4987,4887,5582
11620,5582,5581,4987
11621,4986,5579,5578
11622,5578,4885,4986
11623,5575,5778,5777
11624,5777,5574,5575
11625,5781,5780,5577
11626,5577,5578,5781
11627,4672,4469,4191
11628,4470,4672,4191
11629,4191,4193,4470
11630,5785,5784,5581
11631,5581,5582,5785
11632,5579,5782,5781
11633,5781,5578,5579
11634,7019,7020,7229
11635,7229,7228,7019
11636,7229,6818,6817
11637,6817,7228,7229
11638,7019,7228,7227
11639,7227,7018,7019
11640,6816,6817,6405
11641,6405,6404,6816
11642,6817,6816,7227
11643,7227,7228,6817
11644,3720,3722,3960
11645,3960,3961,3720
11646,3718,3720,3961
11647,3961,3962,3718
11648,4329,4327,4068
11649,4068,4069,4329
11650,3858,3859,4069
11651,4069,4068,3858
11652,3962,4174,4175
11653,4175,3963,3962
11654,4301,4302,4174
11655,4174,4173,4301
11656,3860,4070,4069
11657,4069,3859,3860
11658,4174,3962,3961
11659,3961,4173,4174
11660,4327,4325,4067
11661,4067,4068,4327
11662,4172,3960,3959
11663,3959,4171,4172
11664,4301,4173,4172
11665,4172,4300,4301
11666,3960,4172,4173
11667,4173,3961,3960
11668,7043,7042,6631
11669,6631,6632,7043
11670,7043,7252,7251
11671,7251,7042,7043
11672,6840,6841,6429
11673,6429,6428,6840
11674,6841,6840,7251
11675,7251,7252,6841
11676,7043,6632,6633
11677,6633,7044,7043
11678,7043,7044,7253
11679,7253,7252,7043
11680,7253,6842,6841
11681,6841,7252,7253
11682,4489,4333,4335
11683,4335,4692,4489
11684,4335,4490,4692
11685,4593,4305,4304
11686,4304,4800,4593
11687,4304,4592,4800
11688,5211,5110,5413
11689,5413,5414,5211
11690,5004,5615,5614
11691,5614,4903,5004
11692,5212,5416,5417
11693,5417,5112,5212
11694,5421,5420,6032
11695,6032,6033,5421
11696,5825,5824,5621
11697,5621,5622,5825
11698,5417,6029,6030
11699,6030,5418,5417
11700,5619,5822,5821
11701,5821,5618,5619
11702,4490,4335,4337
11703,4337,4693,4490
11704,4337,4491,4693
11705,4801,4594,4306
11706,4593,4801,4306
11707,4306,4305,4593
11708,5214,5420,5421
11709,5421,5114,5214
11710,5213,5112,5417
11711,5417,5418,5213
11712,5413,6025,6026
11713,6026,5414,5413
11714,5615,5818,5817
11715,5817,5614,5615
11716,5417,5416,6028
11717,6028,6029,5417
11718,5821,5820,5617
11719,5617,5618,5821
11720,4689,4486,4327
11721,4487,4689,4327
11722,4327,4329,4487
11723,5003,4903,5614
11724,5614,5613,5003
11725,5002,5611,5610
11726,5610,4901,5002
11727,5607,5810,5809
11728,5809,5606,5607
11729,5813,5812,5609
11730,5609,5610,5813
11731,4688,4485,4325
11732,4486,4688,4325
11733,4325,4327,4486
11734,5000,5607,5606
11735,5606,4899,5000
11736,5001,4901,5610
11737,5610,5609,5001
11738,5817,5816,5613
11739,5613,5614,5817
11740,5611,5814,5813
11741,5813,5610,5611
11742,7051,7052,7261
11743,7261,7260,7051
11744,7261,6850,6849
11745,6849,7260,7261
11746,7051,7260,7259
11747,7259,7050,7051
11748,6848,6849,6437
11749,6437,6436,6848
11750,6849,6848,7259
11751,7259,7260,6849
11752,1143,1142,932
11753,932,933,1143
11754,1143,1357,1356
11755,1356,1142,1143
11756,1257,1357,1143
11757,1143,1145,1257
11758,935,1145,1143
11759,1143,933,935
11760,1678,1881,1482
11761,1482,1486,1678
11762,2306,2279,2278
11763,2306,2278,2510
11764,2510,2512,2306
11765,2412,2510,2278
11766,2278,2275,2412
11767,2196,1986,2087
11768,2087,2279,2196
11769,1883,1681,2087
11770,2087,1986,1883
11771,3767,3561,3562
11772,3562,3768,3767
11773,6675,7086,7087
11774,7087,6676,6675
11775,6877,6466,6467
11776,6467,6878,6877
11777,6877,6878,7087
11778,7087,7086,6877
11779,6468,6467,6064
11780,6064,6065,6468
11781,6461,6460,6057
11782,6057,6058,6461
11783,6671,6670,7081
11784,7081,7082,6671
11785,6671,6259,6258
11786,6258,6670,6671
11787,6873,6872,6461
11788,6461,6462,6873
11789,6873,7082,7081
11790,7081,6872,6873
11791,6257,6256,6668
11792,6668,6669,6257
11793,6255,6667,6668
11794,6668,6256,6255
11795,6663,6662,7073
11796,7073,7074,6663
11797,6663,6251,6250
11798,6250,6662,6663
11799,6865,7074,7073
11800,7073,6864,6865
11801,6667,7078,7079
11802,7079,6668,6667
11803,6869,6870,7079
11804,7079,7078,6869
11805,6707,7118,7119
11806,7119,6708,6707
11807,6707,6708,6296
11808,6296,6295,6707
11809,6909,6498,6499
11810,6499,6910,6909
11811,6909,6910,7119
11812,7119,7118,6909
11813,7114,6703,6702
11814,6702,7113,7114
11815,6703,6291,6290
11816,6290,6702,6703
11817,6905,6904,6493
11818,6493,6494,6905
11819,6905,7114,7113
11820,7113,6904,6905
11821,6091,6494,6493
11822,6493,6090,6091
11823,6695,6694,7105
11824,7105,7106,6695
11825,6695,6283,6282
11826,6282,6694,6695
11827,6897,7106,7105
11828,7105,6896,6897
11829,6699,7110,7111
11830,7111,6700,6699
11831,6699,6700,6288
11832,6288,6287,6699
11833,6901,6902,7111
11834,7111,7110,6901
11835,6739,7150,7151
11836,7151,6740,6739
11837,6531,6942,6941
11838,6941,6530,6531
11839,6941,6942,7151
11840,7151,7150,6941
11841,6128,6129,6532
11842,6532,6531,6128
11843,6531,6530,6127
11844,6127,6128,6531
11845,6525,6524,6121
11846,6121,6122,6525
11847,6735,6734,7145
11848,7145,7146,6735
11849,6936,6525,6526
11850,6526,6937,6936
11851,6936,6937,7146
11852,7146,7145,6936
11853,6526,6525,6122
11854,6122,6123,6526
11855,6313,6725,6726
11856,6726,6314,6313
11857,6315,6314,6726
11858,6726,6727,6315
11859,6321,6320,6732
11860,6732,6733,6321
11861,6727,6726,7137
11862,7137,7138,6727
11863,6929,7138,7137
11864,7137,6928,6929
11865,6731,7142,7143
11866,7143,6732,6731
11867,6319,6731,6732
11868,6732,6320,6319
11869,6933,6934,7143
11870,7143,7142,6933
11871,6771,7182,7183
11872,7183,6772,6771
11873,6974,6973,6562
11874,6562,6563,6974
11875,6974,7183,7182
11876,7182,6973,6974
11877,6563,6160,6161
11878,6161,6564,6563
11879,6160,6563,6562
11880,6562,6159,6160
11881,6557,6556,6153
11882,6153,6154,6557
11883,6767,6766,7177
11884,7177,7178,6767
11885,6969,6968,6557
11886,6557,6558,6969
11887,6969,7178,7177
11888,7177,6968,6969
11889,6345,6757,6758
11890,6758,6346,6345
11891,6347,6346,6758
11892,6758,6759,6347
11893,6353,6352,6764
11894,6764,6765,6353
11895,6759,6758,7169
11896,7169,7170,6759
11897,6961,7170,7169
11898,7169,6960,6961
11899,6763,7174,7175
11900,7175,6764,6763
11901,6763,6764,6352
11902,6352,6351,6763
11903,6965,6966,7175
11904,7175,7174,6965
11905,7214,7215,6804
11906,6804,6803,7214
11907,6594,6595,7006
11908,7006,7005,6594
11909,7214,7005,7006
11910,7006,7215,7214
11911,6596,6595,6192
11912,6192,6193,6596
11913,6589,6588,6185
11914,6185,6186,6589
11915,6799,6798,7209
11916,7209,7210,6799
11917,6799,6387,6386
11918,6386,6798,6799
11919,7001,7000,6589
11920,6589,6590,7001
11921,7001,7210,7209
11922,7209,7000,7001
11923,6385,6384,6796
11924,6796,6797,6385
11925,6795,6796,6384
11926,6384,6383,6795
11927,7202,6791,6790
11928,6790,7201,7202
11929,6379,6378,6790
11930,6790,6791,6379
11931,6993,7202,7201
11932,7201,6992,6993
11933,6795,7206,7207
11934,7207,6796,6795
11935,6997,6998,7207
11936,7207,7206,6997
11937,7246,7247,6836
11938,6836,6835,7246
11939,6835,6836,6424
11940,6424,6423,6835
11941,7037,6626,6627
11942,6627,7038,7037
11943,7037,7038,7247
11944,7247,7246,7037
11945,7242,6831,6830
11946,6830,7241,7242
11947,6831,6419,6418
11948,6418,6830,6831
11949,7033,7032,6621
11950,6621,6622,7033
11951,7033,7242,7241
11952,7241,7032,7033
11953,6622,6621,6218
11954,6218,6219,6622
11955,6823,6822,7233
11956,7233,7234,6823
11957,6823,6411,6410
11958,6410,6822,6823
11959,7025,7234,7233
11960,7233,7024,7025
11961,6827,7238,7239
11962,7239,6828,6827
11963,6827,6828,6416
11964,6416,6415,6827
11965,7029,7030,7239
11966,7239,7238,7029
11967,6679,6678,7089
11968,7089,7090,6679
11969,6679,6267,6266
11970,6266,6678,6679
11971,6881,6880,6469
11972,6469,6470,6881
11973,6881,7090,7089
11974,7089,6880,6881
11975,6470,6469,6066
11976,6066,6067,6470
11977,6476,6475,6072
11978,6072,6073,6476
11979,6683,7094,7095
11980,7095,6684,6683
11981,6885,6474,6475
11982,6475,6886,6885
11983,6885,6886,7095
11984,7095,7094,6885
11985,6071,6072,6475
11986,6475,6474,6071
11987,6281,6280,6692
11988,6692,6693,6281
11989,6279,6691,6692
11990,6692,6280,6279
11991,6273,6685,6686
11992,6686,6274,6273
11993,7102,7103,6692
11994,6692,6691,7102
11995,6893,6894,7103
11996,7103,7102,6893
11997,6687,6686,7097
11998,7097,7098,6687
11999,6687,6275,6274
12000,6274,6686,6687
12001,6889,7098,7097
12002,7097,6888,6889
12003,6501,6500,6097
12004,6097,6098,6501
12005,6711,6710,7121
12006,7121,7122,6711
12007,6913,6912,6501
12008,6501,6502,6913
12009,6913,7122,7121
12010,7121,6912,6913
12011,6502,6501,6098
12012,6098,6099,6502
12013,6508,6507,6104
12014,6104,6105,6508
12015,7126,7127,6716
12016,6716,6715,7126
12017,6506,6507,6918
12018,6918,6917,6506
12019,7126,6917,6918
12020,6918,7127,7126
12021,6313,6312,6724
12022,6724,6725,6313
12023,6311,6723,6724
12024,6724,6312,6311
12025,6305,6717,6718
12026,6718,6306,6305
12027,6723,7134,7135
12028,7135,6724,6723
12029,6925,6926,7135
12030,7135,7134,6925
12031,6719,6718,7129
12032,7129,7130,6719
12033,6719,6307,6306
12034,6306,6718,6719
12035,6921,7130,7129
12036,7129,6920,6921
12037,6533,6532,6129
12038,6129,6130,6533
12039,6742,7153,7154
12040,7154,6743,6742
12041,6945,6944,6533
12042,6533,6534,6945
12043,6944,6945,7154
12044,7154,7153,6944
12045,6539,6136,6137
12046,6137,6540,6539
12047,6747,7158,7159
12048,7159,6748,6747
12049,6747,6748,6336
12050,6336,6335,6747
12051,6949,6538,6539
12052,6539,6950,6949
12053,6949,6950,7159
12054,7159,7158,6949
12055,6337,6749,6750
12056,6750,6338,6337
12057,6339,6338,6750
12058,6750,6751,6339
12059,6755,7166,7167
12060,7167,6756,6755
12061,6755,6756,6344
12062,6344,6343,6755
12063,6957,6958,7167
12064,7167,7166,6957
12065,7161,7162,6751
12066,6751,6750,7161
12067,6953,7162,7161
12068,7161,6952,6953
12069,6162,6565,6564
12070,6564,6161,6162
12071,6774,7185,7186
12072,7186,6775,6774
12073,6774,6775,6363
12074,6363,6362,6774
12075,6565,6566,6977
12076,6977,6976,6565
12077,6977,7186,7185
12078,7185,6976,6977
12079,6779,7190,7191
12080,7191,6780,6779
12081,6779,6780,6368
12082,6368,6367,6779
12083,6981,6570,6571
12084,6571,6982,6981
12085,6981,6982,7191
12086,7191,7190,6981
12087,6571,6570,6167
12088,6167,6168,6571
12089,6377,6376,6788
12090,6788,6789,6377
12091,6369,6781,6782
12092,6782,6370,6369
12093,7198,7199,6788
12094,6788,6787,7198
12095,6787,6788,6376
12096,6376,6375,6787
12097,7198,6989,6990
12098,6990,7199,7198
12099,7194,6783,6782
12100,6782,7193,7194
12101,6783,6371,6370
12102,6370,6782,6783
12103,6985,7194,7193
12104,7193,6984,6985
12105,6807,6806,7217
12106,7217,7218,6807
12107,6807,6395,6394
12108,6394,6806,6807
12109,7009,7008,6597
12110,6597,6598,7009
12111,7009,7218,7217
12112,7217,7008,7009
12113,6195,6598,6597
12114,6597,6194,6195
12115,6604,6603,6200
12116,6200,6201,6604
12117,6811,7222,7223
12118,7223,6812,6811
12119,7013,6602,6603
12120,6603,7014,7013
12121,7013,7014,7223
12122,7223,7222,7013
12123,6199,6200,6603
12124,6603,6602,6199
12125,6409,6408,6820
12126,6820,6821,6409
12127,6407,6819,6820
12128,6820,6408,6407
12129,6401,6813,6814
12130,6814,6402,6401
12131,6819,7230,7231
12132,7231,6820,6819
12133,7021,7022,7231
12134,7231,7230,7021
12135,6815,6814,7225
12136,7225,7226,6815
12137,6403,6402,6814
12138,6814,6815,6403
12139,7017,7226,7225
12140,7225,7016,7017
12141,6629,6628,6225
12142,6225,6226,6629
12143,6839,6838,7249
12144,7249,7250,6839
12145,7041,7040,6629
12146,6629,6630,7041
12147,7041,7250,7249
12148,7249,7040,7041
12149,6630,6629,6226
12150,6226,6227,6630
12151,6636,6635,6232
12152,6232,6233,6636
12153,6843,7254,7255
12154,7255,6844,6843
12155,7045,6634,6635
12156,6635,7046,7045
12157,7045,7046,7255
12158,7255,7254,7045
12159,6441,6440,6852
12160,6852,6853,6441
12161,6439,6851,6852
12162,6852,6440,6439
12163,6433,6845,6846
12164,6846,6434,6433
12165,6851,7262,7263
12166,7263,6852,6851
12167,7053,7054,7263
12168,7263,7262,7053
12169,6847,6846,7257
12170,7257,7258,6847
12171,6847,6435,6434
12172,6434,6846,6847
12173,7049,7258,7257
12174,7257,7048,7049
12175,3968,3970,3706
12176,3706,3704,3968
12177,3968,3967,4179
12178,4179,4180,3968
12179,4075,3976,4341
12180,4341,4343,4075
12181,4205,4081,4180
12182,4180,4308,4205
12183,3970,3968,4180
12184,4180,4081,3970
12185,3869,3762,3706
12186,3970,3972,3869
12187,3869,3706,3970
12188,4077,4182,4341
12189,4077,4341,3976
12190,3976,3974,4077
12191,3868,3974,3976
12192,3976,3766,3868
12193,4184,4079,4081
12194,4081,4205,4184
12195,3972,3970,4081
12196,4081,4079,3972
12197,3763,3557,3559
12198,3763,3559,3765
12199,3765,3867,3763
12200,4082,4083,3871
12201,3871,3870,4082
12202,3977,4342,4340
12203,4340,3975,3977
12204,4204,4210,4082
12205,4082,4080,4204
12206,3969,4080,4082
12207,4082,3870,3969
12208,3867,3765,3975
12209,3975,3973,3867
12210,4076,3973,3975
12211,4076,3975,4340
12212,4340,4181,4076
12213,4183,4204,4080
12214,4080,4078,4183
12215,3971,4078,4080
12216,4080,3969,3971
12217,5421,6033,6034
12218,6034,5422,5421
12219,5825,5622,5623
12220,5623,5826,5825
12221,6036,6038,5425
12222,5425,5424,6036
12223,5829,5828,5625
12224,5625,5626,5829
12225,5215,5114,5421
12226,5421,5422,5215
12227,5008,5623,5622
12228,5622,4907,5008
12229,4493,4343,4341
12230,4341,4696,4493
12231,4341,4495,4696
12232,4804,4497,4205
12233,4596,4804,4205
12234,4205,4308,4596
12235,5216,5424,5425
12236,5425,5116,5216
12237,4495,4341,4182
12238,4182,4702,4495
12239,4390,4700,4702
12240,4702,4182,4390
12241,4392,4184,4205
12242,4205,4497,4392
12243,4806,4698,4392
12244,4392,4497,4806
12245,4394,4704,4700
12246,4700,4390,4394
12247,4390,4182,4185
12248,4185,4394,4390
12249,5218,5116,5425
12250,5425,5224,5218
12251,5837,5224,5425
12252,5425,6038,5837
12253,5829,5626,5628
12254,5628,5831,5829
12255,7059,7268,7267
12256,7267,7058,7059
12257,6657,6856,7267
12258,7267,7268,6657
12259,6446,6444,6856
12260,6856,6657,6446
12261,7061,7067,7268
12262,7268,7059,7061
12263,6655,6657,7268
12264,7268,7067,6655
12265,5229,5228,5840
12266,5840,5841,5229
12267,5429,5430,5633
12268,5633,5632,5429
12269,5838,5226,5225
12270,5225,6037,5838
12271,5427,5630,5629
12272,5629,5426,5427
12273,5118,5228,5229
12274,5229,5018,5118
12275,4911,4811,5430
12276,5430,5429,4911
12277,4597,4494,4340
12278,4395,4597,4340
12279,4340,4342,4395
12280,4498,4210,4204
12281,4204,4705,4498
12282,4204,4496,4705
12283,5117,5016,5225
12284,5225,5226,5117
12285,4389,4181,4701
12286,4701,4699,4389
12287,4494,4701,4181
12288,4181,4340,4494
12289,4805,4496,4391
12290,4391,4697,4805
12291,4391,4496,4204
12292,4204,4183,4391
12293,4393,4389,4699
12294,4699,4703,4393
12295,4389,4393,4321
12296,4321,4181,4389
12297,5217,5223,5225
12298,5225,5016,5217
12299,5010,4809,5426
12300,5426,5627,5010
12301,5836,6037,5225
12302,5225,5223,5836
12303,5629,5830,5627
12304,5627,5426,5629
12305,6859,6860,7069
12306,7069,7068,6859
12307,6656,7068,7069
12308,7069,6658,6656
12309,6445,6656,6658
12310,6658,6246,6445
12311,7060,6859,7068
12312,7068,7066,7060
12313,6654,7066,7068
12314,7068,6656,6654
12315,6675,6674,7085
12316,7085,7086,6675
12317,6674,6675,6263
12318,6263,6262,6674
12319,6877,6876,6465
12320,6465,6466,6877
12321,6877,7086,7085
12322,7085,6876,6877
12323,6465,6464,6061
12324,6061,6062,6465
12325,6466,6465,6062
12326,6062,6063,6466
12327,6671,7082,7083
12328,7083,6672,6671
12329,6873,6462,6463
12330,6463,6874,6873
12331,6873,6874,7083
12332,7083,7082,6873
12333,6050,6049,5633
12334,5633,5634,6050
12335,6249,6250,5842
12336,5842,5841,6249
12337,5431,5432,5635
12338,5635,5634,5431
12339,5231,5230,5842
12340,5842,5843,5231
12341,6251,5843,5842
12342,5842,6250,6251
12343,5433,5636,5635
12344,5635,5432,5433
12345,5231,5843,5844
12346,5844,5232,5231
12347,5637,6053,6052
12348,6052,5636,5637
12349,6253,5845,5844
12350,5844,6252,6253
12351,6251,6252,5844
12352,5844,5843,6251
12353,5641,6057,6056
12354,6056,5640,5641
12355,6257,5849,5848
12356,5848,6256,6257
12357,5639,5436,5437
12358,5437,5640,5639
12359,5235,5847,5848
12360,5848,5236,5235
12361,6255,6256,5848
12362,5848,5847,6255
12363,6253,6665,6666
12364,6666,6254,6253
12365,6255,6254,6666
12366,6666,6667,6255
12367,5435,5436,5639
12368,5639,5638,5435
12369,5235,5234,5846
12370,5846,5847,5235
12371,5637,5638,6054
12372,6054,6053,5637
12373,6253,6254,5846
12374,5846,5845,6253
12375,6255,5847,5846
12376,5846,6254,6255
12377,6663,7074,7075
12378,7075,6664,6663
12379,6663,6664,6252
12380,6252,6251,6663
12381,6865,6866,7075
12382,7075,7074,6865
12383,6667,6666,7077
12384,7077,7078,6667
12385,6869,7078,7077
12386,7077,6868,6869
12387,5649,6065,6064
12388,6064,5648,5649
12389,5445,5648,5647
12390,5647,5444,5445
12391,6062,6061,5645
12392,5645,5646,6062
12393,5443,5444,5647
12394,5647,5646,5443
12395,6058,6057,5641
12396,5641,5642,6058
12397,5643,5642,5439
12398,5439,5440,5643
12399,5643,5440,5441
12400,5441,5644,5643
12401,5645,6061,6060
12402,6060,5644,5645
12403,6707,6706,7117
12404,7117,7118,6707
12405,6909,6908,6497
12406,6497,6498,6909
12407,6909,7118,7117
12408,7117,6908,6909
12409,6703,7114,7115
12410,7115,6704,6703
12411,6703,6704,6292
12412,6292,6291,6703
12413,6494,6495,6906
12414,6906,6905,6494
12415,6905,6906,7115
12416,7115,7114,6905
12417,6496,6495,6092
12418,6092,6093,6496
12419,6494,6091,6092
12420,6092,6495,6494
12421,5665,5666,6082
12422,6082,6081,5665
12423,6281,6282,5874
12424,5874,5873,6281
12425,5667,5666,5463
12426,5463,5464,5667
12427,5263,5262,5874
12428,5874,5875,5263
12429,6283,5875,5874
12430,5874,6282,6283
12431,6283,6695,6696
12432,6696,6284,6283
12433,5464,5465,5668
12434,5668,5667,5464
12435,5263,5875,5876
12436,5876,5264,5263
12437,5669,6085,6084
12438,6084,5668,5669
12439,6285,5877,5876
12440,5876,6284,6285
12441,6283,6284,5876
12442,5876,5875,6283
12443,5673,6089,6088
12444,6088,5672,5673
12445,6289,5881,5880
12446,5880,6288,6289
12447,5671,5468,5469
12448,5469,5672,5671
12449,5267,5879,5880
12450,5880,5268,5267
12451,6287,6288,5880
12452,5880,5879,6287
12453,6287,6286,6698
12454,6698,6699,6287
12455,5467,5468,5671
12456,5671,5670,5467
12457,5267,5266,5878
12458,5878,5879,5267
12459,5669,5670,6086
12460,6086,6085,5669
12461,6285,6286,5878
12462,5878,5877,6285
12463,6287,5879,5878
12464,5878,6286,6287
12465,6695,7106,7107
12466,7107,6696,6695
12467,6897,6898,7107
12468,7107,7106,6897
12469,6699,6698,7109
12470,7109,7110,6699
12471,6901,7110,7109
12472,7109,6900,6901
12473,5681,6097,6096
12474,6096,5680,5681
12475,5477,5680,5679
12476,5679,5476,5477
12477,6094,6093,5677
12478,5677,5678,6094
12479,5475,5476,5679
12480,5679,5678,5475
12481,6090,6089,5673
12482,5673,5674,6090
12483,5472,5675,5674
12484,5674,5471,5472
12485,5675,5472,5473
12486,5473,5676,5675
12487,5677,6093,6092
12488,6092,5676,5677
12489,6739,6738,7149
12490,7149,7150,6739
12491,6738,6739,6327
12492,6327,6326,6738
12493,6940,6529,6530
12494,6530,6941,6940
12495,6941,7150,7149
12496,7149,6940,6941
12497,6529,6528,6125
12498,6125,6126,6529
12499,6735,7146,7147
12500,7147,6736,6735
12501,6937,6526,6527
12502,6527,6938,6937
12503,6937,6938,7147
12504,7147,7146,6937
12505,6527,6124,6125
12506,6125,6528,6527
12507,6124,6527,6526
12508,6526,6123,6124
12509,5697,5698,6114
12510,6114,6113,5697
12511,6313,6314,5906
12512,5906,5905,6313
12513,5699,5698,5495
12514,5495,5496,5699
12515,5295,5294,5906
12516,5906,5907,5295
12517,6315,5907,5906
12518,5906,6314,6315
12519,6317,6316,6728
12520,6728,6729,6317
12521,6315,6727,6728
12522,6728,6316,6315
12523,5496,5497,5700
12524,5700,5699,5496
12525,5295,5907,5908
12526,5908,5296,5295
12527,5701,6117,6116
12528,6116,5700,5701
12529,6317,5909,5908
12530,5908,6316,6317
12531,6315,6316,5908
12532,5908,5907,6315
12533,5705,6121,6120
12534,6120,5704,5705
12535,6321,5913,5912
12536,5912,6320,6321
12537,5703,5500,5501
12538,5501,5704,5703
12539,5911,5912,5300
12540,5300,5299,5911
12541,6319,6320,5912
12542,5912,5911,6319
12543,6317,6729,6730
12544,6730,6318,6317
12545,5500,5703,5702
12546,5702,5499,5500
12547,5299,5298,5910
12548,5910,5911,5299
12549,5701,5702,6118
12550,6118,6117,5701
12551,6317,6318,5910
12552,5910,5909,6317
12553,6319,5911,5910
12554,5910,6318,6319
12555,6727,7138,7139
12556,7139,6728,6727
12557,6929,6930,7139
12558,7139,7138,6929
12559,6731,6730,7141
12560,7141,7142,6731
12561,6731,6319,6318
12562,6318,6730,6731
12563,6933,7142,7141
12564,7141,6932,6933
12565,6128,5712,5713
12566,5713,6129,6128
12567,5509,5712,5711
12568,5711,5508,5509
12569,6126,6125,5709
12570,5709,5710,6126
12571,5710,5507,5508
12572,5508,5711,5710
12573,6122,6121,5705
12574,5705,5706,6122
12575,5707,5706,5503
12576,5503,5504,5707
12577,5505,5708,5707
12578,5707,5504,5505
12579,5708,5709,6125
12580,6125,6124,5708
12581,6770,7181,7182
12582,7182,6771,6770
12583,6561,6562,6973
12584,6973,6972,6561
12585,6973,7182,7181
12586,7181,6972,6973
12587,6767,7178,7179
12588,7179,6768,6767
12589,6356,6355,6767
12590,6767,6768,6356
12591,6970,6969,6558
12592,6558,6559,6970
12593,6970,7179,7178
12594,7178,6969,6970
12595,5729,5730,6146
12596,6146,6145,5729
12597,5937,6345,6346
12598,6346,5938,5937
12599,5527,5528,5731
12600,5731,5730,5527
12601,5327,5326,5938
12602,5938,5939,5327
12603,6347,5939,5938
12604,5938,6346,6347
12605,6349,6348,6760
12606,6760,6761,6349
12607,6347,6759,6760
12608,6760,6348,6347
12609,5732,5731,5528
12610,5528,5529,5732
12611,5328,5327,5939
12612,5939,5940,5328
12613,5733,6149,6148
12614,6148,5732,5733
12615,5940,6348,6349
12616,6349,5941,5940
12617,6348,5940,5939
12618,5939,6347,6348
12619,5737,6153,6152
12620,6152,5736,5737
12621,5944,6352,6353
12622,6353,5945,5944
12623,5736,5735,5532
12624,5532,5533,5736
12625,5332,5331,5943
12626,5943,5944,5332
12627,6352,5944,5943
12628,5943,6351,6352
12629,6351,6350,6762
12630,6762,6763,6351
12631,5531,5532,5735
12632,5735,5734,5531
12633,5331,5330,5942
12634,5942,5943,5331
12635,5733,5734,6150
12636,6150,6149,5733
12637,6349,6350,5942
12638,5942,5941,6349
12639,6351,5943,5942
12640,5942,6350,6351
12641,6760,6759,7170
12642,7170,7171,6760
12643,6962,7171,7170
12644,7170,6961,6962
12645,7173,7174,6763
12646,6763,6762,7173
12647,7173,6964,6965
12648,6965,7174,7173
12649,5745,6161,6160
12650,6160,5744,5745
12651,5541,5744,5743
12652,5743,5540,5541
12653,6158,6157,5741
12654,5741,5742,6158
12655,5539,5540,5743
12656,5743,5742,5539
12657,6154,6153,5737
12658,5737,5738,6154
12659,5535,5536,5739
12660,5739,5738,5535
12661,5740,5739,5536
12662,5536,5537,5740
12663,5741,6157,6156
12664,6156,5740,5741
12665,6803,6802,7213
12666,7213,7214,6803
12667,6802,6803,6391
12668,6391,6390,6802
12669,7005,7004,6593
12670,6593,6594,7005
12671,7005,7214,7213
12672,7213,7004,7005
12673,6593,6592,6189
12674,6189,6190,6593
12675,6191,6594,6593
12676,6593,6190,6191
12677,6799,7210,7211
12678,7211,6800,6799
12679,6590,6591,7002
12680,7002,7001,6590
12681,7001,7002,7211
12682,7211,7210,7001
12683,5761,5762,6178
12684,6178,6177,5761
12685,6377,6378,5970
12686,5970,5969,6377
12687,5763,5762,5559
12688,5559,5560,5763
12689,5359,5358,5970
12690,5970,5971,5359
12691,6379,5971,5970
12692,5970,6378,6379
12693,5560,5561,5764
12694,5764,5763,5560
12695,5971,5972,5360
12696,5360,5359,5971
12697,5765,6181,6180
12698,6180,5764,5765
12699,6381,5973,5972
12700,5972,6380,6381
12701,5971,6379,6380
12702,6380,5972,5971
12703,5769,6185,6184
12704,6184,5768,5769
12705,6385,5977,5976
12706,5976,6384,6385
12707,5564,5565,5768
12708,5768,5767,5564
12709,5363,5975,5976
12710,5976,5364,5363
12711,6383,6384,5976
12712,5976,5975,6383
12713,6381,6793,6794
12714,6794,6382,6381
12715,6383,6382,6794
12716,6794,6795,6383
12717,5767,5766,5563
12718,5563,5564,5767
12719,5975,5363,5362
12720,5362,5974,5975
12721,5765,5766,6182
12722,6182,6181,5765
12723,6381,6382,5974
12724,5974,5973,6381
12725,6383,5975,5974
12726,5974,6382,6383
12727,6791,7202,7203
12728,7203,6792,6791
12729,6791,6792,6380
12730,6380,6379,6791
12731,6993,6994,7203
12732,7203,7202,6993
12733,7206,6795,6794
12734,6794,7205,7206
12735,6997,7206,7205
12736,7205,6996,6997
12737,5777,6193,6192
12738,6192,5776,5777
12739,5573,5776,5775
12740,5775,5572,5573
12741,6190,6189,5773
12742,5773,5774,6190
12743,5571,5572,5775
12744,5775,5774,5571
12745,6186,6185,5769
12746,5769,5770,6186
12747,5771,5770,5567
12748,5567,5568,5771
12749,5771,5568,5569
12750,5569,5772,5771
12751,5773,6189,6188
12752,6188,5772,5773
12753,6835,6834,7245
12754,7245,7246,6835
12755,7037,7036,6625
12756,6625,6626,7037
12757,7037,7246,7245
12758,7245,7036,7037
12759,6831,7242,7243
12760,7243,6832,6831
12761,6831,6832,6420
12762,6420,6419,6831
12763,7033,6622,6623
12764,6623,7034,7033
12765,7033,7034,7243
12766,7243,7242,7033
12767,6624,6623,6220
12768,6220,6221,6624
12769,6623,6622,6219
12770,6219,6220,6623
12771,5793,5794,6210
12772,6210,6209,5793
12773,6409,6410,6002
12774,6002,6001,6409
12775,5591,5592,5795
12776,5795,5794,5591
12777,5391,5390,6002
12778,6002,6003,5391
12779,6411,6003,6002
12780,6002,6410,6411
12781,6411,6823,6824
12782,6824,6412,6411
12783,5593,5796,5795
12784,5795,5592,5593
12785,5391,6003,6004
12786,6004,5392,5391
12787,5797,6213,6212
12788,6212,5796,5797
12789,6413,6005,6004
12790,6004,6412,6413
12791,6411,6412,6004
12792,6004,6003,6411
12793,5801,6217,6216
12794,6216,5800,5801
12795,6417,6009,6008
12796,6008,6416,6417
12797,5799,5596,5597
12798,5597,5800,5799
12799,6007,6008,5396
12800,5396,5395,6007
12801,6007,6415,6416
12802,6416,6008,6007
12803,6415,6414,6826
12804,6826,6827,6415
12805,5595,5596,5799
12806,5799,5798,5595
12807,5395,5394,6006
12808,6006,6007,5395
12809,5797,5798,6214
12810,6214,6213,5797
12811,6413,6414,6006
12812,6006,6005,6413
12813,6415,6007,6006
12814,6006,6414,6415
12815,7234,7235,6824
12816,6824,6823,7234
12817,7025,7026,7235
12818,7235,7234,7025
12819,6827,6826,7237
12820,7237,7238,6827
12821,7238,7237,7028
12822,7028,7029,7238
12823,5809,6225,6224
12824,6224,5808,5809
12825,5605,5808,5807
12826,5807,5604,5605
12827,6222,6221,5805
12828,5805,5806,6222
12829,5603,5604,5807
12830,5807,5806,5603
12831,6218,6217,5801
12832,5801,5802,6218
12833,5803,5802,5599
12834,5599,5600,5803
12835,5600,5601,5804
12836,5804,5803,5600
12837,5805,6221,6220
12838,6220,5804,5805
12839,6679,7090,7091
12840,7091,6680,6679
12841,6679,6680,6268
12842,6268,6267,6679
12843,6881,6470,6471
12844,6471,6882,6881
12845,6881,6882,7091
12846,7091,7090,6881
12847,7094,6683,6682
12848,6682,7093,7094
12849,6885,6884,6473
12850,6473,6474,6885
12851,6885,7094,7093
12852,7093,6884,6885
12853,6473,6472,6069
12854,6069,6070,6473
12855,6474,6473,6070
12856,6070,6071,6474
12857,6080,5664,5665
12858,5665,6081,6080
12859,6281,5873,5872
12860,5872,6280,6281
12861,5461,5664,5663
12862,5663,5460,5461
12863,5259,5871,5872
12864,5872,5260,5259
12865,6279,6280,5872
12866,5872,5871,6279
12867,6277,6689,6690
12868,6690,6278,6277
12869,6691,6279,6278
12870,6278,6690,6691
12871,5459,5460,5663
12872,5663,5662,5459
12873,5259,5258,5870
12874,5870,5871,5259
12875,5661,5662,6078
12876,6078,6077,5661
12877,6277,6278,5870
12878,5870,5869,6277
12879,6279,5871,5870
12880,5870,6278,6279
12881,5657,5658,6074
12882,6074,6073,5657
12883,6273,6274,5866
12884,5866,5865,6273
12885,5659,5658,5455
12886,5455,5456,5659
12887,5255,5254,5866
12888,5866,5867,5255
12889,6275,5867,5866
12890,5866,6274,6275
12891,5456,5457,5660
12892,5660,5659,5456
12893,5867,5868,5256
12894,5256,5255,5867
12895,5661,6077,6076
12896,6076,5660,5661
12897,6277,5869,5868
12898,5868,6276,6277
12899,5867,6275,6276
12900,6276,5868,5867
12901,6066,6065,5649
12902,5649,5650,6066
12903,5447,5448,5651
12904,5651,5650,5447
12905,5651,5448,5449
12906,5449,5652,5651
12907,5653,6069,6068
12908,6068,5652,5653
12909,6072,5656,5657
12910,5657,6073,6072
12911,5655,5452,5453
12912,5453,5656,5655
12913,5452,5655,5654
12914,5654,5451,5452
12915,6070,6069,5653
12916,5653,5654,6070
12917,6691,6690,7101
12918,7101,7102,6691
12919,6893,7102,7101
12920,7101,6892,6893
12921,6687,7098,7099
12922,7099,6688,6687
12923,6687,6688,6276
12924,6276,6275,6687
12925,6889,6890,7099
12926,7099,7098,6889
12927,6711,7122,7123
12928,7123,6712,6711
12929,6711,6712,6300
12930,6300,6299,6711
12931,6913,6502,6503
12932,6503,6914,6913
12933,6913,6914,7123
12934,7123,7122,6913
12935,6504,6503,6100
12936,6100,6101,6504
12937,6503,6502,6099
12938,6099,6100,6503
12939,6715,6714,7125
12940,7125,7126,6715
12941,6714,6715,6303
12942,6303,6302,6714
12943,6917,6916,6505
12944,6505,6506,6917
12945,6917,7126,7125
12946,7125,6916,6917
12947,6112,5696,5697
12948,5697,6113,6112
12949,6313,5905,5904
12950,5904,6312,6313
12951,5493,5696,5695
12952,5695,5492,5493
12953,5291,5903,5904
12954,5904,5292,5291
12955,6311,6312,5904
12956,5904,5903,6311
12957,6309,6721,6722
12958,6722,6310,6309
12959,6311,6310,6722
12960,6722,6723,6311
12961,5491,5492,5695
12962,5695,5694,5491
12963,5291,5290,5902
12964,5902,5903,5291
12965,5693,5694,6110
12966,6110,6109,5693
12967,6309,6310,5902
12968,5902,5901,6309
12969,6311,5903,5902
12970,5902,6310,6311
12971,5689,5690,6106
12972,6106,6105,5689
12973,6305,6306,5898
12974,5898,5897,6305
12975,5691,5690,5487
12976,5487,5488,5691
12977,5287,5286,5898
12978,5898,5899,5287
12979,5899,5898,6306
12980,6306,6307,5899
12981,6307,6719,6720
12982,6720,6308,6307
12983,5691,5488,5489
12984,5489,5692,5691
12985,5287,5899,5900
12986,5900,5288,5287
12987,5693,6109,6108
12988,6108,5692,5693
12989,6309,5901,5900
12990,5900,6308,6309
12991,6307,6308,5900
12992,5900,5899,6307
12993,6098,6097,5681
12994,5681,5682,6098
12995,5479,5480,5683
12996,5683,5682,5479
12997,5683,5480,5481
12998,5481,5684,5683
12999,5685,6101,6100
13000,6100,5684,5685
13001,6104,5688,5689
13002,5689,6105,6104
13003,5687,5484,5485
13004,5485,5688,5687
13005,5483,5484,5687
13006,5687,5686,5483
13007,6102,6101,5685
13008,5685,5686,6102
13009,6723,6722,7133
13010,7133,7134,6723
13011,6925,7134,7133
13012,7133,6924,6925
13013,7130,7131,6720
13014,6720,6719,7130
13015,7130,6921,6922
13016,6922,7131,7130
13017,6743,7154,7155
13018,7155,6744,6743
13019,6945,6534,6535
13020,6535,6946,6945
13021,6945,6946,7155
13022,7155,7154,6945
13023,6535,6132,6133
13024,6133,6536,6535
13025,6132,6535,6534
13026,6534,6131,6132
13027,6747,6746,7157
13028,7157,7158,6747
13029,6948,6537,6538
13030,6538,6949,6948
13031,6949,7158,7157
13032,7157,6948,6949
13033,6144,5728,5729
13034,5729,6145,6144
13035,6345,5937,5936
13036,5936,6344,6345
13037,5525,5728,5727
13038,5727,5524,5525
13039,5323,5935,5936
13040,5936,5324,5323
13041,6343,6344,5936
13042,5936,5935,6343
13043,5523,5524,5727
13044,5727,5726,5523
13045,5323,5322,5934
13046,5934,5935,5323
13047,5726,6142,6141
13048,6141,5725,5726
13049,6341,6342,5934
13050,5934,5933,6341
13051,6343,5935,5934
13052,5934,6342,6343
13053,5721,5722,6138
13054,6138,6137,5721
13055,6337,6338,5930
13056,5930,5929,6337
13057,5722,5519,5520
13058,5520,5723,5722
13059,5319,5318,5930
13060,5930,5931,5319
13061,6339,5931,5930
13062,5930,6338,6339
13063,6752,6753,6341
13064,6341,6340,6752
13065,6340,6339,6751
13066,6751,6752,6340
13067,5723,5520,5521
13068,5521,5724,5723
13069,5932,5320,5319
13070,5319,5931,5932
13071,5725,6141,6140
13072,6140,5724,5725
13073,6341,5933,5932
13074,5932,6340,6341
13075,6339,6340,5932
13076,5932,5931,6339
13077,5714,6130,6129
13078,6129,5713,5714
13079,5511,5512,5715
13080,5715,5714,5511
13081,5716,5715,5512
13082,5512,5513,5716
13083,5717,6133,6132
13084,6132,5716,5717
13085,5720,5721,6137
13086,6137,6136,5720
13087,5517,5720,5719
13088,5719,5516,5517
13089,5515,5516,5719
13090,5719,5718,5515
13091,6134,6133,5717
13092,5717,5718,6134
13093,6755,6754,7165
13094,7165,7166,6755
13095,6754,6755,6343
13096,6343,6342,6754
13097,6957,7166,7165
13098,7165,6956,6957
13099,6751,7162,7163
13100,7163,6752,6751
13101,6953,6954,7163
13102,7163,7162,6953
13103,6776,6775,7186
13104,7186,7187,6776
13105,6775,6776,6364
13106,6364,6363,6775
13107,6978,6977,6566
13108,6566,6567,6978
13109,6978,7187,7186
13110,7186,6977,6978
13111,6567,6164,6165
13112,6165,6568,6567
13113,6164,6567,6566
13114,6566,6163,6164
13115,7189,7190,6779
13116,6779,6778,7189
13117,6366,6778,6779
13118,6779,6367,6366
13119,6569,6570,6981
13120,6981,6980,6569
13121,7189,6980,6981
13122,6981,7190,7189
13123,6166,6569,6568
13124,6568,6165,6166
13125,6569,6166,6167
13126,6167,6570,6569
13127,6176,5760,5761
13128,5761,6177,6176
13129,6377,5969,5968
13130,5968,6376,6377
13131,5557,5760,5759
13132,5759,5556,5557
13133,5967,5968,5356
13134,5356,5355,5967
13135,5967,6375,6376
13136,6376,5968,5967
13137,6375,6374,6786
13138,6786,6787,6375
13139,5555,5556,5759
13140,5759,5758,5555
13141,5355,5354,5966
13142,5966,5967,5355
13143,5757,5758,6174
13144,6174,6173,5757
13145,6373,6374,5966
13146,5966,5965,6373
13147,6375,5967,5966
13148,5966,6374,6375
13149,5753,5754,6170
13150,6170,6169,5753
13151,6370,5962,5961
13152,5961,6369,6370
13153,5755,5754,5551
13154,5551,5552,5755
13155,5962,5963,5351
13156,5351,5350,5962
13157,5962,6370,6371
13158,6371,5963,5962
13159,6371,6783,6784
13160,6784,6372,6371
13161,5552,5553,5756
13162,5756,5755,5552
13163,5351,5963,5964
13164,5964,5352,5351
13165,5757,6173,6172
13166,6172,5756,5757
13167,6373,5965,5964
13168,5964,6372,6373
13169,6371,6372,5964
13170,5964,5963,6371
13171,6162,6161,5745
13172,5745,5746,6162
13173,5746,5543,5544
13174,5544,5747,5746
13175,5747,5544,5545
13176,5545,5748,5747
13177,5749,6165,6164
13178,6164,5748,5749
13179,6168,5752,5753
13180,5753,6169,6168
13181,5751,5548,5549
13182,5549,5752,5751
13183,5547,5548,5751
13184,5751,5750,5547
13185,6166,6165,5749
13186,5749,5750,6166
13187,6787,6786,7197
13188,7197,7198,6787
13189,6989,7198,7197
13190,7197,6988,6989
13191,6783,7194,7195
13192,7195,6784,6783
13193,6985,6986,7195
13194,7195,7194,6985
13195,7218,7219,6808
13196,6808,6807,7218
13197,6395,6807,6808
13198,6808,6396,6395
13199,6598,6599,7010
13200,7010,7009,6598
13201,7218,7009,7010
13202,7010,7219,7218
13203,6811,6810,7221
13204,7221,7222,6811
13205,6602,7013,7012
13206,7012,6601,6602
13207,7222,7221,7012
13208,7012,7013,7222
13209,6601,6600,6197
13210,6197,6198,6601
13211,6602,6601,6198
13212,6198,6199,6602
13213,6208,5792,5793
13214,5793,6209,6208
13215,6409,6001,6000
13216,6000,6408,6409
13217,5588,5589,5792
13218,5792,5791,5588
13219,5999,6000,5388
13220,5388,5387,5999
13221,5999,6407,6408
13222,6408,6000,5999
13223,6405,6817,6818
13224,6818,6406,6405
13225,6407,6406,6818
13226,6818,6819,6407
13227,5791,5790,5587
13228,5587,5588,5791
13229,5387,5386,5998
13230,5998,5999,5387
13231,5789,5790,6206
13232,6206,6205,5789
13233,6405,6406,5998
13234,5998,5997,6405
13235,6407,5999,5998
13236,5998,6406,6407
13237,5785,5786,6202
13238,6202,6201,5785
13239,6401,6402,5994
13240,5994,5993,6401
13241,5787,5786,5583
13242,5583,5584,5787
13243,5383,5382,5994
13244,5994,5995,5383
13245,6403,5995,5994
13246,5994,6402,6403
13247,5584,5585,5788
13248,5788,5787,5584
13249,5383,5995,5996
13250,5996,5384,5383
13251,5789,6205,6204
13252,6204,5788,5789
13253,6405,5997,5996
13254,5996,6404,6405
13255,5995,6403,6404
13256,6404,5996,5995
13257,6194,6193,5777
13258,5777,5778,6194
13259,5575,5576,5779
13260,5779,5778,5575
13261,5779,5576,5577
13262,5577,5780,5779
13263,5781,6197,6196
13264,6196,5780,5781
13265,6200,5784,5785
13266,5785,6201,6200
13267,5783,5580,5581
13268,5581,5784,5783
13269,5579,5580,5783
13270,5783,5782,5579
13271,6198,6197,5781
13272,5781,5782,6198
13273,6819,6818,7229
13274,7229,7230,6819
13275,7230,7229,7020
13276,7020,7021,7230
13277,6815,7226,7227
13278,7227,6816,6815
13279,6815,6816,6404
13280,6404,6403,6815
13281,7017,7018,7227
13282,7227,7226,7017
13283,7250,7251,6840
13284,6840,6839,7250
13285,6839,6840,6428
13286,6428,6427,6839
13287,7041,6630,6631
13288,6631,7042,7041
13289,7250,7041,7042
13290,7042,7251,7250
13291,6632,6631,6228
13292,6228,6229,6632
13293,6227,6228,6631
13294,6631,6630,6227
13295,7254,6843,6842
13296,6842,7253,7254
13297,6431,6430,6842
13298,6842,6843,6431
13299,7045,7044,6633
13300,6633,6634,7045
13301,7254,7253,7044
13302,7044,7045,7254
13303,6240,5824,5825
13304,5825,6241,6240
13305,6441,6033,6032
13306,6032,6440,6441
13307,5620,5621,5824
13308,5824,5823,5620
13309,6031,6032,5420
13310,5420,5419,6031
13311,6031,6439,6440
13312,6440,6032,6031
13313,6437,6849,6850
13314,6850,6438,6437
13315,6439,6438,6850
13316,6850,6851,6439
13317,5823,5822,5619
13318,5619,5620,5823
13319,5419,5418,6030
13320,6030,6031,5419
13321,5821,5822,6238
13322,6238,6237,5821
13323,6437,6438,6030
13324,6030,6029,6437
13325,6439,6031,6030
13326,6030,6438,6439
13327,5817,5818,6234
13328,6234,6233,5817
13329,6433,6434,6026
13330,6026,6025,6433
13331,5819,5818,5615
13332,5615,5616,5819
13333,6027,5415,5414
13334,5414,6026,6027
13335,6027,6026,6434
13336,6434,6435,6027
13337,6435,6847,6848
13338,6848,6436,6435
13339,5616,5617,5820
13340,5820,5819,5616
13341,5415,6027,6028
13342,6028,5416,5415
13343,5821,6237,6236
13344,6236,5820,5821
13345,6437,6029,6028
13346,6028,6436,6437
13347,6435,6436,6028
13348,6028,6027,6435
13349,6226,6225,5809
13350,5809,5810,6226
13351,5607,5608,5811
13352,5811,5810,5607
13353,5811,5608,5609
13354,5609,5812,5811
13355,5813,6229,6228
13356,6228,5812,5813
13357,6232,5816,5817
13358,5817,6233,6232
13359,5815,5612,5613
13360,5613,5816,5815
13361,5612,5815,5814
13362,5814,5611,5612
13363,6230,6229,5813
13364,5813,5814,6230
13365,6851,6850,7261
13366,7261,7262,6851
13367,7262,7261,7052
13368,7052,7053,7262
13369,6847,7258,7259
13370,7259,6848,6847
13371,7049,7050,7259
13372,7259,7258,7049
13373,6441,6853,6854
13374,6854,6442,6441
13375,6443,6442,6854
13376,6854,6855,6443
13377,6855,6854,7265
13378,7265,7266,6855
13379,7057,7266,7265
13380,7265,7056,7057
13381,6249,6248,6660
13382,6660,6661,6249
13383,6247,6659,6660
13384,6660,6248,6247
13385,6659,7070,7071
13386,7071,6660,6659
13387,6861,6862,7071
13388,7071,7070,6861
13389,6242,6241,5825
13390,5825,5826,6242
13391,6441,6442,6034
13392,6034,6033,6441
13393,5623,5624,5827
13394,5827,5826,5623
13395,5423,5422,6034
13396,6034,6035,5423
13397,6443,6035,6034
13398,6034,6442,6443
13399,5625,5828,5827
13400,5827,5624,5625
13401,6035,6036,5424
13402,5424,5423,6035
13403,6045,6244,5828
13404,5828,5829,6045
13405,6444,6446,6038
13406,6038,6036,6444
13407,6035,6443,6444
13408,6444,6036,6035
13409,6651,6448,6446
13410,6651,6446,6657
13411,6657,6655,6651
13412,6042,6045,5829
13413,5829,5831,6042
13414,6446,6448,5837
13415,5837,6038,6446
13416,5831,5628,5220
13417,5220,5833,5831
13418,5834,5222,5224
13419,5224,5837,5834
13420,6245,5834,5837
13421,5837,6448,6245
13422,6855,7266,7267
13423,7267,6856,6855
13424,6855,6856,6444
13425,6444,6443,6855
13426,7266,7057,7058
13427,7058,7267,7266
13428,7067,7065,6653
13429,6653,6655,7067
13430,6653,6858,6651
13431,6651,6655,6653
13432,7063,6858,6653
13433,6653,7065,7063
13434,7063,7065,7067
13435,7067,7061,7063
13436,5633,6049,6048
13437,6048,5632,5633
13438,6249,5841,5840
13439,5840,6248,6249
13440,5429,5632,5631
13441,5631,5428,5429
13442,5227,5839,5840
13443,5840,5228,5227
13444,6247,6248,5840
13445,5840,5839,6247
13446,5427,5428,5631
13447,5631,5630,5427
13448,5227,5226,5838
13449,5838,5839,5227
13450,6044,5629,5630
13451,5630,6046,6044
13452,6246,5838,6037
13453,6037,6445,6246
13454,6247,5839,5838
13455,5838,6246,6247
13456,6650,6654,6656
13457,6650,6656,6445
13458,6445,6447,6650
13459,6041,5830,5629
13460,5629,6044,6041
13461,6445,6037,5836
13462,5836,6447,6445
13463,5830,5832,5219
13464,5219,5627,5830
13465,5223,5221,5835
13466,5835,5836,5223
13467,6043,6447,5836
13468,5836,5835,6043
13469,6659,6658,7069
13470,7069,7070,6659
13471,6659,6247,6246
13472,6246,6658,6659
13473,6861,7070,7069
13474,7069,6860,6861
13475,7066,6654,6652
13476,6652,7064,7066
13477,6652,6654,6650
13478,6650,6857,6652
13479,7062,7064,6652
13480,6652,6857,7062
13481,7062,7060,7066
13482,7066,7064,7062
13483,4915,5437,5436
13484,5436,4814,4915
13485,4602,4915,4814
13486,4814,4399,4602
13487,4710,5122,5022
13488,5022,4503,4710
13489,5122,5021,5235
13490,5235,5236,5122
13491,4710,4502,5021
13492,5021,5122,4710
13493,4602,4400,4815
13494,4815,4915,4602
13495,4601,4399,4814
13496,4814,4914,4601
13497,4709,4501,5020
13498,5020,5121,4709
13499,4914,4814,5436
13500,5436,5435,4914
13501,5121,5234,5235
13502,5235,5021,5121
13503,4601,4914,4813
13504,4813,4398,4601
13505,4709,5121,5021
13506,5021,4502,4709
13507,4599,4397,4812
13508,4812,4912,4599
13509,4707,4499,5018
13510,5018,5119,4707
13511,4912,4812,5432
13512,5432,5431,4912
13513,5119,5230,5231
13514,5231,5019,5119
13515,4599,4912,4811
13516,4811,4396,4599
13517,4707,5119,5019
13518,5019,4500,4707
13519,4600,4913,4812
13520,4812,4397,4600
13521,4708,5120,5020
13522,5020,4501,4708
13523,4913,5433,5432
13524,5432,4812,4913
13525,5120,5019,5231
13526,5231,5232,5120
13527,4600,4398,4813
13528,4813,4913,4600
13529,4708,4500,5019
13530,5019,5120,4708
13531,4916,4816,5440
13532,5440,5439,4916
13533,4603,4401,4816
13534,4816,4916,4603
13535,4603,4916,4815
13536,4815,4400,4603
13537,4917,5441,5440
13538,5440,4816,4917
13539,4604,4917,4816
13540,4816,4401,4604
13541,4604,4402,4817
13542,4817,4917,4604
13543,4919,5445,5444
13544,5444,4818,4919
13545,4606,4919,4818
13546,4818,4403,4606
13547,4606,4404,4819
13548,4819,4919,4606
13549,4918,4818,5444
13550,5444,5443,4918
13551,4605,4403,4818
13552,4818,4918,4605
13553,4605,4918,4817
13554,4817,4402,4605
13555,4931,5469,5468
13556,5468,4830,4931
13557,4618,4931,4830
13558,4830,4415,4618
13559,4726,5138,5038
13560,5038,4519,4726
13561,5138,5037,5267
13562,5267,5268,5138
13563,4726,4518,5037
13564,5037,5138,4726
13565,4618,4416,4831
13566,4831,4931,4618
13567,4930,4830,5468
13568,5468,5467,4930
13569,4617,4415,4830
13570,4830,4930,4617
13571,4725,4517,5036
13572,5036,5137,4725
13573,5137,5266,5267
13574,5267,5037,5137
13575,4617,4930,4829
13576,4829,4414,4617
13577,4725,5137,5037
13578,5037,4518,4725
13579,4928,4828,5464
13580,5464,5463,4928
13581,4615,4413,4828
13582,4828,4928,4615
13583,4723,4515,5034
13584,5034,5135,4723
13585,5135,5262,5263
13586,5263,5035,5135
13587,4723,5135,5035
13588,5035,4516,4723
13589,4615,4928,4827
13590,4827,4412,4615
13591,4929,5465,5464
13592,5464,4828,4929
13593,4616,4929,4828
13594,4828,4413,4616
13595,4724,5136,5036
13596,5036,4517,4724
13597,5136,5035,5263
13598,5263,5264,5136
13599,4616,4414,4829
13600,4829,4929,4616
13601,4724,4516,5035
13602,5035,5136,4724
13603,4932,4832,5472
13604,5472,5471,4932
13605,4619,4417,4832
13606,4832,4932,4619
13607,4619,4932,4831
13608,4831,4416,4619
13609,4933,5473,5472
13610,5472,4832,4933
13611,4620,4933,4832
13612,4832,4417,4620
13613,4620,4418,4833
13614,4833,4933,4620
13615,4935,5477,5476
13616,5476,4834,4935
13617,4622,4935,4834
13618,4834,4419,4622
13619,4622,4420,4835
13620,4835,4935,4622
13621,4934,4834,5476
13622,5476,5475,4934
13623,4621,4419,4834
13624,4834,4934,4621
13625,4621,4934,4833
13626,4833,4418,4621
13627,4947,5501,5500
13628,5500,4846,4947
13629,4634,4947,4846
13630,4846,4431,4634
13631,4742,5154,5054
13632,5054,4535,4742
13633,5154,5053,5299
13634,5299,5300,5154
13635,4742,4534,5053
13636,5053,5154,4742
13637,4634,4432,4847
13638,4847,4947,4634
13639,4633,4431,4846
13640,4846,4946,4633
13641,4741,4533,5052
13642,5052,5153,4741
13643,4946,4846,5500
13644,5500,5499,4946
13645,5153,5298,5299
13646,5299,5053,5153
13647,4633,4946,4845
13648,4845,4430,4633
13649,4741,5153,5053
13650,5053,4534,4741
13651,4631,4429,4844
13652,4844,4944,4631
13653,4739,4531,5050
13654,5050,5151,4739
13655,4944,4844,5496
13656,5496,5495,4944
13657,5151,5294,5295
13658,5295,5051,5151
13659,4739,5151,5051
13660,5051,4532,4739
13661,4631,4944,4843
13662,4843,4428,4631
13663,4632,4945,4844
13664,4844,4429,4632
13665,4740,5152,5052
13666,5052,4533,4740
13667,4945,5497,5496
13668,5496,4844,4945
13669,5152,5051,5295
13670,5295,5296,5152
13671,4632,4430,4845
13672,4845,4945,4632
13673,4740,4532,5051
13674,5051,5152,4740
13675,4948,4848,5504
13676,5504,5503,4948
13677,4635,4433,4848
13678,4848,4948,4635
13679,4635,4948,4847
13680,4847,4432,4635
13681,4949,5505,5504
13682,5504,4848,4949
13683,4636,4949,4848
13684,4848,4433,4636
13685,4636,4434,4849
13686,4849,4949,4636
13687,4951,5509,5508
13688,5508,4850,4951
13689,4638,4951,4850
13690,4850,4435,4638
13691,4638,4436,4851
13692,4851,4951,4638
13693,4950,4850,5508
13694,5508,5507,4950
13695,4637,4435,4850
13696,4850,4950,4637
13697,4637,4950,4849
13698,4849,4434,4637
13699,4963,5533,5532
13700,5532,4862,4963
13701,4650,4963,4862
13702,4862,4447,4650
13703,4758,5170,5070
13704,5070,4551,4758
13705,5170,5069,5331
13706,5331,5332,5170
13707,4758,4550,5069
13708,5069,5170,4758
13709,4650,4448,4863
13710,4863,4963,4650
13711,4962,4862,5532
13712,5532,5531,4962
13713,4649,4447,4862
13714,4862,4962,4649
13715,4757,4549,5068
13716,5068,5169,4757
13717,5169,5330,5331
13718,5331,5069,5169
13719,4649,4962,4861
13720,4861,4446,4649
13721,4757,5169,5069
13722,5069,4550,4757
13723,4960,4860,5528
13724,5528,5527,4960
13725,4647,4445,4860
13726,4860,4960,4647
13727,4755,4547,5066
13728,5066,5167,4755
13729,5167,5326,5327
13730,5327,5067,5167
13731,4755,5167,5067
13732,5067,4548,4755
13733,4647,4960,4859
13734,4859,4444,4647
13735,4961,5529,5528
13736,5528,4860,4961
13737,4648,4961,4860
13738,4860,4445,4648
13739,4756,5168,5068
13740,5068,4549,4756
13741,5168,5067,5327
13742,5327,5328,5168
13743,4648,4446,4861
13744,4861,4961,4648
13745,4756,4548,5067
13746,5067,5168,4756
13747,4964,4864,5536
13748,5536,5535,4964
13749,4651,4449,4864
13750,4864,4964,4651
13751,4651,4964,4863
13752,4863,4448,4651
13753,4965,5537,5536
13754,5536,4864,4965
13755,4652,4965,4864
13756,4864,4449,4652
13757,4652,4450,4865
13758,4865,4965,4652
13759,4967,5541,5540
13760,5540,4866,4967
13761,4654,4967,4866
13762,4866,4451,4654
13763,4654,4452,4867
13764,4867,4967,4654
13765,4966,4866,5540
13766,5540,5539,4966
13767,4653,4451,4866
13768,4866,4966,4653
13769,4653,4966,4865
13770,4865,4450,4653
13771,4979,5565,5564
13772,5564,4878,4979
13773,4666,4979,4878
13774,4878,4463,4666
13775,4774,5186,5086
13776,5086,4567,4774
13777,5186,5085,5363
13778,5363,5364,5186
13779,4774,4566,5085
13780,5085,5186,4774
13781,4666,4464,4879
13782,4879,4979,4666
13783,4665,4463,4878
13784,4878,4978,4665
13785,4773,4565,5084
13786,5084,5185,4773
13787,4978,4878,5564
13788,5564,5563,4978
13789,5185,5362,5363
13790,5363,5085,5185
13791,4665,4978,4877
13792,4877,4462,4665
13793,4773,5185,5085
13794,5085,4566,4773
13795,4663,4461,4876
13796,4876,4976,4663
13797,4771,4563,5082
13798,5082,5183,4771
13799,4976,4876,5560
13800,5560,5559,4976
13801,5183,5358,5359
13802,5359,5083,5183
13803,4771,5183,5083
13804,5083,4564,4771
13805,4663,4976,4875
13806,4875,4460,4663
13807,4664,4977,4876
13808,4876,4461,4664
13809,4772,5184,5084
13810,5084,4565,4772
13811,4977,5561,5560
13812,5560,4876,4977
13813,5184,5083,5359
13814,5359,5360,5184
13815,4664,4462,4877
13816,4877,4977,4664
13817,4772,4564,5083
13818,5083,5184,4772
13819,4980,4880,5568
13820,5568,5567,4980
13821,4667,4465,4880
13822,4880,4980,4667
13823,4667,4980,4879
13824,4879,4464,4667
13825,4981,5569,5568
13826,5568,4880,4981
13827,4668,4981,4880
13828,4880,4465,4668
13829,4668,4466,4881
13830,4881,4981,4668
13831,4983,5573,5572
13832,5572,4882,4983
13833,4670,4983,4882
13834,4882,4467,4670
13835,4670,4468,4883
13836,4883,4983,4670
13837,4982,4882,5572
13838,5572,5571,4982
13839,4669,4467,4882
13840,4882,4982,4669
13841,4669,4982,4881
13842,4881,4466,4669
13843,4995,5597,5596
13844,5596,4894,4995
13845,4682,4995,4894
13846,4894,4479,4682
13847,4790,5202,5102
13848,5102,4583,4790
13849,5202,5101,5395
13850,5395,5396,5202
13851,4790,4582,5101
13852,5101,5202,4790
13853,4682,4480,4895
13854,4895,4995,4682
13855,4994,4894,5596
13856,5596,5595,4994
13857,4681,4479,4894
13858,4894,4994,4681
13859,4789,4581,5100
13860,5100,5201,4789
13861,5201,5394,5395
13862,5395,5101,5201
13863,4681,4994,4893
13864,4893,4478,4681
13865,4789,5201,5101
13866,5101,4582,4789
13867,4992,4892,5592
13868,5592,5591,4992
13869,4679,4477,4892
13870,4892,4992,4679
13871,4787,4579,5098
13872,5098,5199,4787
13873,5199,5390,5391
13874,5391,5099,5199
13875,4787,5199,5099
13876,5099,4580,4787
13877,4679,4992,4891
13878,4891,4476,4679
13879,4993,5593,5592
13880,5592,4892,4993
13881,4680,4993,4892
13882,4892,4477,4680
13883,4788,5200,5100
13884,5100,4581,4788
13885,5200,5099,5391
13886,5391,5392,5200
13887,4680,4478,4893
13888,4893,4993,4680
13889,4788,4580,5099
13890,5099,5200,4788
13891,4996,4896,5600
13892,5600,5599,4996
13893,4683,4481,4896
13894,4896,4996,4683
13895,4683,4996,4895
13896,4895,4480,4683
13897,4997,5601,5600
13898,5600,4896,4997
13899,4684,4997,4896
13900,4896,4481,4684
13901,4684,4482,4897
13902,4897,4997,4684
13903,4999,5605,5604
13904,5604,4898,4999
13905,4686,4999,4898
13906,4898,4483,4686
13907,4686,4484,4899
13908,4899,4999,4686
13909,4998,4898,5604
13910,5604,5603,4998
13911,4685,4483,4898
13912,4898,4998,4685
13913,4685,4998,4897
13914,4897,4482,4685
13915,4924,4824,5456
13916,5456,5455,4924
13917,4611,4409,4824
13918,4824,4924,4611
13919,4719,4511,5030
13920,5030,5131,4719
13921,5131,5254,5255
13922,5255,5031,5131
13923,4611,4924,4823
13924,4823,4408,4611
13925,4719,5131,5031
13926,5031,4512,4719
13927,4612,4925,4824
13928,4824,4409,4612
13929,4720,5132,5032
13930,5032,4513,4720
13931,4925,5457,5456
13932,5456,4824,4925
13933,5132,5031,5255
13934,5255,5256,5132
13935,4612,4410,4825
13936,4825,4925,4612
13937,4720,4512,5031
13938,5031,5132,4720
13939,4614,4927,4826
13940,4826,4411,4614
13941,4722,5134,5034
13942,5034,4515,4722
13943,4927,5461,5460
13944,5460,4826,4927
13945,5134,5033,5259
13946,5259,5260,5134
13947,4614,4412,4827
13948,4827,4927,4614
13949,4722,4514,5033
13950,5033,5134,4722
13951,4613,4411,4826
13952,4826,4926,4613
13953,4721,4513,5032
13954,5032,5133,4721
13955,4926,4826,5460
13956,5460,5459,4926
13957,5133,5258,5259
13958,5259,5033,5133
13959,4613,4926,4825
13960,4825,4410,4613
13961,4721,5133,5033
13962,5033,4514,4721
13963,4923,5453,5452
13964,5452,4822,4923
13965,4610,4923,4822
13966,4822,4407,4610
13967,4610,4408,4823
13968,4823,4923,4610
13969,4922,4822,5452
13970,5452,5451,4922
13971,4609,4407,4822
13972,4822,4922,4609
13973,4609,4922,4821
13974,4821,4406,4609
13975,4920,4820,5448
13976,5448,5447,4920
13977,4607,4405,4820
13978,4820,4920,4607
13979,4607,4920,4819
13980,4819,4404,4607
13981,4921,5449,5448
13982,5448,4820,4921
13983,4608,4921,4820
13984,4820,4405,4608
13985,4608,4406,4821
13986,4821,4921,4608
13987,4940,4840,5488
13988,5488,5487,4940
13989,4627,4425,4840
13990,4840,4940,4627
13991,4735,4527,5046
13992,5046,5147,4735
13993,5147,5286,5287
13994,5287,5047,5147
13995,4627,4940,4839
13996,4839,4424,4627
13997,4735,5147,5047
13998,5047,4528,4735
13999,4941,5489,5488
14000,5488,4840,4941
14001,4628,4941,4840
14002,4840,4425,4628
14003,4736,5148,5048
14004,5048,4529,4736
14005,5148,5047,5287
14006,5287,5288,5148
14007,4628,4426,4841
14008,4841,4941,4628
14009,4736,4528,5047
14010,5047,5148,4736
14011,4943,5493,5492
14012,5492,4842,4943
14013,4630,4943,4842
14014,4842,4427,4630
14015,4738,5150,5050
14016,5050,4531,4738
14017,5150,5049,5291
14018,5291,5292,5150
14019,4630,4428,4843
14020,4843,4943,4630
14021,4738,4530,5049
14022,5049,5150,4738
14023,4942,4842,5492
14024,5492,5491,4942
14025,4629,4427,4842
14026,4842,4942,4629
14027,4737,4529,5048
14028,5048,5149,4737
14029,5149,5290,5291
14030,5291,5049,5149
14031,4629,4942,4841
14032,4841,4426,4629
14033,4737,5149,5049
14034,5049,4530,4737
14035,4939,5485,5484
14036,5484,4838,4939
14037,4626,4939,4838
14038,4838,4423,4626
14039,4626,4424,4839
14040,4839,4939,4626
14041,4938,4838,5484
14042,5484,5483,4938
14043,4625,4423,4838
14044,4838,4938,4625
14045,4625,4938,4837
14046,4837,4422,4625
14047,4936,4836,5480
14048,5480,5479,4936
14049,4623,4421,4836
14050,4836,4936,4623
14051,4623,4936,4835
14052,4835,4420,4623
14053,4937,5481,5480
14054,5480,4836,4937
14055,4624,4937,4836
14056,4836,4421,4624
14057,4624,4422,4837
14058,4837,4937,4624
14059,4956,4856,5520
14060,5520,5519,4956
14061,4643,4441,4856
14062,4856,4956,4643
14063,4751,4543,5062
14064,5062,5163,4751
14065,5163,5318,5319
14066,5319,5063,5163
14067,4643,4956,4855
14068,4855,4440,4643
14069,4751,5163,5063
14070,5063,4544,4751
14071,4644,4957,4856
14072,4856,4441,4644
14073,4752,5164,5064
14074,5064,4545,4752
14075,4957,5521,5520
14076,5520,4856,4957
14077,5164,5063,5319
14078,5319,5320,5164
14079,4644,4442,4857
14080,4857,4957,4644
14081,4752,4544,5063
14082,5063,5164,4752
14083,4646,4959,4858
14084,4858,4443,4646
14085,4754,5166,5066
14086,5066,4547,4754
14087,4959,5525,5524
14088,5524,4858,4959
14089,5166,5065,5323
14090,5323,5324,5166
14091,4646,4444,4859
14092,4859,4959,4646
14093,4754,4546,5065
14094,5065,5166,4754
14095,4645,4443,4858
14096,4858,4958,4645
14097,4753,4545,5064
14098,5064,5165,4753
14099,4958,4858,5524
14100,5524,5523,4958
14101,5165,5322,5323
14102,5323,5065,5165
14103,4645,4958,4857
14104,4857,4442,4645
14105,4753,5165,5065
14106,5065,4546,4753
14107,4955,5517,5516
14108,5516,4854,4955
14109,4642,4955,4854
14110,4854,4439,4642
14111,4642,4440,4855
14112,4855,4955,4642
14113,4954,4854,5516
14114,5516,5515,4954
14115,4641,4439,4854
14116,4854,4954,4641
14117,4641,4954,4853
14118,4853,4438,4641
14119,4952,4852,5512
14120,5512,5511,4952
14121,4639,4437,4852
14122,4852,4952,4639
14123,4639,4952,4851
14124,4851,4436,4639
14125,4953,5513,5512
14126,5512,4852,4953
14127,4640,4953,4852
14128,4852,4437,4640
14129,4640,4438,4853
14130,4853,4953,4640
14131,4972,4872,5552
14132,5552,5551,4972
14133,4659,4457,4872
14134,4872,4972,4659
14135,4767,4559,5078
14136,5078,5179,4767
14137,5179,5350,5351
14138,5351,5079,5179
14139,4659,4972,4871
14140,4871,4456,4659
14141,4767,5179,5079
14142,5079,4560,4767
14143,4973,5553,5552
14144,5552,4872,4973
14145,4660,4973,4872
14146,4872,4457,4660
14147,4768,5180,5080
14148,5080,4561,4768
14149,5180,5079,5351
14150,5351,5352,5180
14151,4660,4458,4873
14152,4873,4973,4660
14153,4768,4560,5079
14154,5079,5180,4768
14155,4975,5557,5556
14156,5556,4874,4975
14157,4662,4975,4874
14158,4874,4459,4662
14159,4770,5182,5082
14160,5082,4563,4770
14161,5182,5081,5355
14162,5355,5356,5182
14163,4662,4460,4875
14164,4875,4975,4662
14165,4770,4562,5081
14166,5081,5182,4770
14167,4974,4874,5556
14168,5556,5555,4974
14169,4661,4459,4874
14170,4874,4974,4661
14171,4769,4561,5080
14172,5080,5181,4769
14173,5181,5354,5355
14174,5355,5081,5181
14175,4661,4974,4873
14176,4873,4458,4661
14177,4769,5181,5081
14178,5081,4562,4769
14179,4971,5549,5548
14180,5548,4870,4971
14181,4658,4971,4870
14182,4870,4455,4658
14183,4658,4456,4871
14184,4871,4971,4658
14185,4970,4870,5548
14186,5548,5547,4970
14187,4657,4455,4870
14188,4870,4970,4657
14189,4657,4970,4869
14190,4869,4454,4657
14191,4968,4868,5544
14192,5544,5543,4968
14193,4655,4453,4868
14194,4868,4968,4655
14195,4655,4968,4867
14196,4867,4452,4655
14197,4969,5545,5544
14198,5544,4868,4969
14199,4656,4969,4868
14200,4868,4453,4656
14201,4656,4454,4869
14202,4869,4969,4656
14203,4988,4888,5584
14204,5584,5583,4988
14205,4675,4473,4888
14206,4888,4988,4675
14207,4783,4575,5094
14208,5094,5195,4783
14209,5195,5382,5383
14210,5383,5095,5195
14211,4675,4988,4887
14212,4887,4472,4675
14213,4783,5195,5095
14214,5095,4576,4783
14215,4676,4989,4888
14216,4888,4473,4676
14217,4784,5196,5096
14218,5096,4577,4784
14219,4989,5585,5584
14220,5584,4888,4989
14221,5196,5095,5383
14222,5383,5384,5196
14223,4676,4474,4889
14224,4889,4989,4676
14225,4784,4576,5095
14226,5095,5196,4784
14227,4678,4991,4890
14228,4890,4475,4678
14229,4786,5198,5098
14230,5098,4579,4786
14231,4991,5589,5588
14232,5588,4890,4991
14233,5198,5097,5387
14234,5387,5388,5198
14235,4678,4476,4891
14236,4891,4991,4678
14237,4786,4578,5097
14238,5097,5198,4786
14239,4677,4475,4890
14240,4890,4990,4677
14241,4785,4577,5096
14242,5096,5197,4785
14243,4990,4890,5588
14244,5588,5587,4990
14245,5197,5386,5387
14246,5387,5097,5197
14247,4677,4990,4889
14248,4889,4474,4677
14249,4785,5197,5097
14250,5097,4578,4785
14251,4987,5581,5580
14252,5580,4886,4987
14253,4674,4987,4886
14254,4886,4471,4674
14255,4674,4472,4887
14256,4887,4987,4674
14257,4986,4886,5580
14258,5580,5579,4986
14259,4673,4471,4886
14260,4886,4986,4673
14261,4673,4986,4885
14262,4885,4470,4673
14263,4984,4884,5576
14264,5576,5575,4984
14265,4671,4469,4884
14266,4884,4984,4671
14267,4671,4984,4883
14268,4883,4468,4671
14269,4985,5577,5576
14270,5576,4884,4985
14271,4672,4985,4884
14272,4884,4469,4672
14273,4672,4470,4885
14274,4885,4985,4672
14275,5004,4904,5616
14276,5616,5615,5004
14277,4691,4489,4904
14278,4904,5004,4691
14279,4799,4591,5110
14280,5110,5211,4799
14281,5211,5414,5415
14282,5415,5111,5211
14283,4691,5004,4903
14284,4903,4488,4691
14285,4799,5211,5111
14286,5111,4592,4799
14287,5005,5617,5616
14288,5616,4904,5005
14289,4692,5005,4904
14290,4904,4489,4692
14291,4800,5212,5112
14292,5112,4593,4800
14293,5212,5111,5415
14294,5415,5416,5212
14295,4692,4490,4905
14296,4905,5005,4692
14297,4800,4592,5111
14298,5111,5212,4800
14299,5007,5621,5620
14300,5620,4906,5007
14301,4694,5007,4906
14302,4906,4491,4694
14303,4802,5214,5114
14304,5114,4595,4802
14305,5214,5113,5419
14306,5419,5420,5214
14307,4694,4492,4907
14308,4907,5007,4694
14309,4802,4594,5113
14310,5113,5214,4802
14311,5006,4906,5620
14312,5620,5619,5006
14313,4693,4491,4906
14314,4906,5006,4693
14315,4801,4593,5112
14316,5112,5213,4801
14317,5213,5418,5419
14318,5419,5113,5213
14319,4693,5006,4905
14320,4905,4490,4693
14321,4801,5213,5113
14322,5113,4594,4801
14323,5003,5613,5612
14324,5612,4902,5003
14325,4690,5003,4902
14326,4902,4487,4690
14327,4690,4488,4903
14328,4903,5003,4690
14329,5002,4902,5612
14330,5612,5611,5002
14331,4689,4487,4902
14332,4902,5002,4689
14333,4689,5002,4901
14334,4901,4486,4689
14335,5000,4900,5608
14336,5608,5607,5000
14337,4687,4485,4900
14338,4900,5000,4687
14339,4687,5000,4899
14340,4899,4484,4687
14341,5001,5609,5608
14342,5608,4900,5001
14343,4688,5001,4900
14344,4900,4485,4688
14345,4688,4486,4901
14346,4901,5001,4688
14347,4803,4595,5114
14348,5114,5215,4803
14349,4695,5008,4907
14350,4907,4492,4695
14351,5008,4908,5624
14352,5624,5623,5008
14353,4695,4493,4908
14354,4908,5008,4695
14355,5215,5422,5423
14356,5423,5115,5215
14357,4803,5215,5115
14358,5115,4596,4803
14359,4696,5009,4908
14360,4908,4493,4696
14361,5009,5625,5624
14362,5624,4908,5009
14363,5216,5115,5423
14364,5423,5424,5216
14365,4804,5216,5116
14366,5116,4497,4804
14367,4696,4495,4909
14368,4909,5009,4696
14369,4804,4596,5115
14370,5115,5216,4804
14371,4700,4808,5011
14372,5011,4702,4700
14373,4806,4497,5116
14374,5116,5218,4806
14375,5013,5220,5628
14376,5013,5628,5011
14377,5011,4808,5013
14378,5222,5015,5218
14379,5218,5224,5222
14380,4702,5011,4909
14381,4909,4495,4702
14382,4806,5218,5015
14383,5015,4698,4806
14384,4706,5118,5018
14385,5018,4499,4706
14386,4598,4396,4811
14387,4811,4911,4598
14388,4598,4911,4810
14389,4810,4395,4598
14390,4911,5429,5428
14391,5428,4810,4911
14392,5118,5017,5227
14393,5227,5228,5118
14394,4706,4498,5017
14395,5017,5118,4706
14396,4910,4810,5428
14397,5428,5427,4910
14398,4597,4395,4810
14399,4810,4910,4597
14400,5117,5226,5227
14401,5227,5017,5117
14402,4705,4496,5016
14403,5016,5117,4705
14404,4597,4910,4809
14405,4809,4494,4597
14406,4705,5117,5017
14407,5017,4498,4705
14408,5010,5627,5012
14409,5012,4807,5010
14410,5627,5219,5012
14411,4699,4701,5010
14412,5010,4807,4699
14413,4805,5217,5016
14414,5016,4496,4805
14415,5221,5223,5217
14416,5217,5014,5221
14417,4701,4494,4809
14418,4809,5010,4701
14419,4805,4697,5014
14420,5014,5217,4805
14421,209,207,516
14422,516,514,209
14423,514,516,728
14424,728,625,514
14425,3044,2933,2828
14426,2828,2930,3044
14427,3347,3242,3044
14428,3044,3139,3347
14429,3242,3141,2933
14430,2933,3044,3242
14431,2930,2827,3139
14432,3139,3044,2930
14433,210,515,517
14434,517,208,210
14435,515,626,729
14436,729,517,515
14437,2931,2934,3055
14438,3055,2932,2931
14439,3348,3140,3055
14440,3055,3245,3348
14441,3245,3055,2934
14442,2934,3142,3245
14443,2932,3055,3140
14444,3140,2826,2932
14445,2299,2195,1985
14446,1985,2091,2299
14447,2307,2305,2195
14448,2195,2299,2307
14449,2298,2090,1986
14450,1986,2196,2298
14451,2306,2514,2515
14452,2515,2304,2306
14453,2515,2308,2304
14454,2304,2308,2298
14455,2298,2196,2304
14456,3868,3764,3762
14457,3762,3869,3868
14458,3974,3868,3869
14459,3869,4077,3974
14460,3867,3866,3761
14461,3761,3763,3867
14462,3973,4076,3866
14463,3866,3867,3973
14464,4185,4184,4392
14465,4392,4394,4185
14466,4704,4394,4392
14467,4392,4698,4704
14468,4393,4391,4183
14469,4183,4321,4393
14470,4703,4697,4391
14471,4391,4393,4703
14472,5222,5834,5833
14473,5833,5220,5222
14474,6040,5833,5834
14475,5834,6245,6040
14476,5219,5832,5835
14477,5835,5221,5219
14478,6039,6043,5835
14479,5835,5832,6039
14480,4808,4700,4704
14481,4704,5013,4808
14482,5220,5013,5015
14483,5015,5222,5220
14484,5013,4704,4698
14485,4698,5015,5013
14486,4807,5012,4703
14487,4703,4699,4807
14488,5219,5221,5014
14489,5014,5012,5219
14490,5012,5014,4697
14491,4697,4703,5012
14492,1463,1470,1466
14493,1466,1359,1463
14494,1677,1468,1466
14495,1466,1884,1677
14496,1681,1883,1884
14497,1470,1681,1884
14498,1884,1466,1470
14499,1464,1358,1465
14500,1465,1471,1464
14501,2826,2515,2514
14502,2514,2932,2826
14503,2829,2931,2932
14504,2620,2829,2932
14505,2932,2514,2620
14506,1256,1363,1252
14507,1252,1241,1256
14508,1255,1242,1251
14509,1251,1362,1255
14510,2512,2620,2514
14511,2514,2306,2512
14512,1987,2092,1676
14513,1676,1880,1987
14514,1676,1679,1880
14515,2094,2301,2092
14516,2092,1987,2094
14517,1885,1676,2092
14518,2092,2091,1885
14519,2301,2303,2299
14520,2091,2092,2301
14521,2301,2299,2091
14522,1881,1678,1677
14523,1988,1881,1677
14524,1677,2093,1988
14525,2095,1988,2093
14526,2093,2300,2095
14527,1674,1675,1465
14528,1465,1469,1674
14529,1674,1469,1467
14530,1467,1676,1674
14531,1471,1465,1675
14532,1675,1680,1471
*MATERIAL, NAME=CFRP
*ELASTIC
7e+10,0.3
*DENSITY
1600
*SHELL SECTION, ELSET=ALL_SHELL, MATERIAL=CFRP
0.0025
*NSET, NSET=ALLNODES, GENERATE
1,7268,1
*NSET, NSET=MOUNT
1,2,3,4,5,6,7,8,9,10,11,12,13,14,15,16
17,18,19,20,21,22,23,24,25,26,27,28,29,30,31,32
33,34,35,36,37,38,39,40,41,42,43,44,45,46,47,48
49,50,51,52,53,54,55,56,57,58,59,60,61,62,63,64
65,66,67,68,69,70,71,72,73,74,75,76,77,78,79,80
81,82,83,84,85,86,87,88,89,90,91,92,93,94,95,96
97,98,99,100,101,102,103,104,105,106,107,108,109,110,111,112
113,114,115,116,117,118,119,120,121,122,123,124,125,126,127,128
129,130,131,132,133,134,135,136,137,138,139,140,141,142,143,144
145,146,147,148,149,150,151,152,153,154,155,156,157,158,159,160
161,162,163,164,165,166,167,168,169,170,171,172,173,174,175,176
177,178,179,180,181,182,183,184,185,186,187,188,189,190,191,192
193,194,195,196,197,198,199,200,201,202,203,204,205,206
*STEP
*STATIC
*NODE PRINT, NSET=ALLNODES
U
*EL PRINT, ELSET=ALL_SHELL
S
*NODE FILE, NSET=ALLNODES
U
*EL FILE, ELSET=ALL_SHELL
S
*DLOAD
1,P,1071.93506
2,P,1071.93506
3,P,1050.9231
4,P,1050.9231
5,P,687.85144
6,P,687.85144
7,P,1158.36768
8,P,1158.36768
9,P,679.114502
10,P,679.114502
11,P,1127.43726
12,P,1127.43726
13,P,2040.75928
14,P,2040.75928
15,P,1935.43396
16,P,1935.43396
17,P,2053.20679
18,P,2053.20679
19,P,1359.41309
20,P,1359.41309
21,P,1961.33545
22,P,1961.33545
23,P,1092.7627
24,P,1092.7627
25,P,2037.7821
26,P,2037.7821
27,P,581.483887
28,P,581.483887
29,P,2132.86621
30,P,2132.86621
31,P,1143.50916
32,P,1143.50916
33,P,572.727966
34,P,572.727966
35,P,900.291016
36,P,900.291016
37,P,1074.50122
38,P,1074.50122
39,P,1074.50122
40,P,956.277466
41,P,956.277466
42,P,956.277466
43,P,941.975769
44,P,941.975769
45,P,1903.14819
46,P,1903.14819
47,P,1159.58203
48,P,1159.58203
49,P,2079.68408
50,P,2079.68408
51,P,1584.09595
52,P,1584.09595
53,P,988.279846
54,P,988.279846
55,P,974.763184
56,P,974.763184
57,P,1101.9165
58,P,1101.9165
59,P,936.834839
60,P,936.834839
61,P,1929.13989
62,P,1929.13989
63,P,1138.92737
64,P,1138.92737
65,P,2122.96313
66,P,2122.96313
67,P,1404.94885
68,P,1404.94885
69,P,1650.5824
70,P,1650.5824
71,P,1858.98511
72,P,1858.98511
73,P,622.166809
74,P,622.166809
75,P,2631.18188
76,P,2631.18188
77,P,2631.18188
78,P,2631.18188
79,P,-73.5995636
80,P,-73.5995636
81,P,2109.90552
82,P,2109.90552
83,P,1435.70911
84,P,1435.70911
85,P,1055.24927
86,P,1055.24927
87,P,958.157654
88,P,958.157654
89,P,742.140686
90,P,742.140686
91,P,631.613831
92,P,631.613831
93,P,931.963135
94,P,931.963135
95,P,444.209991
96,P,444.209991
97,P,444.209991
98,P,833.505127
99,P,833.505127
100,P,1309.6969
101,P,1309.6969
102,P,946.49707
103,P,946.49707
104,P,868.649963
105,P,868.649963
106,P,941.394409
107,P,941.394409
108,P,908.122864
109,P,908.122864
110,P,511.671112
111,P,511.671112
112,P,456.59021
113,P,456.59021
114,P,430.501434
115,P,430.501434
116,P,480.569427
117,P,480.569427
118,P,536.762024
119,P,536.762024
120,P,1032.09387
121,P,1032.09387
122,P,-1970.53137
123,P,-1970.53137
124,P,-2063.20605
125,P,-2063.20605
126,P,936.978455
127,P,936.978455
128,P,558.367065
129,P,558.367065
130,P,-2128.53198
131,P,-2128.53198
132,P,-2173.23535
133,P,-2173.23535
134,P,556.725952
135,P,556.725952
136,P,520.721497
137,P,520.721497
138,P,-2181.32642
139,P,-2181.32642
140,P,-2212.63428
141,P,-2212.63428
142,P,519.687805
143,P,519.687805
144,P,490.404205
145,P,490.404205
146,P,-2184.84277
147,P,-2184.84277
148,P,-2157.34399
149,P,-2157.34399
150,P,499.638
151,P,499.638
152,P,530.585266
153,P,530.585266
154,P,-2160.99854
155,P,-2160.99854
156,P,-2132.30835
157,P,-2132.30835
158,P,532.29541
159,P,532.29541
160,P,565.026672
161,P,565.026672
162,P,-2142.82373
163,P,-2142.82373
164,P,-2027.45642
165,P,-2027.45642
166,P,562.456665
167,P,562.456665
168,P,938.018127
169,P,938.018127
170,P,-1771.17737
171,P,-1771.17737
172,P,1017.39917
173,P,1017.39917
174,P,524.308838
175,P,524.308838
176,P,463.605835
177,P,463.605835
178,P,420.880768
179,P,420.880768
180,P,472.883453
181,P,472.883453
182,P,528.096741
183,P,528.096741
184,P,907.140503
185,P,907.140503
186,P,-1792.76001
187,P,-1792.76001
188,P,1003.97083
189,P,1003.97083
190,P,-2102.93262
191,P,-2102.93262
192,P,-2108.82788
193,P,-2108.82788
194,P,716.405029
195,P,716.405029
196,P,711.184814
197,P,711.184814
198,P,-2155.70239
199,P,-2155.70239
200,P,-2130.3501
201,P,-2130.3501
202,P,546.9599
203,P,546.9599
204,P,541.400085
205,P,541.400085
206,P,-2183.0979
207,P,-2183.0979
208,P,-2167.03833
209,P,-2167.03833
210,P,496.339722
211,P,496.339722
212,P,499.739075
213,P,499.739075
214,P,-2142.99268
215,P,-2142.99268
216,P,-2155.5437
217,P,-2155.5437
218,P,497.370667
219,P,497.370667
220,P,502.013092
221,P,502.013092
222,P,-2189.67407
223,P,-2189.67407
224,P,-2180.84595
225,P,-2180.84595
226,P,559.55188
227,P,559.55188
228,P,560.865906
229,P,560.865906
230,P,-2112.81348
231,P,-2112.81348
232,P,-2117.5293
233,P,-2117.5293
234,P,682.291687
235,P,682.291687
236,P,656.14032
237,P,656.14032
238,P,1077.47131
239,P,1077.47131
240,P,757.131897
241,P,757.131897
242,P,497.735809
243,P,497.735809
244,P,428.860992
245,P,428.860992
246,P,432.787262
247,P,432.787262
248,P,522.460327
249,P,522.460327
250,P,709.323608
251,P,709.323608
252,P,-2123.60425
253,P,-2123.60425
254,P,1010.90009
255,P,1010.90009
256,P,889.009216
257,P,889.009216
258,P,-2110.71436
259,P,-2110.71436
260,P,765.595764
261,P,765.595764
262,P,788.485107
263,P,788.485107
264,P,359.588013
265,P,359.588013
266,P,324.671234
267,P,324.671234
268,P,819.440674
269,P,819.440674
270,P,294.951355
271,P,294.951355
272,P,440.778198
273,P,440.778198
274,P,12.1231871
275,P,12.1231871
276,P,623.717651
277,P,623.717651
278,P,-99.8780441
279,P,-99.8780441
280,P,511.127136
281,P,511.127136
282,P,-66.0183334
283,P,-66.0183334
284,P,-2146.48047
285,P,-2146.48047
286,P,765.420532
287,P,765.420532
288,P,750.833313
289,P,750.833313
290,P,-2204.28687
291,P,-2204.28687
292,P,795.011963
293,P,795.011963
294,P,779.697449
295,P,779.697449
296,P,-100.011841
297,P,-100.011841
298,P,-45.5593224
299,P,-45.5593224
300,P,545.529114
301,P,545.529114
302,P,-135.646774
303,P,-135.646774
304,P,-74.9816208
305,P,-74.9816208
306,P,-154.086029
307,P,-154.086029
308,P,524.641663
309,P,524.641663
310,P,-181.923767
311,P,-181.923767
312,P,-163.898422
313,P,-163.898422
314,P,-158.534409
315,P,-158.534409
316,P,-2179.12451
317,P,-2179.12451
318,P,796.512146
319,P,796.512146
320,P,794.165405
321,P,794.165405
322,P,-2162.46533
323,P,-2162.46533
324,P,769.624634
325,P,769.624634
326,P,781.925903
327,P,781.925903
328,P,-168.494415
329,P,-168.494415
330,P,-196.027939
331,P,-196.027939
332,P,512.358215
333,P,512.358215
334,P,-191.246704
335,P,-191.246704
336,P,-168.699463
337,P,-168.699463
338,P,-180.878174
339,P,-180.878174
340,P,492.224945
341,P,492.224945
342,P,-204.79892
343,P,-204.79892
344,P,-213.313339
345,P,-213.313339
346,P,-171.793228
347,P,-171.793228
348,P,-2171.70532
349,P,-2171.70532
350,P,783.124634
351,P,783.124634
352,P,782.842468
353,P,782.842468
354,P,-2107.07593
355,P,-2107.07593
356,P,802.320251
357,P,802.320251
358,P,782.674255
359,P,782.674255
360,P,-183.367203
361,P,-183.367203
362,P,-219.369247
363,P,-219.369247
364,P,495.412964
365,P,495.412964
366,P,-210.966736
367,P,-210.966736
368,P,-183.792801
369,P,-183.792801
370,P,-174.203369
371,P,-174.203369
372,P,515.642456
373,P,515.642456
374,P,-192.434128
375,P,-192.434128
376,P,-200.031815
377,P,-200.031815
378,P,-166.509674
379,P,-166.509674
380,P,-2140.81177
381,P,-2140.81177
382,P,810.802246
383,P,810.802246
384,P,821.700684
385,P,821.700684
386,P,-2156.54272
387,P,-2156.54272
388,P,788.795593
389,P,788.795593
390,P,779.06604
391,P,779.06604
392,P,-146.094254
393,P,-146.094254
394,P,-190.064758
395,P,-190.064758
396,P,546.151855
397,P,546.151855
398,P,-159.140076
399,P,-159.140076
400,P,-163.017151
401,P,-163.017151
402,P,-102.464554
403,P,-102.464554
404,P,561.311707
405,P,561.311707
406,P,-45.2166328
407,P,-45.2166328
408,P,-153.71608
409,P,-153.71608
410,P,-74.6617126
411,P,-74.6617126
412,P,-2151.49023
413,P,-2151.49023
414,P,772.842407
415,P,772.842407
416,P,799.959595
417,P,799.959595
418,P,-2089.63281
419,P,-2089.63281
420,P,1010.28284
421,P,1010.28284
422,P,874.626892
423,P,874.626892
424,P,8.70850849
425,P,8.70850849
426,P,-99.6055374
427,P,-99.6055374
428,P,629.040894
429,P,629.040894
430,P,516.533508
431,P,516.533508
432,P,-68.378479
433,P,-68.378479
434,P,325.356232
435,P,325.356232
436,P,786.667358
437,P,786.667358
438,P,252.809616
439,P,252.809616
440,P,401.530548
441,P,401.530548
442,P,232.054825
443,P,232.054825
444,P,732.696594
445,P,732.696594
446,P,487.088654
447,P,487.088654
448,P,432.671875
449,P,432.671875
450,P,433.07962
451,P,433.07962
452,P,517.226929
453,P,517.226929
454,P,707.418457
455,P,707.418457
456,P,-2076.57495
457,P,-2076.57495
458,P,451.300201
459,P,451.300201
460,P,757.744751
461,P,757.744751
462,P,847.396912
463,P,847.396912
464,P,856.984497
465,P,856.984497
466,P,871.195984
467,P,871.195984
468,P,799.746399
469,P,799.746399
470,P,-2074.50513
471,P,-2074.50513
472,P,842.699219
473,P,842.699219
474,P,811.493103
475,P,811.493103
476,P,870.706909
477,P,870.706909
478,P,869.426147
479,P,869.426147
480,P,888.501221
481,P,888.501221
482,P,863.525024
483,P,863.525024
484,P,324.284393
485,P,324.284393
486,P,266.501404
487,P,266.501404
488,P,374.963135
489,P,374.963135
490,P,783.468323
491,P,783.468323
492,P,510.880951
493,P,510.880951
494,P,492.365448
495,P,492.365448
496,P,338.881012
497,P,338.881012
498,P,337.647949
499,P,337.647949
500,P,349.320953
501,P,349.320953
502,P,37.2025566
503,P,37.2025566
504,P,714.309021
505,P,714.309021
506,P,484.23468
507,P,484.23468
508,P,543.189026
509,P,543.189026
510,P,298.712891
511,P,298.712891
512,P,-14.1117659
513,P,-14.1117659
514,P,-80.0572739
515,P,-80.0572739
516,P,33.139801
517,P,33.139801
518,P,348.872772
519,P,348.872772
520,P,-2160.45532
521,P,-2160.45532
522,P,886.740479
523,P,886.740479
524,P,881.854187
525,P,881.854187
526,P,794.74469
527,P,794.74469
528,P,777.288574
529,P,777.288574
530,P,892.124878
531,P,892.124878
532,P,893.864197
533,P,893.864197
534,P,-2195.79639
535,P,-2195.79639
536,P,801.202271
537,P,801.202271
538,P,786.489868
539,P,786.489868
540,P,909.666199
541,P,909.666199
542,P,918.289673
543,P,918.289673
544,P,912.548889
545,P,912.548889
546,P,904.542419
547,P,904.542419
548,P,-114.95565
549,P,-114.95565
550,P,-91.2495728
551,P,-91.2495728
552,P,-109.616699
553,P,-109.616699
554,P,555.12793
555,P,555.12793
556,P,-196.773102
557,P,-196.773102
558,P,-68.5688477
559,P,-68.5688477
560,P,-129.496475
561,P,-129.496475
562,P,-124.770508
563,P,-124.770508
564,P,-141.436615
565,P,-141.436615
566,P,-147.153244
567,P,-147.153244
568,P,526.585693
569,P,526.585693
570,P,-108.983421
571,P,-108.983421
572,P,-177.97052
573,P,-177.97052
574,P,-131.857285
575,P,-131.857285
576,P,-163.744843
577,P,-163.744843
578,P,-170.506973
579,P,-170.506973
580,P,-158.240555
581,P,-158.240555
582,P,-144.947189
583,P,-144.947189
584,P,-2187.28662
585,P,-2187.28662
586,P,929.866394
587,P,929.866394
588,P,921.136475
589,P,921.136475
590,P,777.219666
591,P,777.219666
592,P,803.946106
593,P,803.946106
594,P,906.812073
595,P,906.812073
596,P,942.441345
597,P,942.441345
598,P,-2163.01343
599,P,-2163.01343
600,P,767.783325
601,P,767.783325
602,P,770.951294
603,P,770.951294
604,P,911.296509
605,P,911.296509
606,P,919.292786
607,P,919.292786
608,P,916.151672
609,P,916.151672
610,P,893.241028
611,P,893.241028
612,P,-179.843109
613,P,-179.843109
614,P,-178.096603
615,P,-178.096603
616,P,-177.44313
617,P,-177.44313
618,P,512.312195
619,P,512.312195
620,P,-196.740417
621,P,-196.740417
622,P,-203.720291
623,P,-203.720291
624,P,-177.199738
625,P,-177.199738
626,P,-186.73584
627,P,-186.73584
628,P,-189.066666
629,P,-189.066666
630,P,-177.789246
631,P,-177.789246
632,P,495.323761
633,P,495.323761
634,P,-206.400024
635,P,-206.400024
636,P,-199.542007
637,P,-199.542007
638,P,-180.004715
639,P,-180.004715
640,P,-191.579071
641,P,-191.579071
642,P,-186.744339
643,P,-186.744339
644,P,-190.159149
645,P,-190.159149
646,P,-191.383591
647,P,-191.383591
648,P,-2157.20288
649,P,-2157.20288
650,P,910.158752
651,P,910.158752
652,P,910.350037
653,P,910.350037
654,P,789.441223
655,P,789.441223
656,P,791.041016
657,P,791.041016
658,P,916.593201
659,P,916.593201
660,P,914.892578
661,P,914.892578
662,P,-2121.46631
663,P,-2121.46631
664,P,790.238281
665,P,790.238281
666,P,791.51178
667,P,791.51178
668,P,922.324707
669,P,922.324707
670,P,934.189941
671,P,934.189941
672,P,924.182983
673,P,924.182983
674,P,927.735779
675,P,927.735779
676,P,-193.620941
677,P,-193.620941
678,P,-193.851944
679,P,-193.851944
680,P,-179.751038
681,P,-179.751038
682,P,496.389832
683,P,496.389832
684,P,-207.660522
685,P,-207.660522
686,P,-201.833878
687,P,-201.833878
688,P,-181.863846
689,P,-181.863846
690,P,-193.068024
691,P,-193.068024
692,P,-193.633728
693,P,-193.633728
694,P,-173.236725
695,P,-173.236725
696,P,508.986725
697,P,508.986725
698,P,-209.128418
699,P,-209.128418
700,P,-201.137146
701,P,-201.137146
702,P,-183.355225
703,P,-183.355225
704,P,-184.327759
705,P,-184.327759
706,P,-177.067261
707,P,-177.067261
708,P,-185.013504
709,P,-185.013504
710,P,-193.48764
711,P,-193.48764
712,P,-2135.86475
713,P,-2135.86475
714,P,931.222595
715,P,931.222595
716,P,945.236084
717,P,945.236084
718,P,823.178223
719,P,823.178223
720,P,808.570557
721,P,808.570557
722,P,925.833252
723,P,925.833252
724,P,919.249939
725,P,919.249939
726,P,-2165.51367
727,P,-2165.51367
728,P,803.312317
729,P,803.312317
730,P,778.016113
731,P,778.016113
732,P,899.716431
733,P,899.716431
734,P,887.508301
735,P,887.508301
736,P,910.975586
737,P,910.975586
738,P,912.551575
739,P,912.551575
740,P,-158.834473
741,P,-158.834473
742,P,-174.009476
743,P,-174.009476
744,P,-146.409027
745,P,-146.409027
746,P,546.172668
747,P,546.172668
748,P,-107.668785
749,P,-107.668785
750,P,-176.264999
751,P,-176.264999
752,P,-129.007858
753,P,-129.007858
754,P,-157.811462
755,P,-157.811462
756,P,-142.516876
757,P,-142.516876
758,P,-110.193024
759,P,-110.193024
760,P,564.580322
761,P,564.580322
762,P,-203.98732
763,P,-203.98732
764,P,-70.8082352
765,P,-70.8082352
766,P,-129.645798
767,P,-129.645798
768,P,-116.48996
769,P,-116.48996
770,P,-91.1150665
771,P,-91.1150665
772,P,-125.482567
773,P,-125.482567
774,P,-140.962524
775,P,-140.962524
776,P,-2140.33374
777,P,-2140.33374
778,P,868.636475
779,P,868.636475
780,P,875.764587
781,P,875.764587
782,P,823.081299
783,P,823.081299
784,P,807.094116
785,P,807.094116
786,P,879.303101
787,P,879.303101
788,P,867.909485
789,P,867.909485
790,P,-2076.7312
791,P,-2076.7312
792,P,829.123291
793,P,829.123291
794,P,839.188965
795,P,839.188965
796,P,447.392914
797,P,447.392914
798,P,749.020447
799,P,749.020447
800,P,865.585693
801,P,865.585693
802,P,787.031433
803,P,787.031433
804,P,-16.3568134
805,P,-16.3568134
806,P,-82.7621078
807,P,-82.7621078
808,P,36.5366631
809,P,36.5366631
810,P,715.531555
811,P,715.531555
812,P,480.954376
813,P,480.954376
814,P,546.882385
815,P,546.882385
816,P,306.236694
817,P,306.236694
818,P,36.1800804
819,P,36.1800804
820,P,352.5867
821,P,352.5867
822,P,346.276154
823,P,346.276154
824,P,734.700806
825,P,734.700806
826,P,494.228088
827,P,494.228088
828,P,450.625732
829,P,450.625732
830,P,358.004639
831,P,358.004639
832,P,297.88266
833,P,297.88266
834,P,227.277252
835,P,227.277252
836,P,324.661713
837,P,324.661713
838,P,359.672668
839,P,359.672668
840,P,-975.533203
841,P,-975.533203
842,P,-1110.90955
843,P,-1110.90955
844,P,-194.85376
845,P,-194.85376
846,P,812.742065
847,P,812.742065
848,P,-392.758728
849,P,-392.758728
850,P,-1484.95654
851,P,-1484.95654
852,P,-1568.57422
853,P,-1568.57422
854,P,292.491943
855,P,292.491943
856,P,505.761536
857,P,505.761536
858,P,359.650055
859,P,359.650055
860,P,-1654.21509
861,P,-1654.21509
862,P,-1585.71155
863,P,-1585.71155
864,P,-219.178818
865,P,-219.178818
866,P,448.58316
867,P,448.58316
868,P,-216.32756
869,P,-216.32756
870,P,-1598.24988
871,P,-1598.24988
872,P,-1627.27222
873,P,-1627.27222
874,P,-246.343445
875,P,-246.343445
876,P,428.717499
877,P,428.717499
878,P,-233.640137
879,P,-233.640137
880,P,-1614.54919
881,P,-1614.54919
882,P,-1615.65051
883,P,-1615.65051
884,P,-215.526047
885,P,-215.526047
886,P,496.208618
887,P,496.208618
888,P,-145.140854
889,P,-145.140854
890,P,-1488.16956
891,P,-1488.16956
892,P,-1492.89038
893,P,-1492.89038
894,P,-98.5932388
895,P,-98.5932388
896,P,604.524536
897,P,604.524536
898,P,-984.610779
899,P,-984.610779
900,P,-2103.86597
901,P,-2103.86597
902,P,-2032.82861
903,P,-2032.82861
904,P,513.144287
905,P,513.144287
906,P,851.412415
907,P,851.412415
908,P,562.945862
909,P,562.945862
910,P,606.563477
911,P,606.563477
912,P,-2137.00195
913,P,-2137.00195
914,P,-2180.00171
915,P,-2180.00171
916,P,618.332275
917,P,618.332275
918,P,552.746155
919,P,552.746155
920,P,519.841309
921,P,519.841309
922,P,605.430481
923,P,605.430481
924,P,-2187.68237
925,P,-2187.68237
926,P,-2206.42212
927,P,-2206.42212
928,P,612.695007
929,P,612.695007
930,P,515.101196
931,P,515.101196
932,P,494.833252
933,P,494.833252
934,P,577.473633
935,P,577.473633
936,P,-2174.21777
937,P,-2174.21777
938,P,-2143.26245
939,P,-2143.26245
940,P,579.357239
941,P,579.357239
942,P,501.823761
943,P,501.823761
944,P,524.17511
945,P,524.17511
946,P,615.95874
947,P,615.95874
948,P,-2161.16797
949,P,-2161.16797
950,P,-2128.9895
951,P,-2128.9895
952,P,614.899719
953,P,614.899719
954,P,533.956787
955,P,533.956787
956,P,564.24176
957,P,564.24176
958,P,623.43927
959,P,623.43927
960,P,-2127.43286
961,P,-2127.43286
962,P,-2119.00024
963,P,-2119.00024
964,P,605.437988
965,P,605.437988
966,P,566.473206
967,P,566.473206
968,P,845.691528
969,P,845.691528
970,P,512.618347
971,P,512.618347
972,P,1026.90088
973,P,1026.90088
974,P,429.261078
975,P,429.261078
976,P,277.824066
977,P,277.824066
978,P,-1340.66113
979,P,-1340.66113
980,P,-1296.86353
981,P,-1296.86353
982,P,597.025696
983,P,597.025696
984,P,-99.23423
985,P,-99.23423
986,P,-982.169678
987,P,-982.169678
988,P,-1546.29614
989,P,-1546.29614
990,P,-1498.82886
991,P,-1498.82886
992,P,474.578735
993,P,474.578735
994,P,-208.994202
995,P,-208.994202
996,P,-147.896484
997,P,-147.896484
998,P,-1634.34082
999,P,-1634.34082
1000,P,-1637.64795
1001,P,-1637.64795
1002,P,419.891449
1003,P,419.891449
1004,P,-230.603088
1005,P,-230.603088
1006,P,-244.176147
1007,P,-244.176147
1008,P,-1597.92639
1009,P,-1597.92639
1010,P,-1586.19165
1011,P,-1586.19165
1012,P,453.820007
1013,P,453.820007
1014,P,-217.332657
1015,P,-217.332657
1016,P,-226.428589
1017,P,-226.428589
1018,P,-1550.00134
1019,P,-1550.00134
1020,P,-1538.63745
1021,P,-1538.63745
1022,P,526.338684
1023,P,526.338684
1024,P,294.473694
1025,P,294.473694
1026,P,343.016327
1027,P,343.016327
1028,P,-1272.23499
1029,P,-1272.23499
1030,P,-1379.11523
1031,P,-1379.11523
1032,P,805.44165
1033,P,805.44165
1034,P,-154.749496
1035,P,-154.749496
1036,P,-412.579193
1037,P,-412.579193
1038,P,1021.21582
1039,P,1021.21582
1040,P,256.473572
1041,P,256.473572
1042,P,226.426346
1043,P,226.426346
1044,P,1766.59058
1045,P,1766.59058
1046,P,1807.0885
1047,P,1807.0885
1048,P,-2079.3811
1049,P,-2079.3811
1050,P,1772.97388
1051,P,1772.97388
1052,P,1129.91724
1053,P,1129.91724
1054,P,1149.48035
1055,P,1149.48035
1056,P,-2083.10229
1057,P,-2083.10229
1058,P,2316.62646
1059,P,2316.62646
1060,P,2287.50732
1061,P,2287.50732
1062,P,1933.46631
1063,P,1933.46631
1064,P,1235.40137
1065,P,1235.40137
1066,P,1194.25317
1067,P,1194.25317
1068,P,686.259827
1069,P,686.259827
1070,P,-204.487732
1071,P,-204.487732
1072,P,752.508789
1073,P,752.508789
1074,P,-260.847961
1075,P,-260.847961
1076,P,2215.42651
1077,P,2215.42651
1078,P,-2166.35522
1079,P,-2166.35522
1080,P,2322.25391
1081,P,2322.25391
1082,P,2227.33203
1083,P,2227.33203
1084,P,1289.46814
1085,P,1289.46814
1086,P,1306.63525
1087,P,1306.63525
1088,P,-2137.96777
1089,P,-2137.96777
1090,P,2333.18652
1091,P,2333.18652
1092,P,2399.99414
1093,P,2399.99414
1094,P,2255.18213
1095,P,2255.18213
1096,P,2302.7063
1097,P,2302.7063
1098,P,1345.62683
1099,P,1345.62683
1100,P,1351.2771
1101,P,1351.2771
1102,P,555.52594
1103,P,555.52594
1104,P,621.601868
1105,P,621.601868
1106,P,534.884827
1107,P,534.884827
1108,P,624.514526
1109,P,624.514526
1110,P,2517.4585
1111,P,2517.4585
1112,P,2377.23975
1113,P,2377.23975
1114,P,-2178.22925
1115,P,-2178.22925
1116,P,2358.9519
1117,P,2358.9519
1118,P,1369.66614
1119,P,1369.66614
1120,P,1364.61609
1121,P,1364.61609
1122,P,-2158.28638
1123,P,-2158.28638
1124,P,2196.7771
1125,P,2196.7771
1126,P,2302.2373
1127,P,2302.2373
1128,P,2396.85669
1129,P,2396.85669
1130,P,1360.5199
1131,P,1360.5199
1132,P,1345.64575
1133,P,1345.64575
1134,P,499.618958
1135,P,499.618958
1136,P,586.500916
1137,P,586.500916
1138,P,493.044952
1139,P,493.044952
1140,P,594.726196
1141,P,594.726196
1142,P,2256.30762
1143,P,2256.30762
1144,P,-2134.39478
1145,P,-2134.39478
1146,P,2390.58667
1147,P,2390.58667
1148,P,2393.9646
1149,P,2393.9646
1150,P,1322.14844
1151,P,1322.14844
1152,P,1321.64233
1153,P,1321.64233
1154,P,-2299.56152
1155,P,-2299.56152
1156,P,2446.27344
1157,P,2446.27344
1158,P,2303.48706
1159,P,2303.48706
1160,P,2397.28223
1161,P,2397.28223
1162,P,2319.8894
1163,P,2319.8894
1164,P,1349.02319
1165,P,1349.02319
1166,P,1366.73499
1167,P,1366.73499
1168,P,499.399963
1169,P,499.399963
1170,P,581.944519
1171,P,581.944519
1172,P,508.585083
1173,P,508.585083
1174,P,593.049316
1175,P,593.049316
1176,P,2422.81445
1177,P,2422.81445
1178,P,2361.67969
1179,P,2361.67969
1180,P,-2181.63159
1181,P,-2181.63159
1182,P,2414.7373
1183,P,2414.7373
1184,P,1368.6438
1185,P,1368.6438
1186,P,1364.33862
1187,P,1364.33862
1188,P,-2163.5791
1189,P,-2163.5791
1190,P,2210.94092
1191,P,2210.94092
1192,P,2321.448
1193,P,2321.448
1194,P,2347.31128
1195,P,2347.31128
1196,P,1303.43823
1197,P,1303.43823
1198,P,1316.80981
1199,P,1316.80981
1200,P,554.267944
1201,P,554.267944
1202,P,640.636292
1203,P,640.636292
1204,P,558.251587
1205,P,558.251587
1206,P,640.438171
1207,P,640.438171
1208,P,2227.04517
1209,P,2227.04517
1210,P,-2123.14307
1211,P,-2123.14307
1212,P,1858.10999
1213,P,1858.10999
1214,P,1897.50391
1215,P,1897.50391
1216,P,1250.09448
1217,P,1250.09448
1218,P,1191.62183
1219,P,1191.62183
1220,P,-2103.37866
1221,P,-2103.37866
1222,P,1773.74097
1223,P,1773.74097
1224,P,1808.29211
1225,P,1808.29211
1226,P,1771.79932
1227,P,1771.79932
1228,P,1738.25891
1229,P,1738.25891
1230,P,1111.0708
1231,P,1111.0708
1232,P,1140.6582
1233,P,1140.6582
1234,P,767.098083
1235,P,767.098083
1236,P,-251.339981
1237,P,-251.339981
1238,P,665.504639
1239,P,665.504639
1240,P,-259.30954
1241,P,-259.30954
1242,P,-775.484924
1243,P,-775.484924
1244,P,-1013.43274
1245,P,-1013.43274
1246,P,-1153.45374
1247,P,-1153.45374
1248,P,-1166.58728
1249,P,-1166.58728
1250,P,791.919861
1251,P,791.919861
1252,P,-663.541199
1253,P,-663.541199
1254,P,-473.980164
1255,P,-473.980164
1256,P,-255.817017
1257,P,-255.817017
1258,P,-255.817017
1259,P,-266.179382
1260,P,-266.179382
1261,P,-266.179382
1262,P,1378.65857
1263,P,1378.65857
1264,P,792.317993
1265,P,792.317993
1266,P,-1116.07703
1267,P,-1116.07703
1268,P,-1531.07312
1269,P,-1531.07312
1270,P,-1546.45422
1271,P,-1546.45422
1272,P,-1038.1366
1273,P,-1038.1366
1274,P,-1081.42151
1275,P,-1081.42151
1276,P,515.907349
1277,P,515.907349
1278,P,322.38147
1279,P,322.38147
1280,P,660.55249
1281,P,660.55249
1282,P,-283.550934
1283,P,-283.550934
1284,P,-283.550934
1285,P,-248.969452
1286,P,-248.969452
1287,P,-248.969452
1288,P,281.980255
1289,P,281.980255
1290,P,314.848175
1291,P,314.848175
1292,P,-1214.91833
1293,P,-1214.91833
1294,P,-1124.70825
1295,P,-1124.70825
1296,P,-1636.03723
1297,P,-1636.03723
1298,P,-1638.54773
1299,P,-1638.54773
1300,P,447.579803
1301,P,447.579803
1302,P,-221.63707
1303,P,-221.63707
1304,P,-227.927444
1305,P,-227.927444
1306,P,-455.825073
1307,P,-455.825073
1308,P,-455.825073
1309,P,-459.95755
1310,P,-459.95755
1311,P,-459.95755
1312,P,377.2052
1313,P,377.2052
1314,P,259.172943
1315,P,259.172943
1316,P,-1184.1698
1317,P,-1184.1698
1318,P,-1644.83081
1319,P,-1644.83081
1320,P,-1595.01172
1321,P,-1595.01172
1322,P,427.03241
1323,P,427.03241
1324,P,-228.242554
1325,P,-228.242554
1326,P,-225.477417
1327,P,-225.477417
1328,P,-470.182861
1329,P,-470.182861
1330,P,-470.182861
1331,P,-466.315399
1332,P,-466.315399
1333,P,-466.315399
1334,P,289.687775
1335,P,289.687775
1336,P,272.158173
1337,P,272.158173
1338,P,-1615.36584
1339,P,-1615.36584
1340,P,-1632.08679
1341,P,-1632.08679
1342,P,502.618896
1343,P,502.618896
1344,P,670.393799
1345,P,670.393799
1346,P,-126.884224
1347,P,-126.884224
1348,P,-391.361389
1349,P,-391.361389
1350,P,-391.361389
1351,P,-354.257843
1352,P,-354.257843
1353,P,-354.257843
1354,P,388.727753
1355,P,388.727753
1356,P,370.905853
1357,P,370.905853
1358,P,-1431.55054
1359,P,-1431.55054
1360,P,-1457.60583
1361,P,-1457.60583
1362,P,-952.576477
1363,P,-952.576477
1364,P,667.414734
1365,P,667.414734
1366,P,-761.578308
1367,P,-761.578308
1368,P,-1090.65503
1369,P,-1090.65503
1370,P,-284.990143
1371,P,-284.990143
1372,P,-284.990143
1373,P,-264.435394
1374,P,-264.435394
1375,P,-264.435394
1376,P,283.6315
1377,P,283.6315
1378,P,275.510223
1379,P,275.510223
1380,P,2932.03662
1381,P,2932.03662
1382,P,2654.79028
1383,P,2654.79028
1384,P,2465.91357
1385,P,2465.91357
1386,P,3101.97925
1387,P,3101.97925
1388,P,-2122.4978
1389,P,-2122.4978
1390,P,964.054932
1391,P,964.054932
1392,P,965.766357
1393,P,965.766357
1394,P,4249.23682
1395,P,4249.23682
1396,P,3882.81079
1397,P,3882.81079
1398,P,4178.6748
1399,P,4178.6748
1400,P,3997.49243
1401,P,3997.49243
1402,P,-2086.95679
1403,P,-2086.95679
1404,P,770.713074
1405,P,770.713074
1406,P,773.380554
1407,P,773.380554
1408,P,301.078217
1409,P,301.078217
1410,P,324.26709
1411,P,324.26709
1412,P,1013.37036
1413,P,1013.37036
1414,P,225.754883
1415,P,225.754883
1416,P,362.809601
1417,P,362.809601
1418,P,844.098938
1419,P,844.098938
1420,P,24.2659893
1421,P,24.2659893
1422,P,300.906036
1423,P,300.906036
1424,P,281.083954
1425,P,281.083954
1426,P,269.1409
1427,P,269.1409
1428,P,386.337769
1429,P,386.337769
1430,P,911.89093
1431,P,911.89093
1432,P,58.7899208
1433,P,58.7899208
1434,P,-25.6749783
1435,P,-25.6749783
1436,P,574.054626
1437,P,574.054626
1438,P,480.997498
1439,P,480.997498
1440,P,733.340088
1441,P,733.340088
1442,P,187.443985
1443,P,187.443985
1444,P,-66.1029663
1445,P,-66.1029663
1446,P,39.8496666
1447,P,39.8496666
1448,P,364.219299
1449,P,364.219299
1450,P,-43.3001518
1451,P,-43.3001518
1452,P,-58.551445
1453,P,-58.551445
1454,P,4483.96973
1455,P,4483.96973
1456,P,4456.42285
1457,P,4456.42285
1458,P,4380.00781
1459,P,4380.00781
1460,P,4511.69922
1461,P,4511.69922
1462,P,-2128.71826
1463,P,-2128.71826
1464,P,773.589233
1465,P,773.589233
1466,P,772.684631
1467,P,772.684631
1468,P,4705.35303
1469,P,4705.35303
1470,P,4444.40381
1471,P,4444.40381
1472,P,4679.15625
1473,P,4679.15625
1474,P,4494.67139
1475,P,4494.67139
1476,P,-2186.20874
1477,P,-2186.20874
1478,P,785.638123
1479,P,785.638123
1480,P,767.553406
1481,P,767.553406
1482,P,-92.559166
1483,P,-92.559166
1484,P,-92.8962326
1485,P,-92.8962326
1486,P,748.431824
1487,P,748.431824
1488,P,-138.620743
1489,P,-138.620743
1490,P,-47.1937866
1491,P,-47.1937866
1492,P,551.100586
1493,P,551.100586
1494,P,625.071777
1495,P,625.071777
1496,P,-58.6022453
1497,P,-58.6022453
1498,P,-59.4964905
1499,P,-59.4964905
1500,P,-83.5569534
1501,P,-83.5569534
1502,P,-66.4746933
1503,P,-66.4746933
1504,P,760.4021
1505,P,760.4021
1506,P,-143.873077
1507,P,-143.873077
1508,P,-153.064194
1509,P,-153.064194
1510,P,520.588989
1511,P,520.588989
1512,P,622.214294
1513,P,622.214294
1514,P,709.915405
1515,P,709.915405
1516,P,-185.373489
1517,P,-185.373489
1518,P,-156.841263
1519,P,-156.841263
1520,P,-141.366058
1521,P,-141.366058
1522,P,-181.937408
1523,P,-181.937408
1524,P,-161.378128
1525,P,-161.378128
1526,P,-154.207825
1527,P,-154.207825
1528,P,4749.21387
1529,P,4749.21387
1530,P,4415.31543
1531,P,4415.31543
1532,P,4459.20752
1533,P,4459.20752
1534,P,4763.75049
1535,P,4763.75049
1536,P,-2183.50244
1537,P,-2183.50244
1538,P,781.21698
1539,P,781.21698
1540,P,791.268433
1541,P,791.268433
1542,P,4704.32617
1543,P,4704.32617
1544,P,4438.02588
1545,P,4438.02588
1546,P,4776.97803
1547,P,4776.97803
1548,P,4400.42822
1549,P,4400.42822
1550,P,-2170.60864
1551,P,-2170.60864
1552,P,784.106873
1553,P,784.106873
1554,P,789.086548
1555,P,789.086548
1556,P,-164.419327
1557,P,-164.419327
1558,P,-170.015808
1559,P,-170.015808
1560,P,728.87439
1561,P,728.87439
1562,P,-186.960266
1563,P,-186.960266
1564,P,-166.312332
1565,P,-166.312332
1566,P,513.24585
1567,P,513.24585
1568,P,591.790405
1569,P,591.790405
1570,P,-164.503082
1571,P,-164.503082
1572,P,-202.192291
1573,P,-202.192291
1574,P,-165.098495
1575,P,-165.098495
1576,P,-161.880112
1577,P,-161.880112
1578,P,699.080078
1579,P,699.080078
1580,P,-176.113495
1581,P,-176.113495
1582,P,-175.113724
1583,P,-175.113724
1584,P,496.007721
1585,P,496.007721
1586,P,579.040222
1587,P,579.040222
1588,P,701.007324
1589,P,701.007324
1590,P,-215.258087
1591,P,-215.258087
1592,P,-172.322083
1593,P,-172.322083
1594,P,-179.743378
1595,P,-179.743378
1596,P,-199.550064
1597,P,-199.550064
1598,P,-180.256409
1599,P,-180.256409
1600,P,-172.06398
1601,P,-172.06398
1602,P,4722.00928
1603,P,4722.00928
1604,P,4416.74121
1605,P,4416.74121
1606,P,4457.43408
1607,P,4457.43408
1608,P,4742.66992
1609,P,4742.66992
1610,P,-2177.80054
1611,P,-2177.80054
1612,P,793.26178
1613,P,793.26178
1614,P,784.057007
1615,P,784.057007
1616,P,4735.20752
1617,P,4735.20752
1618,P,4523.31982
1619,P,4523.31982
1620,P,4831.23682
1621,P,4831.23682
1622,P,4627.4458
1623,P,4627.4458
1624,P,-2125.98535
1625,P,-2125.98535
1626,P,787.814636
1627,P,787.814636
1628,P,789.383667
1629,P,789.383667
1630,P,-178.090408
1631,P,-178.090408
1632,P,-179.75264
1633,P,-179.75264
1634,P,675.29187
1635,P,675.29187
1636,P,-211.039932
1637,P,-211.039932
1638,P,-190.521866
1639,P,-190.521866
1640,P,496.57843
1641,P,496.57843
1642,P,581.097656
1643,P,581.097656
1644,P,-180.192383
1645,P,-180.192383
1646,P,-205.197861
1647,P,-205.197861
1648,P,-182.015152
1649,P,-182.015152
1650,P,-181.564606
1651,P,-181.564606
1652,P,695.139587
1653,P,695.139587
1654,P,-167.137848
1655,P,-167.137848
1656,P,-167.924194
1657,P,-167.924194
1658,P,522.177795
1659,P,522.177795
1660,P,609.143433
1661,P,609.143433
1662,P,713.817444
1663,P,713.817444
1664,P,-190.917175
1665,P,-190.917175
1666,P,-162.843887
1667,P,-162.843887
1668,P,-171.01709
1669,P,-171.01709
1670,P,-194.849518
1671,P,-194.849518
1672,P,-169.253998
1673,P,-169.253998
1674,P,-156.596161
1675,P,-156.596161
1676,P,4787.50244
1677,P,4787.50244
1678,P,4628.85742
1679,P,4628.85742
1680,P,4583.42578
1681,P,4583.42578
1682,P,4687.88379
1683,P,4687.88379
1684,P,-2150.23633
1685,P,-2150.23633
1686,P,807.657593
1687,P,807.657593
1688,P,811.713501
1689,P,811.713501
1690,P,4516.91455
1691,P,4516.91455
1692,P,4372.73779
1693,P,4372.73779
1694,P,4519.56348
1695,P,4519.56348
1696,P,4262.04736
1697,P,4262.04736
1698,P,-2150.45728
1699,P,-2150.45728
1700,P,778.226379
1701,P,778.226379
1702,P,790.192566
1703,P,790.192566
1704,P,-137.079773
1705,P,-137.079773
1706,P,-154.807648
1707,P,-154.807648
1708,P,714.776184
1709,P,714.776184
1710,P,-178.032623
1711,P,-178.032623
1712,P,-162.503326
1713,P,-162.503326
1714,P,536.853394
1715,P,536.853394
1716,P,635.535706
1717,P,635.535706
1718,P,-135.026993
1719,P,-135.026993
1720,P,-188.04776
1721,P,-188.04776
1722,P,-154.030411
1723,P,-154.030411
1724,P,-154.303741
1725,P,-154.303741
1726,P,744.759094
1727,P,744.759094
1728,P,-96.6647034
1729,P,-96.6647034
1730,P,-93.7681198
1731,P,-93.7681198
1732,P,567.457275
1733,P,567.457275
1734,P,635.47229
1735,P,635.47229
1736,P,747.103271
1737,P,747.103271
1738,P,-139.804901
1739,P,-139.804901
1740,P,-47.0581131
1741,P,-47.0581131
1742,P,-68.0375061
1743,P,-68.0375061
1744,P,-65.0129776
1745,P,-65.0129776
1746,P,-82.7768173
1747,P,-82.7768173
1748,P,-67.418129
1749,P,-67.418129
1750,P,4238.19336
1751,P,4238.19336
1752,P,3966.96338
1753,P,3966.96338
1754,P,4030.61572
1755,P,4030.61572
1756,P,4182.75
1757,P,4182.75
1758,P,-2121.42529
1759,P,-2121.42529
1760,P,772.175537
1761,P,772.175537
1762,P,783.823608
1763,P,783.823608
1764,P,2929.45166
1765,P,2929.45166
1766,P,2637.64697
1767,P,2637.64697
1768,P,3082.78101
1769,P,3082.78101
1770,P,2492.9502
1771,P,2492.9502
1772,P,-2117.49121
1773,P,-2117.49121
1774,P,969.804749
1775,P,969.804749
1776,P,938.02887
1777,P,938.02887
1778,P,57.12537
1779,P,57.12537
1780,P,-31.9578705
1781,P,-31.9578705
1782,P,730.37262
1783,P,730.37262
1784,P,191.121887
1785,P,191.121887
1786,P,-67.2790985
1787,P,-67.2790985
1788,P,574.071655
1789,P,574.071655
1790,P,484.717712
1791,P,484.717712
1792,P,39.886673
1793,P,39.886673
1794,P,362.900757
1795,P,362.900757
1796,P,-48.4440346
1797,P,-48.4440346
1798,P,-61.4099121
1799,P,-61.4099121
1800,P,652.783325
1801,P,652.783325
1802,P,287.191315
1803,P,287.191315
1804,P,249.905441
1805,P,249.905441
1806,P,836.279175
1807,P,836.279175
1808,P,11.7763386
1809,P,11.7763386
1810,P,1047.19177
1811,P,1047.19177
1812,P,305.15213
1813,P,305.15213
1814,P,169.537552
1815,P,169.537552
1816,P,224.897903
1817,P,224.897903
1818,P,322.49527
1819,P,322.49527
1820,P,254.477448
1821,P,254.477448
1822,P,199.147705
1823,P,199.147705
1824,P,581.24585
1825,P,581.24585
1826,P,254.696457
1827,P,254.696457
1828,P,-6.22076607
1829,P,-6.22076607
1830,P,-1169.19446
1831,P,-1169.19446
1832,P,-1253.87659
1833,P,-1253.87659
1834,P,-929.643494
1835,P,-929.643494
1836,P,-819.229553
1837,P,-819.229553
1838,P,-1.97526371
1839,P,-1.97526371
1840,P,20.3439426
1841,P,20.3439426
1842,P,660.87561
1843,P,660.87561
1844,P,-766.235168
1845,P,-766.235168
1846,P,-1087.38855
1847,P,-1087.38855
1848,P,-286.834778
1849,P,-286.834778
1850,P,-286.834778
1851,P,-270.253113
1852,P,-270.253113
1853,P,-270.253113
1854,P,275.920898
1855,P,275.920898
1856,P,283.316956
1857,P,283.316956
1858,P,-94.9011841
1859,P,-94.9011841
1860,P,-1580.5708
1861,P,-1580.5708
1862,P,-1576.30676
1863,P,-1576.30676
1864,P,-1001.21985
1865,P,-1001.21985
1866,P,-1123.57886
1867,P,-1123.57886
1868,P,-1125.255
1869,P,-1125.255
1870,P,-178.873505
1871,P,-178.873505
1872,P,-108.032425
1873,P,-108.032425
1874,P,479.277893
1875,P,479.277893
1876,P,668.005676
1877,P,668.005676
1878,P,-127.856659
1879,P,-127.856659
1880,P,-391.169128
1881,P,-391.169128
1882,P,-391.169128
1883,P,-354.464325
1884,P,-354.464325
1885,P,-354.464325
1886,P,393.452789
1887,P,393.452789
1888,P,387.028992
1889,P,387.028992
1890,P,-229.357208
1891,P,-229.357208
1892,P,-1616.62891
1893,P,-1616.62891
1894,P,-1628.84338
1895,P,-1628.84338
1896,P,-1166.7262
1897,P,-1166.7262
1898,P,-1160.11755
1899,P,-1160.11755
1900,P,-1154.52161
1901,P,-1154.52161
1902,P,-1143.0177
1903,P,-1143.0177
1904,P,-251.34549
1905,P,-251.34549
1906,P,-160.162979
1907,P,-160.162979
1908,P,425.818359
1909,P,425.818359
1910,P,-230.19014
1911,P,-230.19014
1912,P,-228.731705
1913,P,-228.731705
1914,P,-469.138123
1915,P,-469.138123
1916,P,-469.138123
1917,P,-467.023102
1918,P,-467.023102
1919,P,-467.023102
1920,P,290.901947
1921,P,290.901947
1922,P,276.992371
1923,P,276.992371
1924,P,-215.398499
1925,P,-215.398499
1926,P,-1613.18835
1927,P,-1613.18835
1928,P,-1605.11816
1929,P,-1605.11816
1930,P,-1101.00977
1931,P,-1101.00977
1932,P,-1136.4978
1933,P,-1136.4978
1934,P,-1141.11707
1935,P,-1141.11707
1936,P,-244.682266
1937,P,-244.682266
1938,P,450.196228
1939,P,450.196228
1940,P,-229.48587
1941,P,-229.48587
1942,P,-226.246902
1943,P,-226.246902
1944,P,-456.482086
1945,P,-456.482086
1946,P,-456.482086
1947,P,-461.644409
1948,P,-461.644409
1949,P,-461.644409
1950,P,372.791016
1951,P,372.791016
1952,P,251.61293
1953,P,251.61293
1954,P,-1598.64343
1955,P,-1598.64343
1956,P,-1576.82153
1957,P,-1576.82153
1958,P,-1052.74731
1959,P,-1052.74731
1960,P,-1080.14526
1961,P,-1080.14526
1962,P,518.762085
1963,P,518.762085
1964,P,311.303864
1965,P,311.303864
1966,P,659.887878
1967,P,659.887878
1968,P,-286.311127
1969,P,-286.311127
1970,P,-286.311127
1971,P,-250.880768
1972,P,-250.880768
1973,P,-250.880768
1974,P,284.129272
1975,P,284.129272
1976,P,322.347534
1977,P,322.347534
1978,P,-15.9791451
1979,P,-15.9791451
1980,P,-1440.63782
1981,P,-1440.63782
1982,P,-1445.01379
1983,P,-1445.01379
1984,P,-45.8608322
1985,P,-45.8608322
1986,P,775.294861
1987,P,775.294861
1988,P,-653.257141
1989,P,-653.257141
1990,P,-503.896973
1991,P,-503.896973
1992,P,-256.779266
1993,P,-256.779266
1994,P,-256.779266
1995,P,-260.984863
1996,P,-260.984863
1997,P,-260.984863
1998,P,1384.66028
1999,P,1384.66028
2000,P,835.21814
2001,P,835.21814
2002,P,569.172607
2003,P,569.172607
2004,P,210.546722
2005,P,210.546722
2006,P,1769.47217
2007,P,1769.47217
2008,P,1964.35461
2009,P,1964.35461
2010,P,1866.98267
2011,P,1866.98267
2012,P,1787.89355
2013,P,1787.89355
2014,P,1916.66199
2015,P,1916.66199
2016,P,2052.82935
2017,P,2052.82935
2018,P,3407.74902
2019,P,3407.74902
2020,P,2919.1814
2021,P,2919.1814
2022,P,3265.75781
2023,P,3265.75781
2024,P,3038.07568
2025,P,3038.07568
2026,P,-2058.86865
2027,P,-2058.86865
2028,P,1913.54944
2029,P,1913.54944
2030,P,2149.09448
2031,P,2149.09448
2032,P,1927.11865
2033,P,1927.11865
2034,P,2206.02075
2035,P,2206.02075
2036,P,1636.30127
2037,P,1636.30127
2038,P,473.437164
2039,P,473.437164
2040,P,1025.09021
2041,P,1025.09021
2042,P,1119.26367
2043,P,1119.26367
2044,P,608.197144
2045,P,608.197144
2046,P,847.139648
2047,P,847.139648
2048,P,825.547913
2049,P,825.547913
2050,P,1138.27112
2051,P,1138.27112
2052,P,983.932129
2053,P,983.932129
2054,P,867.866211
2055,P,867.866211
2056,P,997.379822
2057,P,997.379822
2058,P,833.513672
2059,P,833.513672
2060,P,944.572327
2061,P,944.572327
2062,P,3970.27979
2063,P,3970.27979
2064,P,3714.58911
2065,P,3714.58911
2066,P,4045.67847
2067,P,4045.67847
2068,P,3638.20166
2069,P,3638.20166
2070,P,-2093.79053
2071,P,-2093.79053
2072,P,2470.78003
2073,P,2470.78003
2074,P,3057.14697
2075,P,3057.14697
2076,P,3081.59131
2077,P,3081.59131
2078,P,2437.92017
2079,P,2437.92017
2080,P,2181.14551
2081,P,2181.14551
2082,P,2173.51221
2083,P,2173.51221
2084,P,2304.57788
2085,P,2304.57788
2086,P,2940.36035
2087,P,2940.36035
2088,P,2874.60718
2089,P,2874.60718
2090,P,2361.82349
2091,P,2361.82349
2092,P,2052.22754
2093,P,2052.22754
2094,P,2029.05811
2095,P,2029.05811
2096,P,823.854858
2097,P,823.854858
2098,P,829.775513
2099,P,829.775513
2100,P,1053.17273
2101,P,1053.17273
2102,P,880.601257
2103,P,880.601257
2104,P,1255.04541
2105,P,1255.04541
2106,P,866.771606
2107,P,866.771606
2108,P,1062.2251
2109,P,1062.2251
2110,P,1052.88135
2111,P,1052.88135
2112,P,883.825867
2113,P,883.825867
2114,P,1210.62354
2115,P,1210.62354
2116,P,882.511597
2117,P,882.511597
2118,P,1024.41602
2119,P,1024.41602
2120,P,1030.28015
2121,P,1030.28015
2122,P,-925.553406
2123,P,-925.553406
2124,P,276.810669
2125,P,276.810669
2126,P,257.204376
2127,P,257.204376
2128,P,331.467163
2129,P,331.467163
2130,P,433.761597
2131,P,433.761597
2132,P,704.70105
2133,P,704.70105
2134,P,-81.6733475
2135,P,-81.6733475
2136,P,501.659973
2137,P,501.659973
2138,P,235.147354
2139,P,235.147354
2140,P,266.667664
2141,P,266.667664
2142,P,491.979248
2143,P,491.979248
2144,P,950.966492
2145,P,950.966492
2146,P,411.430237
2147,P,411.430237
2148,P,308.393372
2149,P,308.393372
2150,P,-1023.6369
2151,P,-1023.6369
2152,P,388.537354
2153,P,388.537354
2154,P,-1225.33923
2155,P,-1225.33923
2156,P,383.772369
2157,P,383.772369
2158,P,-129.607071
2159,P,-129.607071
2160,P,-48.1218338
2161,P,-48.1218338
2162,P,71.6574326
2163,P,71.6574326
2164,P,132.339157
2165,P,132.339157
2166,P,781.202576
2167,P,781.202576
2168,P,161.136581
2169,P,161.136581
2170,P,928.549683
2171,P,928.549683
2172,P,524.512268
2173,P,524.512268
2174,P,204.623489
2175,P,204.623489
2176,P,65.3266373
2177,P,65.3266373
2178,P,498.167908
2179,P,498.167908
2180,P,166.457642
2181,P,166.457642
2182,P,247.933136
2183,P,247.933136
2184,P,-58.453598
2185,P,-58.453598
2186,P,-46.9193306
2187,P,-46.9193306
2188,P,-61.9135361
2189,P,-61.9135361
2190,P,-700.130066
2191,P,-700.130066
2192,P,160.332275
2193,P,160.332275
2194,P,-255.685135
2195,P,-255.685135
2196,P,-1862.95081
2197,P,-1862.95081
2198,P,231.775375
2199,P,231.775375
2200,P,2603.95801
2201,P,2603.95801
2202,P,3419.69043
2203,P,3419.69043
2204,P,3357.88354
2205,P,3357.88354
2206,P,2619.66357
2207,P,2619.66357
2208,P,2254.55591
2209,P,2254.55591
2210,P,4543.05713
2211,P,4543.05713
2212,P,4400.19678
2213,P,4400.19678
2214,P,4572.27588
2215,P,4572.27588
2216,P,4349.7749
2217,P,4349.7749
2218,P,-2173.94604
2219,P,-2173.94604
2220,P,2611.02661
2221,P,2611.02661
2222,P,3395.74707
2223,P,3395.74707
2224,P,2586.84351
2225,P,2586.84351
2226,P,3368.89111
2227,P,3368.89111
2228,P,2284.91089
2229,P,2284.91089
2230,P,2259.60083
2231,P,2259.60083
2232,P,1088.11914
2233,P,1088.11914
2234,P,881.664062
2235,P,881.664062
2236,P,1280.43018
2237,P,1280.43018
2238,P,884.956787
2239,P,884.956787
2240,P,1063.68225
2241,P,1063.68225
2242,P,800.15387
2243,P,800.15387
2244,P,788.851196
2245,P,788.851196
2246,P,1315.21765
2247,P,1315.21765
2248,P,925.742004
2249,P,925.742004
2250,P,912.561646
2251,P,912.561646
2252,P,1063.80896
2253,P,1063.80896
2254,P,4703.50146
2255,P,4703.50146
2256,P,4459.89844
2257,P,4459.89844
2258,P,4791.12305
2259,P,4791.12305
2260,P,4381.4082
2261,P,4381.4082
2262,P,-2165.31982
2263,P,-2165.31982
2264,P,2710.22266
2265,P,2710.22266
2266,P,3430.08252
2267,P,3430.08252
2268,P,3452.31201
2269,P,3452.31201
2270,P,2691.77075
2271,P,2691.77075
2272,P,2401.35376
2273,P,2401.35376
2274,P,2666.71338
2275,P,2666.71338
2276,P,3415.19263
2277,P,3415.19263
2278,P,3381.50586
2279,P,3381.50586
2280,P,2707.71802
2281,P,2707.71802
2282,P,2383.43213
2283,P,2383.43213
2284,P,2383.65527
2285,P,2383.65527
2286,P,789.909729
2287,P,789.909729
2288,P,811.107361
2289,P,811.107361
2290,P,1058.97156
2291,P,1058.97156
2292,P,918.437561
2293,P,918.437561
2294,P,1107.94751
2295,P,1107.94751
2296,P,1330.77002
2297,P,1330.77002
2298,P,916.235474
2299,P,916.235474
2300,P,899.419678
2301,P,899.419678
2302,P,1330.75281
2303,P,1330.75281
2304,P,935.606323
2305,P,935.606323
2306,P,1062.5155
2307,P,1062.5155
2308,P,1081.56616
2309,P,1081.56616
2310,P,-66.6858673
2311,P,-66.6858673
2312,P,-108.485992
2313,P,-108.485992
2314,P,-63.6817589
2315,P,-63.6817589
2316,P,-98.3804703
2317,P,-98.3804703
2318,P,-102.11232
2319,P,-102.11232
2320,P,-115.634773
2321,P,-115.634773
2322,P,557.68811
2323,P,557.68811
2324,P,633.905518
2325,P,633.905518
2326,P,723.495972
2327,P,723.495972
2328,P,-87.0080414
2329,P,-87.0080414
2330,P,-100.714958
2331,P,-100.714958
2332,P,-46.4911728
2333,P,-46.4911728
2334,P,-163.794037
2335,P,-163.794037
2336,P,732.198364
2337,P,732.198364
2338,P,-122.585014
2339,P,-122.585014
2340,P,-124.108704
2341,P,-124.108704
2342,P,-82.831459
2343,P,-82.831459
2344,P,-129.606537
2345,P,-129.606537
2346,P,-97.7959213
2347,P,-97.7959213
2348,P,-137.615585
2349,P,-137.615585
2350,P,-129.923065
2351,P,-129.923065
2352,P,-138.334579
2353,P,-138.334579
2354,P,-142.082214
2355,P,-142.082214
2356,P,534.538147
2357,P,534.538147
2358,P,619.502258
2359,P,619.502258
2360,P,752.246094
2361,P,752.246094
2362,P,-217.320343
2363,P,-217.320343
2364,P,-83.7145538
2365,P,-83.7145538
2366,P,-136.852417
2367,P,-136.852417
2368,P,-119.421638
2369,P,-119.421638
2370,P,-139.714142
2371,P,-139.714142
2372,P,-124.572037
2373,P,-124.572037
2374,P,-113.098396
2375,P,-113.098396
2376,P,-165.110214
2377,P,-165.110214
2378,P,-170.933182
2379,P,-170.933182
2380,P,-109.794319
2381,P,-109.794319
2382,P,-156.174118
2383,P,-156.174118
2384,P,-100.734703
2385,P,-100.734703
2386,P,-151.626221
2387,P,-151.626221
2388,P,2684.26953
2389,P,2684.26953
2390,P,3386.55786
2391,P,3386.55786
2392,P,3452.71094
2393,P,3452.71094
2394,P,2674.66162
2395,P,2674.66162
2396,P,2542.58105
2397,P,2542.58105
2398,P,2440.48096
2399,P,2440.48096
2400,P,4747.67676
2401,P,4747.67676
2402,P,4443.18457
2403,P,4443.18457
2404,P,4706.04736
2405,P,4706.04736
2406,P,4422.27197
2407,P,4422.27197
2408,P,-2189.60815
2409,P,-2189.60815
2410,P,2692.79688
2411,P,2692.79688
2412,P,3426.79395
2413,P,3426.79395
2414,P,2705.77979
2415,P,2705.77979
2416,P,3405.927
2417,P,3405.927
2418,P,2462.70117
2419,P,2462.70117
2420,P,914.8797
2421,P,914.8797
2422,P,1112.4718
2423,P,1112.4718
2424,P,1347.07336
2425,P,1347.07336
2426,P,922.145691
2427,P,922.145691
2428,P,790.546326
2429,P,790.546326
2430,P,801.013794
2431,P,801.013794
2432,P,1358.44763
2433,P,1358.44763
2434,P,1086.37549
2435,P,1086.37549
2436,P,919.146606
2437,P,919.146606
2438,P,1086.49512
2439,P,1086.49512
2440,P,939.514771
2441,P,939.514771
2442,P,1085.57043
2443,P,1085.57043
2444,P,4765.16943
2445,P,4765.16943
2446,P,4544.82178
2447,P,4544.82178
2448,P,4794.00684
2449,P,4794.00684
2450,P,4479.65332
2451,P,4479.65332
2452,P,-2162.27344
2453,P,-2162.27344
2454,P,2667.20532
2455,P,2667.20532
2456,P,3429.61157
2457,P,3429.61157
2458,P,3402.97363
2459,P,3402.97363
2460,P,2668.8916
2461,P,2668.8916
2462,P,2212.60229
2463,P,2212.60229
2464,P,2319.79395
2465,P,2319.79395
2466,P,2710.33716
2467,P,2710.33716
2468,P,3459.93799
2469,P,3459.93799
2470,P,3473.27661
2471,P,3473.27661
2472,P,2741.24902
2473,P,2741.24902
2474,P,2414.64893
2475,P,2414.64893
2476,P,2279.61743
2477,P,2279.61743
2478,P,761.464355
2479,P,761.464355
2480,P,758.617798
2481,P,758.617798
2482,P,1095.26184
2483,P,1095.26184
2484,P,911.324219
2485,P,911.324219
2486,P,1361.96594
2487,P,1361.96594
2488,P,918.841858
2489,P,918.841858
2490,P,1067.42065
2491,P,1067.42065
2492,P,1049.00574
2493,P,1049.00574
2494,P,890.651855
2495,P,890.651855
2496,P,1324.37952
2497,P,1324.37952
2498,P,906.042114
2499,P,906.042114
2500,P,1054.1687
2501,P,1054.1687
2502,P,1118.17188
2503,P,1118.17188
2504,P,-133.013474
2505,P,-133.013474
2506,P,-181.089905
2507,P,-181.089905
2508,P,-177.21347
2509,P,-177.21347
2510,P,-171.200531
2511,P,-171.200531
2512,P,-174.119324
2513,P,-174.119324
2514,P,506.584595
2515,P,506.584595
2516,P,599.229309
2517,P,599.229309
2518,P,-211.000275
2519,P,-211.000275
2520,P,-172.863602
2521,P,-172.863602
2522,P,-173.480728
2523,P,-173.480728
2524,P,-193.80574
2525,P,-193.80574
2526,P,699.41333
2527,P,699.41333
2528,P,-179.957138
2529,P,-179.957138
2530,P,-172.578888
2531,P,-172.578888
2532,P,-102.192307
2533,P,-102.192307
2534,P,-186.177933
2535,P,-186.177933
2536,P,-141.588974
2537,P,-141.588974
2538,P,-189.870407
2539,P,-189.870407
2540,P,-260.314545
2541,P,-260.314545
2542,P,-182.167511
2543,P,-182.167511
2544,P,-170.994705
2545,P,-170.994705
2546,P,-178.683533
2547,P,-178.683533
2548,P,491.930267
2549,P,491.930267
2550,P,574.835083
2551,P,574.835083
2552,P,705.743164
2553,P,705.743164
2554,P,-196.988663
2555,P,-196.988663
2556,P,-174.089844
2557,P,-174.089844
2558,P,-170.226624
2559,P,-170.226624
2560,P,-209.257812
2561,P,-209.257812
2562,P,-177.753662
2563,P,-177.753662
2564,P,-174.321198
2565,P,-174.321198
2566,P,-105.858551
2567,P,-105.858551
2568,P,-188.639481
2569,P,-188.639481
2570,P,-191.684235
2571,P,-191.684235
2572,P,-141.244125
2573,P,-141.244125
2574,P,-191.308365
2575,P,-191.308365
2576,P,-121.710899
2577,P,-121.710899
2578,P,-128.758972
2579,P,-128.758972
2580,P,-189.199051
2581,P,-189.199051
2582,P,2638.03955
2583,P,2638.03955
2584,P,3402.80884
2585,P,3402.80884
2586,P,3440.30054
2587,P,3440.30054
2588,P,2647.60791
2589,P,2647.60791
2590,P,2321.20288
2591,P,2321.20288
2592,P,4750.78125
2593,P,4750.78125
2594,P,4426.04102
2595,P,4426.04102
2596,P,4740.61279
2597,P,4740.61279
2598,P,4455.72607
2599,P,4455.72607
2600,P,-2143.66943
2601,P,-2143.66943
2602,P,2697.96851
2603,P,2697.96851
2604,P,3384.35962
2605,P,3384.35962
2606,P,2646.60742
2607,P,2646.60742
2608,P,3411.46094
2609,P,3411.46094
2610,P,2291.25195
2611,P,2291.25195
2612,P,2284.03296
2613,P,2284.03296
2614,P,1057.68079
2615,P,1057.68079
2616,P,928.784363
2617,P,928.784363
2618,P,1326.60559
2619,P,1326.60559
2620,P,919.355469
2621,P,919.355469
2622,P,1083.60999
2623,P,1083.60999
2624,P,776.063232
2625,P,776.063232
2626,P,785.311096
2627,P,785.311096
2628,P,1386.32996
2629,P,1386.32996
2630,P,923.811096
2631,P,923.811096
2632,P,902.141052
2633,P,902.141052
2634,P,1050.61133
2635,P,1050.61133
2636,P,4837.71875
2637,P,4837.71875
2638,P,4426.0415
2639,P,4426.0415
2640,P,4796.92041
2641,P,4796.92041
2642,P,4468.32666
2643,P,4468.32666
2644,P,-2144.57715
2645,P,-2144.57715
2646,P,2737.63989
2647,P,2737.63989
2648,P,3477.07349
2649,P,3477.07349
2650,P,3524.5332
2651,P,3524.5332
2652,P,2710.73608
2653,P,2710.73608
2654,P,2443.14062
2655,P,2443.14062
2656,P,2773.46655
2657,P,2773.46655
2658,P,3403.11523
2659,P,3403.11523
2660,P,3441.15259
2661,P,3441.15259
2662,P,2700.67578
2663,P,2700.67578
2664,P,2290.9082
2665,P,2290.9082
2666,P,2338.83301
2667,P,2338.83301
2668,P,795.532898
2669,P,795.532898
2670,P,804.15155
2671,P,804.15155
2672,P,1070.40613
2673,P,1070.40613
2674,P,940.409668
2675,P,940.409668
2676,P,1140.80579
2677,P,1140.80579
2678,P,1361.19458
2679,P,1361.19458
2680,P,923.480713
2681,P,923.480713
2682,P,932.579773
2683,P,932.579773
2684,P,1395.86963
2685,P,1395.86963
2686,P,923.570984
2687,P,923.570984
2688,P,1105.03125
2689,P,1105.03125
2690,P,1064.12561
2691,P,1064.12561
2692,P,-141.385605
2693,P,-141.385605
2694,P,-192.430115
2695,P,-192.430115
2696,P,-152.169479
2697,P,-152.169479
2698,P,-193.06134
2699,P,-193.06134
2700,P,-175.027451
2701,P,-175.027451
2702,P,-185.115189
2703,P,-185.115189
2704,P,492.723816
2705,P,492.723816
2706,P,589.414612
2707,P,589.414612
2708,P,689.576294
2709,P,689.576294
2710,P,-209.34317
2711,P,-209.34317
2712,P,-178.605515
2713,P,-178.605515
2714,P,-177.262909
2715,P,-177.262909
2716,P,-211.814941
2717,P,-211.814941
2718,P,703.884094
2719,P,703.884094
2720,P,-185.503433
2721,P,-185.503433
2722,P,-177.238815
2723,P,-177.238815
2724,P,-150.362457
2725,P,-150.362457
2726,P,-195.165283
2727,P,-195.165283
2728,P,-144.056808
2729,P,-144.056808
2730,P,-195.609879
2731,P,-195.609879
2732,P,-210.604065
2733,P,-210.604065
2734,P,-168.521393
2735,P,-168.521393
2736,P,-178.536957
2737,P,-178.536957
2738,P,511.065399
2739,P,511.065399
2740,P,599.914062
2741,P,599.914062
2742,P,708.668884
2743,P,708.668884
2744,P,-202.025101
2745,P,-202.025101
2746,P,-182.847229
2747,P,-182.847229
2748,P,-171.125992
2749,P,-171.125992
2750,P,-205.745102
2751,P,-205.745102
2752,P,-174.943085
2753,P,-174.943085
2754,P,-178.86203
2755,P,-178.86203
2756,P,-110.244797
2757,P,-110.244797
2758,P,-181.157944
2759,P,-181.157944
2760,P,-180.052963
2761,P,-180.052963
2762,P,-135.304138
2763,P,-135.304138
2764,P,-189.123215
2765,P,-189.123215
2766,P,-92.5393372
2767,P,-92.5393372
2768,P,-189.223602
2769,P,-189.223602
2770,P,2722.00439
2771,P,2722.00439
2772,P,3534.11133
2773,P,3534.11133
2774,P,3503.19971
2775,P,3503.19971
2776,P,2722.62451
2777,P,2722.62451
2778,P,2345.57861
2779,P,2345.57861
2780,P,2527.29468
2781,P,2527.29468
2782,P,4598.6416
2783,P,4598.6416
2784,P,4437.20898
2785,P,4437.20898
2786,P,4656.07031
2787,P,4656.07031
2788,P,4449.78223
2789,P,4449.78223
2790,P,-2138.5105
2791,P,-2138.5105
2792,P,2691.1394
2793,P,2691.1394
2794,P,3406.26343
2795,P,3406.26343
2796,P,2686.3103
2797,P,2686.3103
2798,P,3398.65112
2799,P,3398.65112
2800,P,2482.37744
2801,P,2482.37744
2802,P,931.272949
2803,P,931.272949
2804,P,1108.43677
2805,P,1108.43677
2806,P,1394.71899
2807,P,1394.71899
2808,P,919.280273
2809,P,919.280273
2810,P,796.746643
2811,P,796.746643
2812,P,806.014587
2813,P,806.014587
2814,P,1344.73767
2815,P,1344.73767
2816,P,1044.63745
2817,P,1044.63745
2818,P,914.193298
2819,P,914.193298
2820,P,1084.00415
2821,P,1084.00415
2822,P,925.027893
2823,P,925.027893
2824,P,1123.64551
2825,P,1123.64551
2826,P,4584.79932
2827,P,4584.79932
2828,P,4438.53125
2829,P,4438.53125
2830,P,4523.13672
2831,P,4523.13672
2832,P,4405.88086
2833,P,4405.88086
2834,P,-2152.07935
2835,P,-2152.07935
2836,P,2543.88623
2837,P,2543.88623
2838,P,3329.81787
2839,P,3329.81787
2840,P,3313.28564
2841,P,3313.28564
2842,P,2581.18506
2843,P,2581.18506
2844,P,2347.85474
2845,P,2347.85474
2846,P,2234.09058
2847,P,2234.09058
2848,P,2601.55054
2849,P,2601.55054
2850,P,3412.35449
2851,P,3412.35449
2852,P,3373.48486
2853,P,3373.48486
2854,P,2647.00806
2855,P,2647.00806
2856,P,2215.30591
2857,P,2215.30591
2858,P,2295.10083
2859,P,2295.10083
2860,P,784.220337
2861,P,784.220337
2862,P,783.861511
2863,P,783.861511
2864,P,1078.6272
2865,P,1078.6272
2866,P,886.769165
2867,P,886.769165
2868,P,1300.88098
2869,P,1300.88098
2870,P,909.636597
2871,P,909.636597
2872,P,1062.57104
2873,P,1062.57104
2874,P,1096.72522
2875,P,1096.72522
2876,P,919.885132
2877,P,919.885132
2878,P,1341.19849
2879,P,1341.19849
2880,P,900.129761
2881,P,900.129761
2882,P,1123.01294
2883,P,1123.01294
2884,P,1084.58752
2885,P,1084.58752
2886,P,-125.667839
2887,P,-125.667839
2888,P,-165.04628
2889,P,-165.04628
2890,P,-166.760635
2891,P,-166.760635
2892,P,-138.300613
2893,P,-138.300613
2894,P,-135.913788
2895,P,-135.913788
2896,P,547.716492
2897,P,547.716492
2898,P,626.786255
2899,P,626.786255
2900,P,-215.580292
2901,P,-215.580292
2902,P,-77.5748672
2903,P,-77.5748672
2904,P,-135.298462
2905,P,-135.298462
2906,P,-115.086403
2907,P,-115.086403
2908,P,731.533813
2909,P,731.533813
2910,P,-135.537888
2911,P,-135.537888
2912,P,-121.955154
2913,P,-121.955154
2914,P,-65.947403
2915,P,-65.947403
2916,P,-151.329834
2917,P,-151.329834
2918,P,-96.392952
2919,P,-96.392952
2920,P,-148.118073
2921,P,-148.118073
2922,P,-69.8665771
2923,P,-69.8665771
2924,P,-200.835968
2925,P,-200.835968
2926,P,-102.239136
2927,P,-102.239136
2928,P,-117.30883
2929,P,-117.30883
2930,P,560.257874
2931,P,560.257874
2932,P,645.67218
2933,P,645.67218
2934,P,732.340393
2935,P,732.340393
2936,P,-86.9217834
2937,P,-86.9217834
2938,P,-103.939064
2939,P,-103.939064
2940,P,-46.041317
2941,P,-46.041317
2942,P,-168.24556
2943,P,-168.24556
2944,P,-118.455399
2945,P,-118.455399
2946,P,-126.832588
2947,P,-126.832588
2948,P,-65.0849991
2949,P,-65.0849991
2950,P,-108.736221
2951,P,-108.736221
2952,P,-98.9542694
2953,P,-98.9542694
2954,P,-89.3445206
2955,P,-89.3445206
2956,P,-129.401062
2957,P,-129.401062
2958,P,-85.3320084
2959,P,-85.3320084
2960,P,-81.0231018
2961,P,-81.0231018
2962,P,-132.49585
2963,P,-132.49585
2964,P,2408.72583
2965,P,2408.72583
2966,P,3028.03882
2967,P,3028.03882
2968,P,3080.87549
2969,P,3080.87549
2970,P,2376.92603
2971,P,2376.92603
2972,P,2118.0813
2973,P,2118.0813
2974,P,3922.52612
2975,P,3922.52612
2976,P,3703.24194
2977,P,3703.24194
2978,P,4047.89404
2979,P,4047.89404
2980,P,3719.41162
2981,P,3719.41162
2982,P,-2138.60962
2983,P,-2138.60962
2984,P,2244.11841
2985,P,2244.11841
2986,P,2849.78271
2987,P,2849.78271
2988,P,2258.66724
2989,P,2258.66724
2990,P,2851.58105
2991,P,2851.58105
2992,P,2013.76135
2993,P,2013.76135
2994,P,2031.37781
2995,P,2031.37781
2996,P,1045.30664
2997,P,1045.30664
2998,P,871.04895
2999,P,871.04895
3000,P,1255.3855
3001,P,1255.3855
3002,P,865.211487
3003,P,865.211487
3004,P,1023.30945
3005,P,1023.30945
3006,P,840.25061
3007,P,840.25061
3008,P,826.714233
3009,P,826.714233
3010,P,1197.40417
3011,P,1197.40417
3012,P,872.959961
3013,P,872.959961
3014,P,872.433716
3015,P,872.433716
3016,P,1046.49756
3017,P,1046.49756
3018,P,3404.03418
3019,P,3404.03418
3020,P,2866.38086
3021,P,2866.38086
3022,P,3254.72266
3023,P,3254.72266
3024,P,3030.63306
3025,P,3030.63306
3026,P,-2094.1355
3027,P,-2094.1355
3028,P,1795.15088
3029,P,1795.15088
3030,P,1967.27905
3031,P,1967.27905
3032,P,1897.35535
3033,P,1897.35535
3034,P,1783.41992
3035,P,1783.41992
3036,P,1816.88171
3037,P,1816.88171
3038,P,1915.19666
3039,P,1915.19666
3040,P,2156.42822
3041,P,2156.42822
3042,P,2247.39648
3043,P,2247.39648
3044,P,1926.53198
3045,P,1926.53198
3046,P,1601.5708
3047,P,1601.5708
3048,P,1672.23181
3049,P,1672.23181
3050,P,812.406311
3051,P,812.406311
3052,P,831.462585
3053,P,831.462585
3054,P,1195.14832
3055,P,1195.14832
3056,P,479.470123
3057,P,479.470123
3058,P,1022.63885
3059,P,1022.63885
3060,P,1106.34741
3061,P,1106.34741
3062,P,559.523071
3063,P,559.523071
3064,P,845.188171
3065,P,845.188171
3066,P,1118.45837
3067,P,1118.45837
3068,P,811.630676
3069,P,811.630676
3070,P,1031.6886
3071,P,1031.6886
3072,P,950.892334
3073,P,950.892334
3074,P,-61.5534782
3075,P,-61.5534782
3076,P,-48.4305534
3077,P,-48.4305534
3078,P,-92.5182343
3079,P,-92.5182343
3080,P,-64.745163
3081,P,-64.745163
3082,P,69.971344
3083,P,69.971344
3084,P,137.075653
3085,P,137.075653
3086,P,767.887756
3087,P,767.887756
3088,P,184.525513
3089,P,184.525513
3090,P,980.479309
3091,P,980.479309
3092,P,520.590881
3093,P,520.590881
3094,P,196.840149
3095,P,196.840149
3096,P,62.5291748
3097,P,62.5291748
3098,P,499.05896
3099,P,499.05896
3100,P,705.74292
3101,P,705.74292
3102,P,168.146851
3103,P,168.146851
3104,P,250.788925
3105,P,250.788925
3106,P,-711.169922
3107,P,-711.169922
3108,P,164.83252
3109,P,164.83252
3110,P,-1863.17419
3111,P,-1863.17419
3112,P,231.910172
3113,P,231.910172
3114,P,26.0522938
3115,P,26.0522938
3116,P,306.011902
3117,P,306.011902
3118,P,424.885956
3119,P,424.885956
3120,P,726.798401
3121,P,726.798401
3122,P,-100.354912
3123,P,-100.354912
3124,P,1011.62775
3125,P,1011.62775
3126,P,492.812561
3127,P,492.812561
3128,P,244.203766
3129,P,244.203766
3130,P,224.374481
3131,P,224.374481
3132,P,469.726929
3133,P,469.726929
3134,P,420.841583
3135,P,420.841583
3136,P,325.996643
3137,P,325.996643
3138,P,-989.013672
3139,P,-989.013672
3140,P,251.382996
3141,P,251.382996
3142,P,239.3806
3143,P,239.3806
3144,P,-1030.40137
3145,P,-1030.40137
3146,P,384.420685
3147,P,384.420685
3148,P,-1264.26343
3149,P,-1264.26343
3150,P,392.57782
3151,P,392.57782
3152,P,861.918091
3153,P,861.918091
3154,P,515.727966
3155,P,515.727966
3156,P,451.150269
3157,P,451.150269
3158,P,395.275116
3159,P,395.275116
3160,P,402.7276
3161,P,402.7276
3162,P,431.668579
3163,P,431.668579
3164,P,355.933655
3165,P,355.933655
3166,P,485.741943
3167,P,485.741943
3168,P,401.722717
3169,P,401.722717
3170,P,547.369141
3171,P,547.369141
3172,P,533.827881
3173,P,533.827881
3174,P,-829.625061
3175,P,-829.625061
3176,P,-697.046082
3177,P,-697.046082
3178,P,98.6169586
3179,P,98.6169586
3180,P,-1710.43066
3181,P,-1710.43066
3182,P,665.604919
3183,P,665.604919
3184,P,1090.8468
3185,P,1090.8468
3186,P,534.15448
3187,P,534.15448
3188,P,461.73407
3189,P,461.73407
3190,P,401.237946
3191,P,401.237946
3192,P,428.254517
3193,P,428.254517
3194,P,354.790955
3195,P,354.790955
3196,P,375.187469
3197,P,375.187469
3198,P,462.542877
3199,P,462.542877
3200,P,402.961975
3201,P,402.961975
3202,P,527.516663
3203,P,527.516663
3204,P,505.978363
3205,P,505.978363
3206,P,842.32135
3207,P,842.32135
3208,P,-1645.58032
3209,P,-1645.58032
3210,P,668.72644
3211,P,668.72644
3212,P,1105.12366
3213,P,1105.12366
3214,P,-18.6346588
3215,P,-18.6346588
3216,P,746.558411
3217,P,746.558411
3218,P,607.040527
3219,P,607.040527
3220,P,599.287231
3221,P,599.287231
3222,P,504.272919
3223,P,504.272919
3224,P,433.556549
3225,P,433.556549
3226,P,368.292999
3227,P,368.292999
3228,P,428.559601
3229,P,428.559601
3230,P,502.055603
3231,P,502.055603
3232,P,447.530151
3233,P,447.530151
3234,P,736.84375
3235,P,736.84375
3236,P,568.799622
3237,P,568.799622
3238,P,1623.12512
3239,P,1623.12512
3240,P,1573.61096
3241,P,1573.61096
3242,P,973.747375
3243,P,973.747375
3244,P,734.348511
3245,P,734.348511
3246,P,551.393311
3247,P,551.393311
3248,P,496.295197
3249,P,496.295197
3250,P,427.709045
3251,P,427.709045
3252,P,349.493408
3253,P,349.493408
3254,P,446.30072
3255,P,446.30072
3256,P,371.398987
3257,P,371.398987
3258,P,383.545074
3259,P,383.545074
3260,P,518.901123
3261,P,518.901123
3262,P,471.806488
3263,P,471.806488
3264,P,717.014099
3265,P,717.014099
3266,P,577.698059
3267,P,577.698059
3268,P,1604.7395
3269,P,1604.7395
3270,P,1567.67188
3271,P,1567.67188
3272,P,962.374268
3273,P,962.374268
3274,P,-245.974091
3275,P,-245.974091
3276,P,-196.414017
3277,P,-196.414017
3278,P,-253.671402
3279,P,-253.671402
3280,P,854.916138
3281,P,854.916138
3282,P,714.599976
3283,P,714.599976
3284,P,622.678162
3285,P,622.678162
3286,P,-340.087585
3287,P,-340.087585
3288,P,-447.91153
3289,P,-447.91153
3290,P,620.409668
3291,P,620.409668
3292,P,888.055481
3293,P,888.055481
3294,P,968.04718
3295,P,968.04718
3296,P,262.110016
3297,P,262.110016
3298,P,-2145.11377
3299,P,-2145.11377
3300,P,-1566.00647
3301,P,-1566.00647
3302,P,507.996185
3303,P,507.996185
3304,P,504.001099
3305,P,504.001099
3306,P,481.762115
3307,P,481.762115
3308,P,564.271606
3309,P,564.271606
3310,P,-1718.06055
3311,P,-1718.06055
3312,P,400.384216
3313,P,400.384216
3314,P,414.89505
3315,P,414.89505
3316,P,418.313263
3317,P,418.313263
3318,P,-213.334259
3319,P,-213.334259
3320,P,-239.279144
3321,P,-239.279144
3322,P,448.88089
3323,P,448.88089
3324,P,387.443176
3325,P,387.443176
3326,P,376.860504
3327,P,376.860504
3328,P,-225.660355
3329,P,-225.660355
3330,P,-231.146454
3331,P,-231.146454
3332,P,301.001038
3333,P,301.001038
3334,P,309.327362
3335,P,309.327362
3336,P,256.239532
3337,P,256.239532
3338,P,-239.794235
3339,P,-239.794235
3340,P,-282.671082
3341,P,-282.671082
3342,P,427.662903
3343,P,427.662903
3344,P,373.888824
3345,P,373.888824
3346,P,367.570679
3347,P,367.570679
3348,P,-230.800369
3349,P,-230.800369
3350,P,-257.70517
3351,P,-257.70517
3352,P,289.497009
3353,P,289.497009
3354,P,288.399994
3355,P,288.399994
3356,P,-204.796402
3357,P,-204.796402
3358,P,-205.343536
3359,P,-205.343536
3360,P,493.212036
3361,P,493.212036
3362,P,419.234955
3363,P,419.234955
3364,P,-212.990707
3365,P,-212.990707
3366,P,-336.758362
3367,P,-336.758362
3368,P,327.605835
3369,P,327.605835
3370,P,316.305786
3371,P,316.305786
3372,P,265.317688
3373,P,265.317688
3374,P,-434.702545
3375,P,-434.702545
3376,P,-1301.67139
3377,P,-1301.67139
3378,P,-1083.9198
3379,P,-1083.9198
3380,P,566.961243
3381,P,566.961243
3382,P,543.404419
3383,P,543.404419
3384,P,-887.325439
3385,P,-887.325439
3386,P,-1161.53174
3387,P,-1161.53174
3388,P,539.40332
3389,P,539.40332
3390,P,453.72818
3391,P,453.72818
3392,P,436.677338
3393,P,436.677338
3394,P,-518.991028
3395,P,-518.991028
3396,P,-323.589996
3397,P,-323.589996
3398,P,-526.077942
3399,P,-526.077942
3400,P,-208.405533
3401,P,-208.405533
3402,P,-208.405533
3403,P,1465.17712
3404,P,1465.17712
3405,P,1441.54175
3406,P,1441.54175
3407,P,1333.93225
3408,P,1333.93225
3409,P,-393.920135
3410,P,-393.920135
3411,P,-393.920135
3412,P,1023.0329
3413,P,1023.0329
3414,P,1104.46692
3415,P,1104.46692
3416,P,1033.55957
3417,P,1033.55957
3418,P,257.207031
3419,P,257.207031
3420,P,492.26944
3421,P,492.26944
3422,P,284.224182
3423,P,284.224182
3424,P,299.933899
3425,P,299.933899
3426,P,354.587189
3427,P,354.587189
3428,P,1308.84338
3429,P,1308.84338
3430,P,1263.31335
3431,P,1263.31335
3432,P,559.274536
3433,P,559.274536
3434,P,531.873474
3435,P,531.873474
3436,P,537.787842
3437,P,537.787842
3438,P,-436.408142
3439,P,-436.408142
3440,P,-1302.84607
3441,P,-1302.84607
3442,P,-884.25238
3443,P,-884.25238
3444,P,-1156.19409
3445,P,-1156.19409
3446,P,438.821869
3447,P,438.821869
3448,P,433.47168
3449,P,433.47168
3450,P,421.109467
3451,P,421.109467
3452,P,463.478668
3453,P,463.478668
3454,P,420.817505
3455,P,420.817505
3456,P,419.415497
3457,P,419.415497
3458,P,-210.552414
3459,P,-210.552414
3460,P,-182.343979
3461,P,-182.343979
3462,P,-207.001572
3463,P,-207.001572
3464,P,-348.720001
3465,P,-348.720001
3466,P,317.771149
3467,P,317.771149
3468,P,314.363342
3469,P,314.363342
3470,P,264.440948
3471,P,264.440948
3472,P,429.355682
3473,P,429.355682
3474,P,353.963013
3475,P,353.963013
3476,P,372.164032
3477,P,372.164032
3478,P,-241.222382
3479,P,-241.222382
3480,P,-250.749863
3481,P,-250.749863
3482,P,-228.831085
3483,P,-228.831085
3484,P,-272.928802
3485,P,-272.928802
3486,P,285.401398
3487,P,285.401398
3488,P,287.827057
3489,P,287.827057
3490,P,459.960999
3491,P,459.960999
3492,P,394.571014
3493,P,394.571014
3494,P,396.728943
3495,P,396.728943
3496,P,-217.990417
3497,P,-217.990417
3498,P,-233.800461
3499,P,-233.800461
3500,P,-219.156586
3501,P,-219.156586
3502,P,-251.966354
3503,P,-251.966354
3504,P,308.286987
3505,P,308.286987
3506,P,314.704163
3507,P,314.704163
3508,P,523.630737
3509,P,523.630737
3510,P,512.751343
3511,P,512.751343
3512,P,487.32605
3513,P,487.32605
3514,P,265.341248
3515,P,265.341248
3516,P,-2136.44263
3517,P,-2136.44263
3518,P,565.442993
3519,P,565.442993
3520,P,-1677.8512
3521,P,-1677.8512
3522,P,359.800293
3523,P,359.800293
3524,P,421.790314
3525,P,421.790314
3526,P,443.235199
3527,P,443.235199
3528,P,856.76593
3529,P,856.76593
3530,P,623.466309
3531,P,623.466309
3532,P,-237.679886
3533,P,-237.679886
3534,P,-154.424103
3535,P,-154.424103
3536,P,-351.052795
3537,P,-351.052795
3538,P,-436.241699
3539,P,-436.241699
3540,P,-385.304749
3541,P,-385.304749
3542,P,634.123169
3543,P,634.123169
3544,P,869.286438
3545,P,869.286438
3546,P,960.618958
3547,P,960.618958
3548,P,835.6875
3549,P,835.6875
3550,P,1437.96826
3551,P,1437.96826
3552,P,1325.04419
3553,P,1325.04419
3554,P,-429.739258
3555,P,-429.739258
3556,P,-429.739258
3557,P,949.880127
3558,P,949.880127
3559,P,1083.5061
3560,P,1083.5061
3561,P,1113.51648
3562,P,1113.51648
3563,P,196.98436
3564,P,196.98436
3565,P,242.898178
3566,P,242.898178
3567,P,197.167374
3568,P,197.167374
3569,P,211.887711
3570,P,211.887711
3571,P,1303.14929
3572,P,1303.14929
3573,P,290.751923
3574,P,290.751923
3575,P,1470.0376
3576,P,1470.0376
3577,P,746.82605
3578,P,746.82605
3579,P,607.759827
3580,P,607.759827
3581,P,-579.857544
3582,P,-579.857544
3583,P,-802.968018
3584,P,-802.968018
3585,P,-762.068665
3586,P,-762.068665
3587,P,-484.123138
3588,P,-484.123138
3589,P,-565.317566
3590,P,-565.317566
3591,P,555.744324
3592,P,555.744324
3593,P,533.101562
3594,P,533.101562
3595,P,586.790771
3596,P,586.790771
3597,P,-559.366821
3598,P,-559.366821
3599,P,-262.536407
3600,P,-262.536407
3601,P,-262.536407
3602,P,-580.167786
3603,P,-580.167786
3604,P,-791.104004
3605,P,-791.104004
3606,P,-785.011536
3607,P,-785.011536
3608,P,-745.068787
3609,P,-745.068787
3610,P,-776.437073
3611,P,-776.437073
3612,P,-265.154327
3613,P,-265.154327
3614,P,-265.154327
3615,P,-583.304565
3616,P,-583.304565
3617,P,-575.187927
3618,P,-575.187927
3619,P,1154.12769
3620,P,1154.12769
3621,P,1071.76843
3622,P,1071.76843
3623,P,510.61441
3624,P,510.61441
3625,P,477.600403
3626,P,477.600403
3627,P,690.350281
3628,P,690.350281
3629,P,-1644.22302
3630,P,-1644.22302
3631,P,355.536591
3632,P,355.536591
3633,P,-2610.33594
3634,P,-2610.33594
3635,P,-1700.11584
3636,P,-1700.11584
3637,P,395.414307
3638,P,395.414307
3639,P,395.936737
3640,P,395.936737
3641,P,-549.301636
3642,P,-549.301636
3643,P,-238.428757
3644,P,-238.428757
3645,P,-238.428757
3646,P,-537.045044
3647,P,-537.045044
3648,P,-765.351868
3649,P,-765.351868
3650,P,-761.073242
3651,P,-761.073242
3652,P,-772.136292
3653,P,-772.136292
3654,P,-775.923462
3655,P,-775.923462
3656,P,-295.789856
3657,P,-295.789856
3658,P,-295.789856
3659,P,-534.161133
3660,P,-534.161133
3661,P,-530.908875
3662,P,-530.908875
3663,P,297.576508
3664,P,297.576508
3665,P,300.452637
3666,P,300.452637
3667,P,439.698151
3668,P,439.698151
3669,P,372.88382
3670,P,372.88382
3671,P,369.854187
3672,P,369.854187
3673,P,-234.777802
3674,P,-234.777802
3675,P,-212.239517
3676,P,-212.239517
3677,P,-219.313263
3678,P,-219.313263
3679,P,-239.39653
3680,P,-239.39653
3681,P,276.74826
3682,P,276.74826
3683,P,279.78894
3684,P,279.78894
3685,P,-678.507751
3686,P,-678.507751
3687,P,-453.61203
3688,P,-453.61203
3689,P,-453.61203
3690,P,-685.961487
3691,P,-685.961487
3692,P,-856.456604
3693,P,-856.456604
3694,P,-830.920959
3695,P,-830.920959
3696,P,-837.913086
3697,P,-837.913086
3698,P,-828.319946
3699,P,-828.319946
3700,P,-462.007874
3701,P,-462.007874
3702,P,-462.007874
3703,P,-697.313354
3704,P,-697.313354
3705,P,-688.125244
3706,P,-688.125244
3707,P,329.064636
3708,P,329.064636
3709,P,309.370392
3710,P,309.370392
3711,P,433.083801
3712,P,433.083801
3713,P,-230.583755
3714,P,-230.583755
3715,P,-250.613983
3716,P,-250.613983
3717,P,-256.499573
3718,P,-256.499573
3719,P,-231.668716
3720,P,-231.668716
3721,P,-185.152924
3722,P,-185.152924
3723,P,284.797424
3724,P,284.797424
3725,P,281.169739
3726,P,281.169739
3727,P,-701.384338
3728,P,-701.384338
3729,P,-470.652283
3730,P,-470.652283
3731,P,-470.652283
3732,P,-700.322876
3733,P,-700.322876
3734,P,-838.59021
3735,P,-838.59021
3736,P,-862.740601
3737,P,-862.740601
3738,P,-856.055298
3739,P,-856.055298
3740,P,-840.800171
3741,P,-840.800171
3742,P,-466.024292
3743,P,-466.024292
3744,P,-466.024292
3745,P,-696.879395
3746,P,-696.879395
3747,P,-701.878845
3748,P,-701.878845
3749,P,285.531128
3750,P,285.531128
3751,P,286.350922
3752,P,286.350922
3753,P,500.444397
3754,P,500.444397
3755,P,438.022125
3756,P,438.022125
3757,P,424.901184
3758,P,424.901184
3759,P,272.436401
3760,P,272.436401
3761,P,-2442.1377
3762,P,-2442.1377
3763,P,-1478.00562
3764,P,-1478.00562
3765,P,393.578339
3766,P,393.578339
3767,P,-446.162323
3768,P,-446.162323
3769,P,295.067535
3770,P,295.067535
3771,P,383.967316
3772,P,383.967316
3773,P,397.640594
3774,P,397.640594
3775,P,396.040497
3776,P,396.040497
3777,P,-648.850952
3778,P,-648.850952
3779,P,-393.86969
3780,P,-393.86969
3781,P,-393.86969
3782,P,-630.971863
3783,P,-630.971863
3784,P,-771.229919
3785,P,-771.229919
3786,P,-769.115662
3787,P,-769.115662
3788,P,-808.972351
3789,P,-808.972351
3790,P,-801.110291
3791,P,-801.110291
3792,P,-308.943146
3793,P,-308.943146
3794,P,-308.943146
3795,P,-572.040894
3796,P,-572.040894
3797,P,-568.703491
3798,P,-568.703491
3799,P,400.16153
3800,P,400.16153
3801,P,393.985748
3802,P,393.985748
3803,P,718.163818
3804,P,718.163818
3805,P,-933.388733
3806,P,-933.388733
3807,P,-923.16217
3808,P,-923.16217
3809,P,-1199.90723
3810,P,-1199.90723
3811,P,-946.930969
3812,P,-946.930969
3813,P,-1393.00574
3814,P,-1393.00574
3815,P,509.529602
3816,P,509.529602
3817,P,514.734192
3818,P,514.734192
3819,P,576.330811
3820,P,576.330811
3821,P,-588.160706
3822,P,-588.160706
3823,P,-272.142273
3824,P,-272.142273
3825,P,-272.142273
3826,P,-585.915222
3827,P,-585.915222
3828,P,-778.208008
3829,P,-778.208008
3830,P,-784.043884
3831,P,-784.043884
3832,P,-765.637573
3833,P,-765.637573
3834,P,-789.862305
3835,P,-789.862305
3836,P,-270.371826
3837,P,-270.371826
3838,P,-270.371826
3839,P,-578.942505
3840,P,-578.942505
3841,P,-586.329041
3842,P,-586.329041
3843,P,269.402802
3844,P,269.402802
3845,P,266.969421
3846,P,266.969421
3847,P,1957.74744
3848,P,1957.74744
3849,P,1957.74744
3850,P,584.066406
3851,P,584.066406
3852,P,1224.33618
3853,P,1224.33618
3854,P,1191.49866
3855,P,1191.49866
3856,P,1684.59534
3857,P,1684.59534
3858,P,1684.59534
3859,P,835.252869
3860,P,835.252869
3861,P,1907.23462
3862,P,1907.23462
3863,P,1907.23462
3864,P,1255.91797
3865,P,1255.91797
3866,P,1745.67786
3867,P,1745.67786
3868,P,182.490997
3869,P,182.490997
3870,P,606.926575
3871,P,606.926575
3872,P,297.783813
3873,P,297.783813
3874,P,233.021851
3875,P,233.021851
3876,P,233.021851
3877,P,348.757233
3878,P,348.757233
3879,P,730.613342
3880,P,730.613342
3881,P,-941.039246
3882,P,-941.039246
3883,P,-922.594971
3884,P,-922.594971
3885,P,-1201.59436
3886,P,-1201.59436
3887,P,-951.640991
3888,P,-951.640991
3889,P,-1376.86792
3890,P,-1376.86792
3891,P,489.002991
3892,P,489.002991
3893,P,516.534668
3894,P,516.534668
3895,P,553.519287
3896,P,553.519287
3897,P,-275.113831
3898,P,-275.113831
3899,P,-275.113831
3900,P,-588.383301
3901,P,-588.383301
3902,P,-586.490417
3903,P,-586.490417
3904,P,-780.662842
3905,P,-780.662842
3906,P,-785.001404
3907,P,-785.001404
3908,P,-275.311829
3909,P,-275.311829
3910,P,-275.311829
3911,P,-583.42511
3912,P,-583.42511
3913,P,-587.452271
3914,P,-587.452271
3915,P,-764.575073
3916,P,-764.575073
3917,P,-790.588257
3918,P,-790.588257
3919,P,259.888977
3920,P,259.888977
3921,P,262.251984
3922,P,262.251984
3923,P,488.471039
3924,P,488.471039
3925,P,433.105835
3926,P,433.105835
3927,P,419.436432
3928,P,419.436432
3929,P,267.050903
3930,P,267.050903
3931,P,-2443.19434
3932,P,-2443.19434
3933,P,390.313141
3934,P,390.313141
3935,P,-442.44516
3936,P,-442.44516
3937,P,375.141663
3938,P,375.141663
3939,P,377.853851
3940,P,377.853851
3941,P,-391.539154
3942,P,-391.539154
3943,P,-391.539154
3944,P,-648.17572
3945,P,-648.17572
3946,P,-631.09198
3947,P,-631.09198
3948,P,-772.190491
3949,P,-772.190491
3950,P,-770.72998
3951,P,-770.72998
3952,P,-311.328217
3953,P,-311.328217
3954,P,-311.328217
3955,P,-571.536987
3956,P,-571.536987
3957,P,-574.351685
3958,P,-574.351685
3959,P,-808.563599
3960,P,-808.563599
3961,P,-801.37384
3962,P,-801.37384
3963,P,401.375366
3964,P,401.375366
3965,P,403.815948
3966,P,403.815948
3967,P,422.075012
3968,P,422.075012
3969,P,-224.153122
3970,P,-224.153122
3971,P,-252.292358
3972,P,-252.292358
3973,P,-222.62825
3974,P,-222.62825
3975,P,-234.11673
3976,P,-234.11673
3977,P,-245.239105
3978,P,-245.239105
3979,P,-266.416321
3980,P,-266.416321
3981,P,278.168549
3982,P,278.168549
3983,P,277.554047
3984,P,277.554047
3985,P,244.369202
3986,P,244.369202
3987,P,-471.990082
3988,P,-471.990082
3989,P,-471.990082
3990,P,-702.150085
3991,P,-702.150085
3992,P,-700.821899
3993,P,-700.821899
3994,P,-838.391663
3995,P,-838.391663
3996,P,-843.292419
3997,P,-843.292419
3998,P,-465.280579
3999,P,-465.280579
4000,P,-465.280579
4001,P,-697.020142
4002,P,-697.020142
4003,P,-700.432312
4004,P,-700.432312
4005,P,-854.370728
4006,P,-854.370728
4007,P,-853.537231
4008,P,-853.537231
4009,P,288.680939
4010,P,288.680939
4011,P,289.088989
4012,P,289.088989
4013,P,451.398346
4014,P,451.398346
4015,P,366.751007
4016,P,366.751007
4017,P,-225.935013
4018,P,-225.935013
4019,P,-216.878204
4020,P,-216.878204
4021,P,-230.202011
4022,P,-230.202011
4023,P,-247.509445
4024,P,-247.509445
4025,P,250.036041
4026,P,250.036041
4027,P,286.125946
4028,P,286.125946
4029,P,283.769928
4030,P,283.769928
4031,P,257.127289
4032,P,257.127289
4033,P,-455.933044
4034,P,-455.933044
4035,P,-455.933044
4036,P,-677.095825
4037,P,-677.095825
4038,P,-688.183594
4039,P,-688.183594
4040,P,-860.070435
4041,P,-860.070435
4042,P,-831.732422
4043,P,-831.732422
4044,P,-461.242889
4045,P,-461.242889
4046,P,-461.242889
4047,P,-698.436096
4048,P,-698.436096
4049,P,-688.877808
4050,P,-688.877808
4051,P,-817.326233
4052,P,-817.326233
4053,P,-849.015564
4054,P,-849.015564
4055,P,319.340363
4056,P,319.340363
4057,P,299.014862
4058,P,299.014862
4059,P,523.291992
4060,P,523.291992
4061,P,475.209351
4062,P,475.209351
4063,P,683.885559
4064,P,683.885559
4065,P,-1619.47888
4066,P,-1619.47888
4067,P,350.141693
4068,P,350.141693
4069,P,-2591.79126
4070,P,-2591.79126
4071,P,-1690.12231
4072,P,-1690.12231
4073,P,420.497864
4074,P,420.497864
4075,P,403.399078
4076,P,403.399078
4077,P,-243.173492
4078,P,-243.173492
4079,P,-243.173492
4080,P,-547.715515
4081,P,-547.715515
4082,P,-538.335693
4083,P,-538.335693
4084,P,-764.988647
4085,P,-764.988647
4086,P,-759.135254
4087,P,-759.135254
4088,P,-302.402039
4089,P,-302.402039
4090,P,-302.402039
4091,P,-537.213074
4092,P,-537.213074
4093,P,-534.874573
4094,P,-534.874573
4095,P,-768.736084
4096,P,-768.736084
4097,P,-772.658752
4098,P,-772.658752
4099,P,292.835876
4100,P,292.835876
4101,P,283.595245
4102,P,283.595245
4103,P,754.375244
4104,P,754.375244
4105,P,612.673279
4106,P,612.673279
4107,P,619.06781
4108,P,619.06781
4109,P,-591.284058
4110,P,-591.284058
4111,P,-799.027588
4112,P,-799.027588
4113,P,-497.366577
4114,P,-497.366577
4115,P,-630.023193
4116,P,-630.023193
4117,P,559.815857
4118,P,559.815857
4119,P,533.800781
4120,P,533.800781
4121,P,596.204163
4122,P,596.204163
4123,P,-260.913483
4124,P,-260.913483
4125,P,-260.913483
4126,P,-559.404297
4127,P,-559.404297
4128,P,-579.467163
4129,P,-579.467163
4130,P,-787.679626
4131,P,-787.679626
4132,P,-785.899292
4133,P,-785.899292
4134,P,-262.753662
4135,P,-262.753662
4136,P,-262.753662
4137,P,-578.266174
4138,P,-578.266174
4139,P,-574.759521
4140,P,-574.759521
4141,P,-746.516785
4142,P,-746.516785
4143,P,-776.921753
4144,P,-776.921753
4145,P,1167.23425
4146,P,1167.23425
4147,P,1099.82361
4148,P,1099.82361
4149,P,1207.9978
4150,P,1207.9978
4151,P,1180.57288
4152,P,1180.57288
4153,P,1658.83704
4154,P,1658.83704
4155,P,1658.83704
4156,P,1175.20923
4157,P,1175.20923
4158,P,787.627625
4159,P,787.627625
4160,P,1185.50769
4161,P,1185.50769
4162,P,1608.20581
4163,P,1608.20581
4164,P,170.065765
4165,P,170.065765
4166,P,1818.65039
4167,P,1818.65039
4168,P,702.161621
4169,P,702.161621
4170,P,1057.65051
4171,P,1057.65051
4172,P,1127.41089
4173,P,1127.41089
4174,P,1581.54968
4175,P,1581.54968
4176,P,1046.24902
4177,P,1046.24902
4178,P,1519.55908
4179,P,1519.55908
4180,P,-1479.31189
4181,P,-1479.31189
4182,P,-1251.96289
4183,P,-1251.96289
4184,P,-1262.39526
4185,P,-1262.39526
4186,P,996.145203
4187,P,996.145203
4188,P,1342.63928
4189,P,1342.63928
4190,P,929.898926
4191,P,929.898926
4192,P,451.980591
4193,P,451.980591
4194,P,871.717651
4195,P,871.717651
4196,P,577.353333
4197,P,577.353333
4198,P,326.859406
4199,P,326.859406
4200,P,391.986633
4201,P,391.986633
4202,P,-1303.16577
4203,P,-1303.16577
4204,P,246.163574
4205,P,246.163574
4206,P,288.34552
4207,P,288.34552
4208,P,230.542923
4209,P,230.542923
4210,P,278.04483
4211,P,278.04483
4212,P,314.79837
4213,P,314.79837
4214,P,254.875076
4215,P,254.875076
4216,P,331.513275
4217,P,331.513275
4218,P,297.49646
4219,P,297.49646
4220,P,282.004181
4221,P,282.004181
4222,P,-1325.63696
4223,P,-1325.63696
4224,P,-1277.63831
4225,P,-1277.63831
4226,P,327.43985
4227,P,327.43985
4228,P,364.089905
4229,P,364.089905
4230,P,312.571625
4231,P,312.571625
4232,P,220.384323
4233,P,220.384323
4234,P,275.014343
4235,P,275.014343
4236,P,231.873474
4237,P,231.873474
4238,P,-1597.05371
4239,P,-1597.05371
4240,P,-1292.54077
4241,P,-1292.54077
4242,P,222.870712
4243,P,222.870712
4244,P,289.939606
4245,P,289.939606
4246,P,219.5383
4247,P,219.5383
4248,P,205.401505
4249,P,205.401505
4250,P,277.862335
4251,P,277.862335
4252,P,215.084915
4253,P,215.084915
4254,P,197.292603
4255,P,197.292603
4256,P,-1183.10681
4257,P,-1183.10681
4258,P,-1384.21497
4259,P,-1384.21497
4260,P,-1582.36609
4261,P,-1582.36609
4262,P,330.557617
4263,P,330.557617
4264,P,397.963501
4265,P,397.963501
4266,P,338.59787
4267,P,338.59787
4268,P,339.013397
4269,P,339.013397
4270,P,379.316559
4271,P,379.316559
4272,P,344.033203
4273,P,344.033203
4274,P,330.03833
4275,P,330.03833
4276,P,335.309174
4277,P,335.309174
4278,P,-1233.95276
4279,P,-1233.95276
4280,P,235.854126
4281,P,235.854126
4282,P,263.9263
4283,P,263.9263
4284,P,268.181976
4285,P,268.181976
4286,P,212.617752
4287,P,212.617752
4288,P,262.374847
4289,P,262.374847
4290,P,221.675476
4291,P,221.675476
4292,P,284.781219
4293,P,284.781219
4294,P,243.893234
4295,P,243.893234
4296,P,181.660355
4297,P,181.660355
4298,P,-1433.50183
4299,P,-1433.50183
4300,P,184.911972
4301,P,184.911972
4302,P,269.234558
4303,P,269.234558
4304,P,203.597977
4305,P,203.597977
4306,P,203.654022
4307,P,203.654022
4308,P,271.673401
4309,P,271.673401
4310,P,179.126816
4311,P,179.126816
4312,P,280.858826
4313,P,280.858826
4314,P,-1386.23755
4315,P,-1386.23755
4316,P,-1580.20825
4317,P,-1580.20825
4318,P,-1300.20776
4319,P,-1300.20776
4320,P,340.341309
4321,P,340.341309
4322,P,407.008301
4323,P,407.008301
4324,P,350.607971
4325,P,350.607971
4326,P,349.924316
4327,P,349.924316
4328,P,394.426941
4329,P,394.426941
4330,P,355.710754
4331,P,355.710754
4332,P,340.321747
4333,P,340.321747
4334,P,-1573.49146
4335,P,-1573.49146
4336,P,226.101944
4337,P,226.101944
4338,P,291.116028
4339,P,291.116028
4340,P,227.849365
4341,P,227.849365
4342,P,210.992218
4343,P,210.992218
4344,P,282.220642
4345,P,282.220642
4346,P,209.777634
4347,P,209.777634
4348,P,199.642914
4349,P,199.642914
4350,P,204.960403
4351,P,204.960403
4352,P,318.943787
4353,P,318.943787
4354,P,358.952148
4355,P,358.952148
4356,P,303.518524
4357,P,303.518524
4358,P,216.87326
4359,P,216.87326
4360,P,264.632782
4361,P,264.632782
4362,P,226.432953
4363,P,226.432953
4364,P,193.425842
4365,P,193.425842
4366,P,209.521606
4367,P,209.521606
4368,P,-1394.92615
4369,P,-1394.92615
4370,P,233.089279
4371,P,233.089279
4372,P,293.22406
4373,P,293.22406
4374,P,224.51828
4375,P,224.51828
4376,P,284.278259
4377,P,284.278259
4378,P,321.62326
4379,P,321.62326
4380,P,242.817322
4381,P,242.817322
4382,P,318.181641
4383,P,318.181641
4384,P,-1255.38196
4385,P,-1255.38196
4386,P,-1260.32837
4387,P,-1260.32837
4388,P,-1290.00793
4389,P,-1290.00793
4390,P,1013.9527
4391,P,1013.9527
4392,P,1338.75317
4393,P,1338.75317
4394,P,947.826721
4395,P,947.826721
4396,P,454.459564
4397,P,454.459564
4398,P,895.289978
4399,P,895.289978
4400,P,585.781067
4401,P,585.781067
4402,P,387.458038
4403,P,387.458038
4404,P,-10.2323799
4405,P,-10.2323799
4406,P,285.496857
4407,P,285.496857
4408,P,1146.80005
4409,P,1146.80005
4410,P,1082.94824
4411,P,1082.94824
4412,P,1134.7251
4413,P,1134.7251
4414,P,887.692627
4415,P,887.692627
4416,P,2362.56226
4417,P,2362.56226
4418,P,2362.56226
4419,P,1176.32996
4420,P,1176.32996
4421,P,1207.22046
4422,P,1207.22046
4423,P,-48.2015877
4424,P,-48.2015877
4425,P,-14.112936
4426,P,-14.112936
4427,P,-126.961639
4428,P,-126.961639
4429,P,1121.89526
4430,P,1121.89526
4431,P,680.892944
4432,P,680.892944
4433,P,1155.5011
4434,P,1155.5011
4435,P,1149.64954
4436,P,1149.64954
4437,P,559.477783
4438,P,559.477783
4439,P,556.228577
4440,P,556.228577
4441,P,556.228577
4442,P,1590.01001
4443,P,1590.01001
4444,P,1636.43884
4445,P,1636.43884
4446,P,1590.90979
4447,P,1590.90979
4448,P,1606.18811
4449,P,1606.18811
4450,P,-1533.25464
4451,P,-1533.25464
4452,P,-957.683167
4453,P,-957.683167
4454,P,-780.633118
4455,P,-780.633118
4456,P,-974.448914
4457,P,-974.448914
4458,P,-956.074219
4459,P,-956.074219
4460,P,-777.403381
4461,P,-777.403381
4462,P,-977.747681
4463,P,-977.747681
4464,P,-961.89325
4465,P,-961.89325
4466,P,-764.119324
4467,P,-764.119324
4468,P,-968.440369
4469,P,-968.440369
4470,P,-1269.90198
4471,P,-1269.90198
4472,P,-1540.0094
4473,P,-1540.0094
4474,P,-776.155823
4475,P,-776.155823
4476,P,-973.81427
4477,P,-973.81427
4478,P,-951.018555
4479,P,-951.018555
4480,P,1085.29419
4481,P,1085.29419
4482,P,1255.24658
4483,P,1255.24658
4484,P,735.164551
4485,P,735.164551
4486,P,837.289246
4487,P,837.289246
4488,P,950.275085
4489,P,950.275085
4490,P,665.534729
4491,P,665.534729
4492,P,963.6604
4493,P,963.6604
4494,P,646.310059
4495,P,646.310059
4496,P,490.476746
4497,P,490.476746
4498,P,707.683289
4499,P,707.683289
4500,P,389.789764
4501,P,389.789764
4502,P,402.261902
4503,P,402.261902
4504,P,511.390533
4505,P,511.390533
4506,P,334.665253
4507,P,334.665253
4508,P,409.536591
4509,P,409.536591
4510,P,484.889038
4511,P,484.889038
4512,P,-1361.96533
4513,P,-1361.96533
4514,P,-914.7995
4515,P,-914.7995
4516,P,-750.187195
4517,P,-750.187195
4518,P,-911.979492
4519,P,-911.979492
4520,P,-927.742737
4521,P,-927.742737
4522,P,-783.8125
4523,P,-783.8125
4524,P,-923.956238
4525,P,-923.956238
4526,P,-945.453064
4527,P,-945.453064
4528,P,-785.430725
4529,P,-785.430725
4530,P,-930.221558
4531,P,-930.221558
4532,P,-1340.83508
4533,P,-1340.83508
4534,P,-758.372681
4535,P,-758.372681
4536,P,-931.674255
4537,P,-931.674255
4538,P,-926.070984
4539,P,-926.070984
4540,P,245.389496
4541,P,245.389496
4542,P,287.222839
4543,P,287.222839
4544,P,232.66391
4545,P,232.66391
4546,P,213.657822
4547,P,213.657822
4548,P,255.140503
4549,P,255.140503
4550,P,266.430969
4551,P,266.430969
4552,P,313.492767
4553,P,313.492767
4554,P,249.795181
4555,P,249.795181
4556,P,238.575134
4557,P,238.575134
4558,P,259.049133
4559,P,259.049133
4560,P,296.723572
4561,P,296.723572
4562,P,307.764893
4563,P,307.764893
4564,P,289.710754
4565,P,289.710754
4566,P,283.279022
4567,P,283.279022
4568,P,273.460693
4569,P,273.460693
4570,P,275.921173
4571,P,275.921173
4572,P,-1298.20618
4573,P,-1298.20618
4574,P,-996.307739
4575,P,-996.307739
4576,P,-835.84314
4577,P,-835.84314
4578,P,-1006.11188
4579,P,-1006.11188
4580,P,-1004.60883
4581,P,-1004.60883
4582,P,-848.055969
4583,P,-848.055969
4584,P,-988.66925
4585,P,-988.66925
4586,P,-979.414551
4587,P,-979.414551
4588,P,-821.254761
4589,P,-821.254761
4590,P,-989.78479
4591,P,-989.78479
4592,P,-1579.08752
4593,P,-1579.08752
4594,P,-840.994141
4595,P,-840.994141
4596,P,-1005.27222
4597,P,-1005.27222
4598,P,-982.585632
4599,P,-982.585632
4600,P,250.745544
4601,P,250.745544
4602,P,345.766174
4603,P,345.766174
4604,P,278.976135
4605,P,278.976135
4606,P,296.930054
4607,P,296.930054
4608,P,245.514191
4609,P,245.514191
4610,P,209.507385
4611,P,209.507385
4612,P,290.68045
4613,P,290.68045
4614,P,261.627472
4615,P,261.627472
4616,P,245.446732
4617,P,245.446732
4618,P,218.765167
4619,P,218.765167
4620,P,190.090775
4621,P,190.090775
4622,P,177.315659
4623,P,177.315659
4624,P,176.786942
4625,P,176.786942
4626,P,187.394089
4627,P,187.394089
4628,P,182.270813
4629,P,182.270813
4630,P,-1332.79321
4631,P,-1332.79321
4632,P,-1005.55145
4633,P,-1005.55145
4634,P,-860.874329
4635,P,-860.874329
4636,P,-1000.10284
4637,P,-1000.10284
4638,P,-1003.02417
4639,P,-1003.02417
4640,P,-842.354736
4641,P,-842.354736
4642,P,-1009.6579
4643,P,-1009.6579
4644,P,-998.998718
4645,P,-998.998718
4646,P,-839.479858
4647,P,-839.479858
4648,P,-1006.91156
4649,P,-1006.91156
4650,P,-1293.40186
4651,P,-1293.40186
4652,P,-860.182068
4653,P,-860.182068
4654,P,-1008.31201
4655,P,-1008.31201
4656,P,-1002.164
4657,P,-1002.164
4658,P,218.044312
4659,P,218.044312
4660,P,287.601074
4661,P,287.601074
4662,P,221.2939
4663,P,221.2939
4664,P,220.368927
4665,P,220.368927
4666,P,215.701675
4667,P,215.701675
4668,P,205.520447
4669,P,205.520447
4670,P,282.487427
4671,P,282.487427
4672,P,227.931396
4673,P,227.931396
4674,P,225.942642
4675,P,225.942642
4676,P,209.558334
4677,P,209.558334
4678,P,188.194077
4679,P,188.194077
4680,P,191.613922
4681,P,191.613922
4682,P,187.777374
4683,P,187.777374
4684,P,189.754089
4685,P,189.754089
4686,P,196.358749
4687,P,196.358749
4688,P,188.360794
4689,P,188.360794
4690,P,190.999527
4691,P,190.999527
4692,P,194.389893
4693,P,194.389893
4694,P,-1252.50891
4695,P,-1252.50891
4696,P,-929.259583
4697,P,-929.259583
4698,P,-778.478699
4699,P,-778.478699
4700,P,-921.442932
4701,P,-921.442932
4702,P,-933.368958
4703,P,-933.368958
4704,P,-766.802124
4705,P,-766.802124
4706,P,-926.555908
4707,P,-926.555908
4708,P,-959.174133
4709,P,-959.174133
4710,P,-796.321899
4711,P,-796.321899
4712,P,-974.059998
4713,P,-974.059998
4714,P,-1615.20715
4715,P,-1615.20715
4716,P,-1297.17358
4717,P,-1297.17358
4718,P,-774.728088
4719,P,-774.728088
4720,P,-941.404541
4721,P,-941.404541
4722,P,-965.600159
4723,P,-965.600159
4724,P,262.976837
4725,P,262.976837
4726,P,401.906006
4727,P,401.906006
4728,P,345.66861
4729,P,345.66861
4730,P,342.280975
4731,P,342.280975
4732,P,265.809906
4733,P,265.809906
4734,P,274.236603
4735,P,274.236603
4736,P,390.137787
4737,P,390.137787
4738,P,345.638611
4739,P,345.638611
4740,P,345.197083
4741,P,345.197083
4742,P,271.840179
4743,P,271.840179
4744,P,302.797058
4745,P,302.797058
4746,P,303.493591
4747,P,303.493591
4748,P,283.901733
4749,P,283.901733
4750,P,335.789154
4751,P,335.789154
4752,P,335.114441
4753,P,335.114441
4754,P,290.085236
4755,P,290.085236
4756,P,-1488.87646
4757,P,-1488.87646
4758,P,-980.973022
4759,P,-980.973022
4760,P,-784.767334
4761,P,-784.767334
4762,P,-977.827393
4763,P,-977.827393
4764,P,-965.538208
4765,P,-965.538208
4766,P,-792.302185
4767,P,-792.302185
4768,P,-954.227722
4769,P,-954.227722
4770,P,-931.03125
4771,P,-931.03125
4772,P,-780.985046
4773,P,-780.985046
4774,P,-928.651978
4775,P,-928.651978
4776,P,-1477.67957
4777,P,-1477.67957
4778,P,-774.547302
4779,P,-774.547302
4780,P,-943.633789
4781,P,-943.633789
4782,P,-949.160645
4783,P,-949.160645
4784,P,252.518387
4785,P,252.518387
4786,P,271.365448
4787,P,271.365448
4788,P,185.997528
4789,P,185.997528
4790,P,206.316422
4791,P,206.316422
4792,P,260.984711
4793,P,260.984711
4794,P,252.282257
4795,P,252.282257
4796,P,268.941284
4797,P,268.941284
4798,P,220.967468
4799,P,220.967468
4800,P,213.853348
4801,P,213.853348
4802,P,253.052246
4803,P,253.052246
4804,P,214.367493
4805,P,214.367493
4806,P,254.773804
4807,P,254.773804
4808,P,317.068359
4809,P,317.068359
4810,P,312.860718
4811,P,312.860718
4812,P,273.395966
4813,P,273.395966
4814,P,279.243408
4815,P,279.243408
4816,P,-976.89563
4817,P,-976.89563
4818,P,-788.051331
4819,P,-788.051331
4820,P,-975.476746
4821,P,-975.476746
4822,P,-795.24054
4823,P,-795.24054
4824,P,-964.53479
4825,P,-964.53479
4826,P,-953.757874
4827,P,-953.757874
4828,P,-930.890076
4829,P,-930.890076
4830,P,-780.961792
4831,P,-780.961792
4832,P,-927.144592
4833,P,-927.144592
4834,P,-1203.60278
4835,P,-1203.60278
4836,P,-774.619751
4837,P,-774.619751
4838,P,-942.63855
4839,P,-942.63855
4840,P,-948.655334
4841,P,-948.655334
4842,P,250.253891
4843,P,250.253891
4844,P,264.13385
4845,P,264.13385
4846,P,225.867264
4847,P,225.867264
4848,P,206.397888
4849,P,206.397888
4850,P,237.050491
4851,P,237.050491
4852,P,248.47319
4853,P,248.47319
4854,P,264.449463
4855,P,264.449463
4856,P,192.322418
4857,P,192.322418
4858,P,198.983322
4859,P,198.983322
4860,P,243.129135
4861,P,243.129135
4862,P,333.532837
4863,P,333.532837
4864,P,228.105042
4865,P,228.105042
4866,P,261.666656
4867,P,261.666656
4868,P,318.229065
4869,P,318.229065
4870,P,274.684601
4871,P,274.684601
4872,P,282.484558
4873,P,282.484558
4874,P,-931.189758
4875,P,-931.189758
4876,P,-778.615051
4877,P,-778.615051
4878,P,-920.742676
4879,P,-920.742676
4880,P,-769.529175
4881,P,-769.529175
4882,P,-934.694946
4883,P,-934.694946
4884,P,-927.841736
4885,P,-927.841736
4886,P,-960.398071
4887,P,-960.398071
4888,P,-795.07666
4889,P,-795.07666
4890,P,-975.702087
4891,P,-975.702087
4892,P,-1626.74719
4893,P,-1626.74719
4894,P,-775.403503
4895,P,-775.403503
4896,P,-943.106201
4897,P,-943.106201
4898,P,-968.261719
4899,P,-968.261719
4900,P,271.856171
4901,P,271.856171
4902,P,407.282104
4903,P,407.282104
4904,P,356.518494
4905,P,356.518494
4906,P,352.857208
4907,P,352.857208
4908,P,276.900787
4909,P,276.900787
4910,P,285.030579
4911,P,285.030579
4912,P,406.483429
4913,P,406.483429
4914,P,357.776154
4915,P,357.776154
4916,P,357.94989
4917,P,357.94989
4918,P,284.078705
4919,P,284.078705
4920,P,298.698364
4921,P,298.698364
4922,P,298.30191
4923,P,298.30191
4924,P,292.947601
4925,P,292.947601
4926,P,336.668304
4927,P,336.668304
4928,P,337.305664
4929,P,337.305664
4930,P,294.381409
4931,P,294.381409
4932,P,-1005.26959
4933,P,-1005.26959
4934,P,-855.974915
4935,P,-855.974915
4936,P,-995.236816
4937,P,-995.236816
4938,P,-1343.46997
4939,P,-1343.46997
4940,P,-1328.78088
4941,P,-1328.78088
4942,P,-841.494019
4943,P,-841.494019
4944,P,-1020.72595
4945,P,-1020.72595
4946,P,-1016.77698
4947,P,-1016.77698
4948,P,-998.836487
4949,P,-998.836487
4950,P,-843.668274
4951,P,-843.668274
4952,P,-1018.80328
4953,P,-1018.80328
4954,P,-1313.67957
4955,P,-1313.67957
4956,P,-842.241272
4957,P,-842.241272
4958,P,-997.197876
4959,P,-997.197876
4960,P,-1018.13007
4961,P,-1018.13007
4962,P,213.304932
4963,P,213.304932
4964,P,288.552551
4965,P,288.552551
4966,P,219.560257
4967,P,219.560257
4968,P,222.818039
4969,P,222.818039
4970,P,209.823273
4971,P,209.823273
4972,P,204.956604
4973,P,204.956604
4974,P,285.155853
4975,P,285.155853
4976,P,217.203491
4977,P,217.203491
4978,P,212.978806
4979,P,212.978806
4980,P,206.93663
4981,P,206.93663
4982,P,186.331009
4983,P,186.331009
4984,P,190.05246
4985,P,190.05246
4986,P,197.891632
4987,P,197.891632
4988,P,189.953293
4989,P,189.953293
4990,P,196.863129
4991,P,196.863129
4992,P,195.698715
4993,P,195.698715
4994,P,-1000.9834
4995,P,-1000.9834
4996,P,-837.740051
4997,P,-837.740051
4998,P,-1006.33832
4999,P,-1006.33832
5000,P,-855.081055
5001,P,-855.081055
5002,P,-999.109131
5003,P,-999.109131
5004,P,-995.960083
5005,P,-995.960083
5006,P,-994.572266
5007,P,-994.572266
5008,P,-836.662537
5009,P,-836.662537
5010,P,-981.391907
5011,P,-981.391907
5012,P,-825.9729
5013,P,-825.9729
5014,P,-988.160583
5015,P,-988.160583
5016,P,-995.307495
5017,P,-995.307495
5018,P,246.239914
5019,P,246.239914
5020,P,338.833374
5021,P,338.833374
5022,P,269.842377
5023,P,269.842377
5024,P,285.390869
5025,P,285.390869
5026,P,240.270416
5027,P,240.270416
5028,P,206.03775
5029,P,206.03775
5030,P,280.777832
5031,P,280.777832
5032,P,253.495377
5033,P,253.495377
5034,P,239.256973
5035,P,239.256973
5036,P,214.97197
5037,P,214.97197
5038,P,183.445297
5039,P,183.445297
5040,P,182.060715
5041,P,182.060715
5042,P,187.044434
5043,P,187.044434
5044,P,183.498795
5045,P,183.498795
5046,P,-912.66095
5047,P,-912.66095
5048,P,-749.079407
5049,P,-749.079407
5050,P,-908.520447
5051,P,-908.520447
5052,P,-780.588257
5053,P,-780.588257
5054,P,-922.281555
5055,P,-922.281555
5056,P,-918.336304
5057,P,-918.336304
5058,P,-941.258972
5059,P,-941.258972
5060,P,-782.704651
5061,P,-782.704651
5062,P,-926.286133
5063,P,-926.286133
5064,P,-1031.87305
5065,P,-1031.87305
5066,P,-755.962952
5067,P,-755.962952
5068,P,-926.368225
5069,P,-926.368225
5070,P,-922.230591
5071,P,-922.230591
5072,P,267.80957
5073,P,267.80957
5074,P,278.749969
5075,P,278.749969
5076,P,259.685364
5077,P,259.685364
5078,P,278.2771
5079,P,278.2771
5080,P,266.213959
5081,P,266.213959
5082,P,277.551025
5083,P,277.551025
5084,P,299.084198
5085,P,299.084198
5086,P,292.716797
5087,P,292.716797
5088,P,278.112244
5089,P,278.112244
5090,P,274.011047
5091,P,274.011047
5092,P,303.064148
5093,P,303.064148
5094,P,333.440643
5095,P,333.440643
5096,P,333.102448
5097,P,333.102448
5098,P,298.999786
5099,P,298.999786
5100,P,287.467041
5101,P,287.467041
5102,P,294.864929
5103,P,294.864929
5104,P,-960.560059
5105,P,-960.560059
5106,P,-779.232605
5107,P,-779.232605
5108,P,-977.552429
5109,P,-977.552429
5110,P,-777.811462
5111,P,-777.811462
5112,P,-956.917542
5113,P,-956.917542
5114,P,-979.264832
5115,P,-979.264832
5116,P,-963.55603
5117,P,-963.55603
5118,P,-766.483643
5119,P,-766.483643
5120,P,-971.302917
5121,P,-971.302917
5122,P,-1274.13293
5123,P,-1274.13293
5124,P,-776.816772
5125,P,-776.816772
5126,P,-972.858459
5127,P,-972.858459
5128,P,-952.290344
5129,P,-952.290344
5130,P,1091.50537
5131,P,1091.50537
5132,P,1249.35864
5133,P,1249.35864
5134,P,754.590332
5135,P,754.590332
5136,P,831.14386
5137,P,831.14386
5138,P,960.016968
5139,P,960.016968
5140,P,657.955933
5141,P,657.955933
5142,P,996.680725
5143,P,996.680725
5144,P,678.197693
5145,P,678.197693
5146,P,543.833618
5147,P,543.833618
5148,P,705.453918
5149,P,705.453918
5150,P,379.370117
5151,P,379.370117
5152,P,394.065979
5153,P,394.065979
5154,P,509.748749
5155,P,509.748749
5156,P,330.442139
5157,P,330.442139
5158,P,414.004486
5159,P,414.004486
5160,P,480.68103
5161,P,480.68103
5162,P,1172.58777
5163,P,1172.58777
5164,P,1536.85669
5165,P,1536.85669
5166,P,1302.92908
5167,P,1302.92908
5168,P,1173.26025
5169,P,1173.26025
5170,P,1530.38123
5171,P,1530.38123
5172,P,1269.78589
5173,P,1269.78589
5174,P,1412.63953
5175,P,1412.63953
5176,P,1546.50879
5177,P,1546.50879
5178,P,1545.46265
5179,P,1545.46265
5180,P,1435.69421
5181,P,1435.69421
5182,P,1555.08496
5183,P,1555.08496
5184,P,2059.92847
5185,P,2059.92847
5186,P,2074.29541
5187,P,2074.29541
5188,P,2074.29541
5189,P,2149.09058
5190,P,2149.09058
5191,P,1893.54175
5192,P,1893.54175
5193,P,1404.54089
5194,P,1404.54089
5195,P,1553.00342
5196,P,1553.00342
5197,P,1598.16992
5198,P,1598.16992
5199,P,1504.51526
5200,P,1504.51526
5201,P,1550.11841
5202,P,1550.11841
5203,P,1997.62024
5204,P,1997.62024
5205,P,2232.47314
5206,P,2232.47314
5207,P,2232.47314
5208,P,2324.29712
5209,P,2324.29712
5210,P,1918.87012
5211,P,1918.87012
5212,P,-328.091003
5213,P,-328.091003
5214,P,-570.506775
5215,P,-570.506775
5216,P,-331.701385
5217,P,-331.701385
5218,P,-570.987061
5219,P,-570.987061
5220,P,-333.392303
5221,P,-333.392303
5222,P,-330.658447
5223,P,-330.658447
5224,P,-320.612152
5225,P,-320.612152
5226,P,-581.20636
5227,P,-581.20636
5228,P,-321.503235
5229,P,-321.503235
5230,P,-323.438385
5231,P,-323.438385
5232,P,-586.264832
5233,P,-586.264832
5234,P,-327.089966
5235,P,-327.089966
5236,P,495.006165
5237,P,495.006165
5238,P,433.797241
5239,P,433.797241
5240,P,-327.042419
5241,P,-327.042419
5242,P,-551.550354
5243,P,-551.550354
5244,P,-327.963165
5245,P,-327.963165
5246,P,-540.233276
5247,P,-540.233276
5248,P,-288.928192
5249,P,-288.928192
5250,P,-299.658569
5251,P,-299.658569
5252,P,-233.362686
5253,P,-233.362686
5254,P,-518.241089
5255,P,-518.241089
5256,P,-265.313232
5257,P,-265.313232
5258,P,-309.032043
5259,P,-309.032043
5260,P,-545.184326
5261,P,-545.184326
5262,P,-314.451935
5263,P,-314.451935
5264,P,324.147675
5265,P,324.147675
5266,P,316.274994
5267,P,316.274994
5268,P,304.053192
5269,P,304.053192
5270,P,-552.036133
5271,P,-552.036133
5272,P,-680.319885
5273,P,-680.319885
5274,P,-556.256897
5275,P,-556.256897
5276,P,-683.71582
5277,P,-683.71582
5278,P,-552.400391
5279,P,-552.400391
5280,P,-552.531494
5281,P,-552.531494
5282,P,-561.45166
5283,P,-561.45166
5284,P,-692.999817
5285,P,-692.999817
5286,P,-558.933289
5287,P,-558.933289
5288,P,-561.68396
5289,P,-561.68396
5290,P,-691.614014
5291,P,-691.614014
5292,P,-564.481567
5293,P,-564.481567
5294,P,174.682495
5295,P,174.682495
5296,P,175.870071
5297,P,175.870071
5298,P,-569.321228
5299,P,-569.321228
5300,P,-700.385803
5301,P,-700.385803
5302,P,-573.544617
5303,P,-573.544617
5304,P,-703.031372
5305,P,-703.031372
5306,P,-573.865112
5307,P,-573.865112
5308,P,-577.526001
5309,P,-577.526001
5310,P,-570.729675
5311,P,-570.729675
5312,P,-699.658691
5313,P,-699.658691
5314,P,-573.037231
5315,P,-573.037231
5316,P,-572.220276
5317,P,-572.220276
5318,P,-699.806946
5319,P,-699.806946
5320,P,-572.354309
5321,P,-572.354309
5322,P,207.7052
5323,P,207.7052
5324,P,198.835175
5325,P,198.835175
5326,P,192.344742
5327,P,192.344742
5328,P,-533.915222
5329,P,-533.915222
5330,P,-635.27771
5331,P,-635.27771
5332,P,-486.062805
5333,P,-486.062805
5334,P,-606.964844
5335,P,-606.964844
5336,P,-473.676147
5337,P,-473.676147
5338,P,-450.004211
5339,P,-450.004211
5340,P,-345.868042
5341,P,-345.868042
5342,P,-537.294556
5343,P,-537.294556
5344,P,-328.125702
5345,P,-328.125702
5346,P,-337.909088
5347,P,-337.909088
5348,P,-529.703979
5349,P,-529.703979
5350,P,-310.789856
5351,P,-310.789856
5352,P,290.629181
5353,P,290.629181
5354,P,315.179626
5355,P,315.179626
5356,P,-353.057526
5357,P,-353.057526
5358,P,-587.973511
5359,P,-587.973511
5360,P,-348.460297
5361,P,-348.460297
5362,P,-585.726074
5363,P,-585.726074
5364,P,-335.943054
5365,P,-335.943054
5366,P,-336.489319
5367,P,-336.489319
5368,P,-322.130646
5369,P,-322.130646
5370,P,-578.976135
5371,P,-578.976135
5372,P,-322.662598
5373,P,-322.662598
5374,P,-332.199371
5375,P,-332.199371
5376,P,-580.852356
5377,P,-580.852356
5378,P,-327.356049
5379,P,-327.356049
5380,P,313.946625
5381,P,313.946625
5382,P,330.937897
5383,P,330.937897
5384,P,333.562408
5385,P,333.562408
5386,P,-355.118896
5387,P,-355.118896
5388,P,-588.070435
5389,P,-588.070435
5390,P,-350.23645
5391,P,-350.23645
5392,P,-335.474426
5393,P,-335.474426
5394,P,-585.41626
5395,P,-585.41626
5396,P,-337.510529
5397,P,-337.510529
5398,P,-321.343292
5399,P,-321.343292
5400,P,-582.808044
5401,P,-582.808044
5402,P,-321.186829
5403,P,-321.186829
5404,P,-330.259308
5405,P,-330.259308
5406,P,-584.25769
5407,P,-584.25769
5408,P,-326.054443
5409,P,-326.054443
5410,P,336.320129
5411,P,336.320129
5412,P,311.829651
5413,P,311.829651
5414,P,291.256561
5415,P,291.256561
5416,P,420.404053
5417,P,420.404053
5418,P,390.908295
5419,P,390.908295
5420,P,-534.593384
5421,P,-534.593384
5422,P,-634.550903
5423,P,-634.550903
5424,P,-486.717041
5425,P,-486.717041
5426,P,-472.793823
5427,P,-472.793823
5428,P,-607.833191
5429,P,-607.833191
5430,P,-449.685425
5431,P,-449.685425
5432,P,-339.526306
5433,P,-339.526306
5434,P,-538.024658
5435,P,-538.024658
5436,P,-319.216705
5437,P,-319.216705
5438,P,-341.363586
5439,P,-341.363586
5440,P,-541.649353
5441,P,-541.649353
5442,P,-293.59726
5443,P,-293.59726
5444,P,253.078766
5445,P,253.078766
5446,P,230.099777
5447,P,230.099777
5448,P,248.660599
5449,P,248.660599
5450,P,-570.059631
5451,P,-570.059631
5452,P,-703.411316
5453,P,-703.411316
5454,P,-572.900146
5455,P,-572.900146
5456,P,-572.126587
5457,P,-572.126587
5458,P,-700.300354
5459,P,-700.300354
5460,P,-573.798462
5461,P,-573.798462
5462,P,-568.230957
5463,P,-568.230957
5464,P,-699.193909
5465,P,-699.193909
5466,P,-568.964539
5467,P,-568.964539
5468,P,-564.304321
5469,P,-564.304321
5470,P,-699.283997
5471,P,-699.283997
5472,P,-563.360352
5473,P,-563.360352
5474,P,204.531555
5475,P,204.531555
5476,P,202.653534
5477,P,202.653534
5478,P,211.16983
5479,P,211.16983
5480,P,179.736938
5481,P,179.736938
5482,P,188.384308
5483,P,188.384308
5484,P,-556.271729
5485,P,-556.271729
5486,P,-680.735168
5487,P,-680.735168
5488,P,-559.481323
5489,P,-559.481323
5490,P,-561.081482
5491,P,-561.081482
5492,P,-682.760559
5493,P,-682.760559
5494,P,-557.145935
5495,P,-557.145935
5496,P,-567.36554
5497,P,-567.36554
5498,P,-693.707947
5499,P,-693.707947
5500,P,-563.329224
5501,P,-563.329224
5502,P,-565.519897
5503,P,-565.519897
5504,P,-693.251099
5505,P,-693.251099
5506,P,-566.770935
5507,P,-566.770935
5508,P,198.11615
5509,P,198.11615
5510,P,218.106674
5511,P,218.106674
5512,P,203.722992
5513,P,203.722992
5514,P,-327.459015
5515,P,-327.459015
5516,P,-550.839966
5517,P,-550.839966
5518,P,-330.045685
5519,P,-330.045685
5520,P,-292.122955
5521,P,-292.122955
5522,P,-541.454529
5523,P,-541.454529
5524,P,-302.731995
5525,P,-302.731995
5526,P,-242.635696
5527,P,-242.635696
5528,P,-521.797119
5529,P,-521.797119
5530,P,-273.29068
5531,P,-273.29068
5532,P,-317.585602
5533,P,-317.585602
5534,P,-546.797424
5535,P,-546.797424
5536,P,-320.971893
5537,P,-320.971893
5538,P,328.727295
5539,P,328.727295
5540,P,344.126617
5541,P,344.126617
5542,P,310.672852
5543,P,310.672852
5544,P,319.776459
5545,P,319.776459
5546,P,334.547028
5547,P,334.547028
5548,P,-327.955231
5549,P,-327.955231
5550,P,-571.867615
5551,P,-571.867615
5552,P,-332.337311
5553,P,-332.337311
5554,P,-330.34964
5555,P,-330.34964
5556,P,-571.347351
5557,P,-571.347351
5558,P,-329.161865
5559,P,-329.161865
5560,P,-319.392395
5561,P,-319.392395
5562,P,-578.192688
5563,P,-578.192688
5564,P,-320.415009
5565,P,-320.415009
5566,P,-321.680908
5567,P,-321.680908
5568,P,-584.274719
5569,P,-584.274719
5570,P,-324.983368
5571,P,-324.983368
5572,P,720.21698
5573,P,720.21698
5574,P,1028.875
5575,P,1028.875
5576,P,769.074646
5577,P,769.074646
5578,P,1638.97009
5579,P,1638.97009
5580,P,2072.67163
5581,P,2072.67163
5582,P,1551.99304
5583,P,1551.99304
5584,P,661.704773
5585,P,661.704773
5586,P,1368.24695
5587,P,1368.24695
5588,P,1132.13818
5589,P,1132.13818
5590,P,1214.52979
5591,P,1214.52979
5592,P,1662.90308
5593,P,1662.90308
5594,P,1447.62512
5595,P,1447.62512
5596,P,1325.52637
5597,P,1325.52637
5598,P,1232.37207
5599,P,1232.37207
5600,P,1688.85852
5601,P,1688.85852
5602,P,1709.56177
5603,P,1709.56177
5604,P,1336.57605
5605,P,1336.57605
5606,P,1418.58167
5607,P,1418.58167
5608,P,1847.22791
5609,P,1847.22791
5610,P,1785.73352
5611,P,1785.73352
5612,P,1482.2395
5613,P,1482.2395
5614,P,1446.46899
5615,P,1446.46899
5616,P,1791.50879
5617,P,1791.50879
5618,P,1827.21948
5619,P,1827.21948
5620,P,1463.45239
5621,P,1463.45239
5622,P,1453.35571
5623,P,1453.35571
5624,P,1750.57275
5625,P,1750.57275
5626,P,1820.84326
5627,P,1820.84326
5628,P,1415.85706
5629,P,1415.85706
5630,P,1423.91357
5631,P,1423.91357
5632,P,1734.92627
5633,P,1734.92627
5634,P,1814.45312
5635,P,1814.45312
5636,P,1408.22668
5637,P,1408.22668
5638,P,1451.77844
5639,P,1451.77844
5640,P,1781.82275
5641,P,1781.82275
5642,P,1770.51038
5643,P,1770.51038
5644,P,1458.93225
5645,P,1458.93225
5646,P,1450.71692
5647,P,1450.71692
5648,P,1819.44739
5649,P,1819.44739
5650,P,1824.6759
5651,P,1824.6759
5652,P,1467.15552
5653,P,1467.15552
5654,P,1460.18787
5655,P,1460.18787
5656,P,1687.11206
5657,P,1687.11206
5658,P,1782.32837
5659,P,1782.32837
5660,P,1360.14001
5661,P,1360.14001
5662,P,1432.13342
5663,P,1432.13342
5664,P,1625.34399
5665,P,1625.34399
5666,P,1433.65417
5667,P,1433.65417
5668,P,1343.54309
5669,P,1343.54309
5670,P,1225.38477
5671,P,1225.38477
5672,P,654.622375
5673,P,654.622375
5674,P,1342.5896
5675,P,1342.5896
5676,P,1105.39661
5677,P,1105.39661
5678,P,1193.59314
5679,P,1193.59314
5680,P,-19.5147667
5681,P,-19.5147667
5682,P,-85.2058487
5683,P,-85.2058487
5684,P,-1028.65369
5685,P,-1028.65369
5686,P,-1027.24683
5687,P,-1027.24683
5688,P,-414.046844
5689,P,-414.046844
5690,P,-471.883698
5691,P,-471.883698
5692,P,-549.311462
5693,P,-549.311462
5694,P,-555.620728
5695,P,-555.620728
5696,P,-1169.26501
5697,P,-1169.26501
5698,P,-1148.82385
5699,P,-1148.82385
5700,P,-571.224915
5701,P,-571.224915
5702,P,-564.473816
5703,P,-564.473816
5704,P,-1205.56677
5705,P,-1205.56677
5706,P,-1136.92126
5707,P,-1136.92126
5708,P,-528.409912
5709,P,-528.409912
5710,P,-516.629028
5711,P,-516.629028
5712,P,-1140.8053
5713,P,-1140.8053
5714,P,-992.824707
5715,P,-992.824707
5716,P,-422.782043
5717,P,-422.782043
5718,P,-397.125824
5719,P,-397.125824
5720,P,-929.240601
5721,P,-929.240601
5722,P,-416.939819
5723,P,-416.939819
5724,P,-354.727753
5725,P,-354.727753
5726,P,672.547302
5727,P,672.547302
5728,P,-531.550049
5729,P,-531.550049
5730,P,-536.721069
5731,P,-536.721069
5732,P,740.356262
5733,P,740.356262
5734,P,-557.878906
5735,P,-557.878906
5736,P,-565.401855
5737,P,-565.401855
5738,P,692.603333
5739,P,692.603333
5740,P,-533.890747
5741,P,-533.890747
5742,P,-538.528625
5743,P,-538.528625
5744,P,731.096191
5745,P,731.096191
5746,P,-441.725281
5747,P,-441.725281
5748,P,-477.952209
5749,P,-477.952209
5750,P,739.307129
5751,P,739.307129
5752,P,-9.60925102
5753,P,-9.60925102
5754,P,-115.975754
5755,P,-115.975754
5756,P,945.456177
5757,P,945.456177
5758,P,725.489929
5759,P,725.489929
5760,P,1054.46643
5761,P,1054.46643
5762,P,217.966919
5763,P,217.966919
5764,P,3.50378895
5765,P,3.50378895
5766,P,-875.114258
5767,P,-875.114258
5768,P,-314.834351
5769,P,-314.834351
5770,P,-164.2146
5771,P,-164.2146
5772,P,-177.517288
5773,P,-177.517288
5774,P,-54.8986816
5775,P,-54.8986816
5776,P,-300.429779
5777,P,-300.429779
5778,P,-358.591278
5779,P,-358.591278
5780,P,-1081.03149
5781,P,-1081.03149
5782,P,-507.228882
5783,P,-507.228882
5784,P,-473.185333
5785,P,-473.185333
5786,P,-382.666199
5787,P,-382.666199
5788,P,-355.468445
5789,P,-355.468445
5790,P,-428.311951
5791,P,-428.311951
5792,P,-437.025208
5793,P,-437.025208
5794,P,-555.636719
5795,P,-555.636719
5796,P,-544.214966
5797,P,-544.214966
5798,P,-445.268127
5799,P,-445.268127
5800,P,-428.994934
5801,P,-428.994934
5802,P,-459.16156
5803,P,-459.16156
5804,P,-443.020081
5805,P,-443.020081
5806,P,-1101.19763
5807,P,-1101.19763
5808,P,-552.998962
5809,P,-552.998962
5810,P,-558.396729
5811,P,-558.396729
5812,P,-443.475677
5813,P,-443.475677
5814,P,-447.125824
5815,P,-447.125824
5816,P,-412.401337
5817,P,-412.401337
5818,P,-405.206024
5819,P,-405.206024
5820,P,-1081.03894
5821,P,-1081.03894
5822,P,-505.246246
5823,P,-505.246246
5824,P,-524.46637
5825,P,-524.46637
5826,P,-1118.25671
5827,P,-1118.25671
5828,P,-382.801697
5829,P,-382.801697
5830,P,-401.670044
5831,P,-401.670044
5832,P,-301.703217
5833,P,-301.703217
5834,P,-260.736053
5835,P,-260.736053
5836,P,-766.430115
5837,P,-766.430115
5838,P,-318.781403
5839,P,-318.781403
5840,P,-374.979492
5841,P,-374.979492
5842,P,-949.093933
5843,P,-949.093933
5844,P,-188.688873
5845,P,-188.688873
5846,P,-254.39769
5847,P,-254.39769
5848,P,718.507019
5849,P,718.507019
5850,P,1040.33789
5851,P,1040.33789
5852,P,547.263062
5853,P,547.263062
5854,P,889.354126
5855,P,889.354126
5856,P,1197.95386
5857,P,1197.95386
5858,P,1300.77307
5859,P,1300.77307
5860,P,1600.99841
5861,P,1600.99841
5862,P,1547.00793
5863,P,1547.00793
5864,P,1324.0061
5865,P,1324.0061
5866,P,1298.23755
5867,P,1298.23755
5868,P,894.735535
5869,P,894.735535
5870,P,-319.721222
5871,P,-319.721222
5872,P,-359.873505
5873,P,-359.873505
5874,P,-302.323395
5875,P,-302.323395
5876,P,-248.696838
5877,P,-248.696838
5878,P,-202.743484
5879,P,-202.743484
5880,P,-241.756546
5881,P,-241.756546
5882,P,721.325256
5883,P,721.325256
5884,P,1693.17358
5885,P,1693.17358
5886,P,1686.55701
5887,P,1686.55701
5888,P,1350.8584
5889,P,1350.8584
5890,P,1353.83716
5891,P,1353.83716
5892,P,1768.82678
5893,P,1768.82678
5894,P,1784.31921
5895,P,1784.31921
5896,P,1428.31519
5897,P,1428.31519
5898,P,1429.34094
5899,P,1429.34094
5900,P,-516.21283
5901,P,-516.21283
5902,P,-525.708008
5903,P,-525.708008
5904,P,-420.536407
5905,P,-420.536407
5906,P,-408.558838
5907,P,-408.558838
5908,P,-388.361298
5909,P,-388.361298
5910,P,-408.955292
5911,P,-408.955292
5912,P,730.41687
5913,P,730.41687
5914,P,1840.73889
5915,P,1840.73889
5916,P,1846.06152
5917,P,1846.06152
5918,P,1465.95093
5919,P,1465.95093
5920,P,1454.34058
5921,P,1454.34058
5922,P,1769.47815
5923,P,1769.47815
5924,P,1741.02466
5925,P,1741.02466
5926,P,1426.35693
5927,P,1426.35693
5928,P,1425.32214
5929,P,1425.32214
5930,P,705.904419
5931,P,705.904419
5932,P,-539.042297
5933,P,-539.042297
5934,P,-566.651245
5935,P,-566.651245
5936,P,-449.860748
5937,P,-449.860748
5938,P,-449.513184
5939,P,-449.513184
5940,P,-427.393188
5941,P,-427.393188
5942,P,-451.374359
5943,P,-451.374359
5944,P,686.220703
5945,P,686.220703
5946,P,1762.99377
5947,P,1762.99377
5948,P,1782.34949
5949,P,1782.34949
5950,P,1424.45032
5951,P,1424.45032
5952,P,1461.57996
5953,P,1461.57996
5954,P,1830.24817
5955,P,1830.24817
5956,P,1805.14697
5957,P,1805.14697
5958,P,1455.61804
5959,P,1455.61804
5960,P,1475.53845
5961,P,1475.53845
5962,P,-545.060486
5963,P,-545.060486
5964,P,-535.468079
5965,P,-535.468079
5966,P,-419.817596
5967,P,-419.817596
5968,P,-424.910065
5969,P,-424.910065
5970,P,-425.631989
5971,P,-425.631989
5972,P,-424.949219
5973,P,-424.949219
5974,P,725.712708
5975,P,725.712708
5976,P,1829.60938
5977,P,1829.60938
5978,P,1807.68896
5979,P,1807.68896
5980,P,1450.03174
5981,P,1450.03174
5982,P,1438.27954
5983,P,1438.27954
5984,P,1697.93445
5985,P,1697.93445
5986,P,1752.33679
5987,P,1752.33679
5988,P,1394.20056
5989,P,1394.20056
5990,P,1411.59607
5991,P,1411.59607
5992,P,723.787292
5993,P,723.787292
5994,P,-508.625031
5995,P,-508.625031
5996,P,-483.945496
5997,P,-483.945496
5998,P,-314.825653
5999,P,-314.825653
6000,P,-350.996033
6001,P,-350.996033
6002,P,-382.993256
6003,P,-382.993256
6004,P,-353.372192
6005,P,-353.372192
6006,P,767.086853
6007,P,767.086853
6008,P,1596.32996
6009,P,1596.32996
6010,P,1515.29517
6011,P,1515.29517
6012,P,1296.3241
6013,P,1296.3241
6014,P,1253.00952
6015,P,1253.00952
6016,P,521.445435
6017,P,521.445435
6018,P,888.291382
6019,P,888.291382
6020,P,1189.02808
6021,P,1189.02808
6022,P,1300.03052
6023,P,1300.03052
6024,P,-303.051971
6025,P,-303.051971
6026,P,-157.8172
6027,P,-157.8172
6028,P,239.771408
6029,P,239.771408
6030,P,-19.8746395
6031,P,-19.8746395
6032,P,-165.374634
6033,P,-165.374634
6034,P,-54.5354004
6035,P,-54.5354004
6036,P,997.212341
6037,P,997.212341
6038,P,-84.5878906
6039,P,-84.5878906
6040,P,-50.9921951
6041,P,-50.9921951
6042,P,834.584045
6043,P,834.584045
6044,P,44.6002922
6045,P,44.6002922
6046,P,-55.4918633
6047,P,-55.4918633
6048,P,474.789673
6049,P,474.789673
6050,P,-380.307953
6051,P,-380.307953
6052,P,240.759201
6053,P,240.759201
6054,P,-376.412567
6055,P,-376.412567
6056,P,-398.204742
6057,P,-398.204742
6058,P,241.522598
6059,P,241.522598
6060,P,-399.09967
6061,P,-399.09967
6062,P,238.854111
6063,P,238.854111
6064,P,-347.109985
6065,P,-347.109985
6066,P,283.157837
6067,P,283.157837
6068,P,-373.171783
6069,P,-373.171783
6070,P,-37.927063
6071,P,-37.927063
6072,P,-41.7649536
6073,P,-41.7649536
6074,P,504.957489
6075,P,504.957489
6076,P,23.5073719
6077,P,23.5073719
6078,P,2809.03833
6079,P,2809.03833
6080,P,1892.17737
6081,P,1892.17737
6082,P,-884.229004
6083,P,-884.229004
6084,P,2579.22925
6085,P,2579.22925
6086,P,2062.60913
6087,P,2062.60913
6088,P,-890.56897
6089,P,-890.56897
6090,P,4268.01904
6091,P,4268.01904
6092,P,3419.13647
6093,P,3419.13647
6094,P,-508.745483
6095,P,-508.745483
6096,P,-1485.2616
6097,P,-1485.2616
6098,P,-1470.02771
6099,P,-1470.02771
6100,P,4287.92773
6101,P,4287.92773
6102,P,3349.02124
6103,P,3349.02124
6104,P,-516.971802
6105,P,-516.971802
6106,P,325.545502
6107,P,325.545502
6108,P,581.479126
6109,P,581.479126
6110,P,4367.55225
6111,P,4367.55225
6112,P,3472.87085
6113,P,3472.87085
6114,P,-496.875214
6115,P,-496.875214
6116,P,4346.60693
6117,P,4346.60693
6118,P,3510.06519
6119,P,3510.06519
6120,P,-483.607361
6121,P,-483.607361
6122,P,4569.17139
6123,P,4569.17139
6124,P,3847.66138
6125,P,3847.66138
6126,P,-356.26123
6127,P,-356.26123
6128,P,-1630.67139
6129,P,-1630.67139
6130,P,-1633.04065
6131,P,-1633.04065
6132,P,4640.44971
6133,P,4640.44971
6134,P,3869.32593
6135,P,3869.32593
6136,P,-367.741669
6137,P,-367.741669
6138,P,615.939453
6139,P,615.939453
6140,P,615.348145
6141,P,615.348145
6142,P,4682.43018
6143,P,4682.43018
6144,P,3904.51978
6145,P,3904.51978
6146,P,-361.477295
6147,P,-361.477295
6148,P,4593.62988
6149,P,4593.62988
6150,P,3850.60693
6151,P,3850.60693
6152,P,-353.887939
6153,P,-353.887939
6154,P,4752.84326
6155,P,4752.84326
6156,P,3953.32007
6157,P,3953.32007
6158,P,-327.199524
6159,P,-327.199524
6160,P,-1557.12158
6161,P,-1557.12158
6162,P,-1602.61938
6163,P,-1602.61938
6164,P,4798.40771
6165,P,4798.40771
6166,P,3958.64941
6167,P,3958.64941
6168,P,-331.97348
6169,P,-331.97348
6170,P,600.205078
6171,P,600.205078
6172,P,578.285583
6173,P,578.285583
6174,P,4735.2627
6175,P,4735.2627
6176,P,3931.91846
6177,P,3931.91846
6178,P,-330.364258
6179,P,-330.364258
6180,P,4761.98047
6181,P,4761.98047
6182,P,3944.01782
6183,P,3944.01782
6184,P,-328.970917
6185,P,-328.970917
6186,P,4637.62256
6187,P,4637.62256
6188,P,3882.37012
6189,P,3882.37012
6190,P,-346.603455
6191,P,-346.603455
6192,P,-1608.11572
6193,P,-1608.11572
6194,P,-1597.08679
6195,P,-1597.08679
6196,P,4629.97119
6197,P,4629.97119
6198,P,3838.05249
6199,P,3838.05249
6200,P,-335.634949
6201,P,-335.634949
6202,P,582.796448
6203,P,582.796448
6204,P,614.751526
6205,P,614.751526
6206,P,4623.19629
6207,P,4623.19629
6208,P,3834.20337
6209,P,3834.20337
6210,P,-348.811859
6211,P,-348.811859
6212,P,4630.03027
6213,P,4630.03027
6214,P,3822.2688
6215,P,3822.2688
6216,P,-368.437653
6217,P,-368.437653
6218,P,4298.09961
6219,P,4298.09961
6220,P,3461.49487
6221,P,3461.49487
6222,P,-491.128326
6223,P,-491.128326
6224,P,-1520.69141
6225,P,-1520.69141
6226,P,-1565.49243
6227,P,-1565.49243
6228,P,4337.48779
6229,P,4337.48779
6230,P,3543.69458
6231,P,3543.69458
6232,P,-475.171234
6233,P,-475.171234
6234,P,624.766052
6235,P,624.766052
6236,P,627.38324
6237,P,627.38324
6238,P,4219.46729
6239,P,4219.46729
6240,P,3422.45361
6241,P,3422.45361
6242,P,-511.557983
6243,P,-511.557983
6244,P,4295.05859
6245,P,4295.05859
6246,P,3366.26221
6247,P,3366.26221
6248,P,-530.433167
6249,P,-530.433167
6250,P,2778.10742
6251,P,2778.10742
6252,P,1868.83948
6253,P,1868.83948
6254,P,-891.715149
6255,P,-891.715149
6256,P,-994.096375
6257,P,-994.096375
6258,P,-1172.62158
6259,P,-1172.62158
6260,P,2043.33118
6261,P,2043.33118
6262,P,-899.929932
6263,P,-899.929932
6264,P,2557.85498
6265,P,2557.85498
6266,P,581.649292
6267,P,581.649292
6268,P,341.880402
6269,P,341.880402
6270,P,-502.764435
6271,P,-502.764435
6272,P,32.7749405
6273,P,32.7749405
6274,P,95.3482513
6275,P,95.3482513
6276,P,122.013885
6277,P,122.013885
6278,P,146.526932
6279,P,146.526932
6280,P,97.9181976
6281,P,97.9181976
6282,P,-37.6432152
6283,P,-37.6432152
6284,P,20.0029144
6285,P,20.0029144
6286,P,25.7036362
6287,P,25.7036362
6288,P,-44.3400002
6289,P,-44.3400002
6290,P,26.4290466
6291,P,26.4290466
6292,P,-42.7873383
6293,P,-42.7873383
6294,P,513.598022
6295,P,513.598022
6296,P,-41.2779465
6297,P,-41.2779465
6298,P,-189.961472
6299,P,-189.961472
6300,P,-143.15715
6301,P,-143.15715
6302,P,-177.729431
6303,P,-177.729431
6304,P,-150.523041
6305,P,-150.523041
6306,P,-227.351501
6307,P,-227.351501
6308,P,-196.89389
6309,P,-196.89389
6310,P,-194.96933
6311,P,-194.96933
6312,P,-231.583054
6313,P,-231.583054
6314,P,-114.416382
6315,P,-114.416382
6316,P,-346.311798
6317,P,-346.311798
6318,P,294.071533
6319,P,294.071533
6320,P,-370.965698
6321,P,-370.965698
6322,P,-262.753845
6323,P,-262.753845
6324,P,-235.628647
6325,P,-235.628647
6326,P,-268.013306
6327,P,-268.013306
6328,P,-228.390137
6329,P,-228.390137
6330,P,-283.445129
6331,P,-283.445129
6332,P,-246.909531
6333,P,-246.909531
6334,P,-247.30632
6335,P,-247.30632
6336,P,-285.8078
6337,P,-285.8078
6338,P,-179.235382
6339,P,-179.235382
6340,P,-398.526764
6341,P,-398.526764
6342,P,246.706741
6343,P,246.706741
6344,P,-397.353943
6345,P,-397.353943
6346,P,251.409683
6347,P,251.409683
6348,P,-288.68103
6349,P,-288.68103
6350,P,-252.961609
6351,P,-252.961609
6352,P,-288.988281
6353,P,-288.988281
6354,P,-251.206375
6355,P,-251.206375
6356,P,-288.20224
6357,P,-288.20224
6358,P,-248.100159
6359,P,-248.100159
6360,P,-248.155807
6361,P,-248.155807
6362,P,-251.050903
6363,P,-251.050903
6364,P,-287.305573
6365,P,-287.305573
6366,P,-183.936523
6367,P,-183.936523
6368,P,-382.511292
6369,P,-382.511292
6370,P,255.037216
6371,P,255.037216
6372,P,-376.897552
6373,P,-376.897552
6374,P,263.746429
6375,P,263.746429
6376,P,-167.554565
6377,P,-167.554565
6378,P,-259.12207
6379,P,-259.12207
6380,P,-230.074493
6381,P,-230.074493
6382,P,-266.30188
6383,P,-266.30188
6384,P,-221.653107
6385,P,-221.653107
6386,P,-244.962921
6387,P,-244.962921
6388,P,-205.838013
6389,P,-205.838013
6390,P,-205.432312
6391,P,-205.432312
6392,P,-208.893372
6393,P,-208.893372
6394,P,-239.905121
6395,P,-239.905121
6396,P,-200.021118
6397,P,-200.021118
6398,P,33.9984894
6399,P,33.9984894
6400,P,-55.0685234
6401,P,-55.0685234
6402,P,467.771454
6403,P,467.771454
6404,P,-108.896881
6405,P,-108.896881
6406,P,-156.355164
6407,P,-156.355164
6408,P,-131.861572
6409,P,-131.861572
6410,P,-167.947952
6411,P,-167.947952
6412,P,-122.718201
6413,P,-122.718201
6414,P,-69.3153687
6415,P,-69.3153687
6416,P,37.4494133
6417,P,37.4494133
6418,P,4.78828287
6419,P,4.78828287
6420,P,-6.20629692
6421,P,-6.20629692
6422,P,-56.9169197
6423,P,-56.9169197
6424,P,-12.2348118
6425,P,-12.2348118
6426,P,-83.517334
6427,P,-83.517334
6428,P,-53.9918175
6429,P,-53.9918175
6430,P,572.546875
6431,P,572.546875
6432,P,3493.36768
6433,P,3493.36768
6434,P,2847.72607
6435,P,2847.72607
6436,P,-732.20343
6437,P,-732.20343
6438,P,2748.04785
6439,P,2748.04785
6440,P,-751.480591
6441,P,-751.480591
6442,P,3591.99683
6443,P,3591.99683
6444,P,1340.47961
6445,P,1340.47961
6446,P,1783.02368
6447,P,1783.02368
6448,P,1075.11328
6449,P,1075.11328
6450,P,1201.58691
6451,P,1201.58691
6452,P,1163.14893
6453,P,1163.14893
6454,P,1209.07178
6455,P,1209.07178
6456,P,1164.78223
6457,P,1164.78223
6458,P,976.270996
6459,P,976.270996
6460,P,3796.04517
6461,P,3796.04517
6462,P,2942.20898
6463,P,2942.20898
6464,P,-694.911438
6465,P,-694.911438
6466,P,-1330.27124
6467,P,-1330.27124
6468,P,3015.49927
6469,P,3015.49927
6470,P,-662.43457
6471,P,-662.43457
6472,P,3714.24634
6473,P,3714.24634
6474,P,-1396.4491
6475,P,-1396.4491
6476,P,1648.1687
6477,P,1648.1687
6478,P,1950.99597
6479,P,1950.99597
6480,P,1464.77893
6481,P,1464.77893
6482,P,1261.1853
6483,P,1261.1853
6484,P,1324.12622
6485,P,1324.12622
6486,P,1089.70056
6487,P,1089.70056
6488,P,1180.18005
6489,P,1180.18005
6490,P,1005.22522
6491,P,1005.22522
6492,P,1247.45764
6493,P,1247.45764
6494,P,1005.73175
6495,P,1005.73175
6496,P,284.914581
6497,P,284.914581
6498,P,82.7724152
6499,P,82.7724152
6500,P,218.963226
6501,P,218.963226
6502,P,74.8100281
6503,P,74.8100281
6504,P,-172.817932
6505,P,-172.817932
6506,P,532.622131
6507,P,532.622131
6508,P,60.367424
6509,P,60.367424
6510,P,43.5988884
6511,P,43.5988884
6512,P,696.048767
6513,P,696.048767
6514,P,-156.286392
6515,P,-156.286392
6516,P,-127.542625
6517,P,-127.542625
6518,P,-166.200409
6519,P,-166.200409
6520,P,-121.802979
6521,P,-121.802979
6522,P,-80.111702
6523,P,-80.111702
6524,P,2.67841554
6525,P,2.67841554
6526,P,-60.475338
6527,P,-60.475338
6528,P,58.8522758
6529,P,58.8522758
6530,P,-13.642067
6531,P,-13.642067
6532,P,-265.462646
6533,P,-265.462646
6534,P,-66.8034744
6535,P,-66.8034744
6536,P,-89.0368881
6537,P,-89.0368881
6538,P,-84.2391663
6539,P,-84.2391663
6540,P,-74.9146957
6541,P,-74.9146957
6542,P,696.227661
6543,P,696.227661
6544,P,15.0185709
6545,P,15.0185709
6546,P,529.43811
6547,P,529.43811
6548,P,29.9164562
6549,P,29.9164562
6550,P,2294.05957
6551,P,2294.05957
6552,P,1660.5752
6553,P,1660.5752
6554,P,4467.28076
6555,P,4467.28076
6556,P,3728.90234
6557,P,3728.90234
6558,P,-417.678864
6559,P,-417.678864
6560,P,3743.67334
6561,P,3743.67334
6562,P,-422.423645
6563,P,-422.423645
6564,P,4537.33496
6565,P,4537.33496
6566,P,1703.14429
6567,P,1703.14429
6568,P,1249.35693
6569,P,1249.35693
6570,P,1346.12231
6571,P,1346.12231
6572,P,1036.81836
6573,P,1036.81836
6574,P,1385.92944
6575,P,1385.92944
6576,P,1347.4801
6577,P,1347.4801
6578,P,1032.67517
6579,P,1032.67517
6580,P,1079.50439
6581,P,1079.50439
6582,P,4579.40479
6583,P,4579.40479
6584,P,3751.86084
6585,P,3751.86084
6586,P,-388.227844
6587,P,-388.227844
6588,P,-1589.08728
6589,P,-1589.08728
6590,P,3802.25098
6591,P,3802.25098
6592,P,-389.371735
6593,P,-389.371735
6594,P,4595.41699
6595,P,4595.41699
6596,P,-1601.61133
6597,P,-1601.61133
6598,P,1771.30237
6599,P,1771.30237
6600,P,1742.20447
6601,P,1742.20447
6602,P,1386.32898
6603,P,1386.32898
6604,P,1443.63196
6605,P,1443.63196
6606,P,1329.82349
6607,P,1329.82349
6608,P,1077.42676
6609,P,1077.42676
6610,P,1428.41113
6611,P,1428.41113
6612,P,1046.10742
6613,P,1046.10742
6614,P,-95.5502777
6615,P,-95.5502777
6616,P,-103.782974
6617,P,-103.782974
6618,P,-110.12236
6619,P,-110.12236
6620,P,-88.6207047
6621,P,-88.6207047
6622,P,638.580627
6623,P,638.580627
6624,P,-134.550659
6625,P,-134.550659
6626,P,-159.241058
6627,P,-159.241058
6628,P,-156.976486
6629,P,-156.976486
6630,P,-138.254944
6631,P,-138.254944
6632,P,-239.141983
6633,P,-239.141983
6634,P,-264.13797
6635,P,-264.13797
6636,P,-223.75293
6637,P,-223.75293
6638,P,-260.645447
6639,P,-260.645447
6640,P,-229.98793
6641,P,-229.98793
6642,P,-243.87825
6643,P,-243.87825
6644,P,-206.504089
6645,P,-206.504089
6646,P,-239.862122
6647,P,-239.862122
6648,P,-201.621231
6649,P,-201.621231
6650,P,-205.636353
6651,P,-205.636353
6652,P,614.903625
6653,P,614.903625
6654,P,-167.739456
6655,P,-167.739456
6656,P,-180.884857
6657,P,-180.884857
6658,P,-189.30188
6659,P,-189.30188
6660,P,-163.131378
6661,P,-163.131378
6662,P,-143.922363
6663,P,-143.922363
6664,P,-164.99231
6665,P,-164.99231
6666,P,-146.900665
6667,P,-146.900665
6668,P,-166.868759
6669,P,-166.868759
6670,P,1848.22424
6671,P,1848.22424
6672,P,4650.20557
6673,P,4650.20557
6674,P,3888.37744
6675,P,3888.37744
6676,P,-324.894775
6677,P,-324.894775
6678,P,3934.0332
6679,P,3934.0332
6680,P,-331.134857
6681,P,-331.134857
6682,P,4713.52197
6683,P,4713.52197
6684,P,1802.20251
6685,P,1802.20251
6686,P,2423.36475
6687,P,2423.36475
6688,P,1362.15381
6689,P,1362.15381
6690,P,1090.47351
6691,P,1090.47351
6692,P,1461.01208
6693,P,1461.01208
6694,P,1457.88806
6695,P,1457.88806
6696,P,1359.15845
6697,P,1359.15845
6698,P,1065.63623
6699,P,1065.63623
6700,P,4609.34326
6701,P,4609.34326
6702,P,3915.21167
6703,P,3915.21167
6704,P,-310.786713
6705,P,-310.786713
6706,P,-1575.38513
6707,P,-1575.38513
6708,P,3936.13428
6709,P,3936.13428
6710,P,-305.14975
6711,P,-305.14975
6712,P,4698.6416
6713,P,4698.6416
6714,P,-1636.10596
6715,P,-1636.10596
6716,P,1731.24316
6717,P,1731.24316
6718,P,2435.77124
6719,P,2435.77124
6720,P,1796.00391
6721,P,1796.00391
6722,P,1320.84265
6723,P,1320.84265
6724,P,1430.06384
6725,P,1430.06384
6726,P,1056.74902
6727,P,1056.74902
6728,P,1318.37817
6729,P,1318.37817
6730,P,1125.14624
6731,P,1125.14624
6732,P,1415.39844
6733,P,1415.39844
6734,P,1068.70935
6735,P,1068.70935
6736,P,-169.680634
6737,P,-169.680634
6738,P,-195.125885
6739,P,-195.125885
6740,P,-186.445023
6741,P,-186.445023
6742,P,-173.949707
6743,P,-173.949707
6744,P,587.467834
6745,P,587.467834
6746,P,-183.233551
6747,P,-183.233551
6748,P,-204.150894
6749,P,-204.150894
6750,P,-206.395538
6751,P,-206.395538
6752,P,-185.103729
6753,P,-185.103729
6754,P,-288.529022
6755,P,-288.529022
6756,P,-247.407715
6757,P,-247.407715
6758,P,-285.958466
6759,P,-285.958466
6760,P,-253.871597
6761,P,-253.871597
6762,P,-289.107971
6763,P,-289.107971
6764,P,-247.636734
6765,P,-247.636734
6766,P,-284.123535
6767,P,-284.123535
6768,P,-238.081146
6769,P,-238.081146
6770,P,-251.826645
6771,P,-251.826645
6772,P,577.028137
6773,P,577.028137
6774,P,-190.814468
6775,P,-190.814468
6776,P,-206.077515
6777,P,-206.077515
6778,P,-215.301956
6779,P,-215.301956
6780,P,-186.110489
6781,P,-186.110489
6782,P,-189.13765
6783,P,-189.13765
6784,P,-207.071426
6785,P,-207.071426
6786,P,-184.768906
6787,P,-184.768906
6788,P,-208.794388
6789,P,-208.794388
6790,P,2236.49927
6791,P,2236.49927
6792,P,1740.87488
6793,P,1740.87488
6794,P,4623.31006
6795,P,4623.31006
6796,P,3891.87134
6797,P,3891.87134
6798,P,-310.177917
6799,P,-310.177917
6800,P,3932.35986
6801,P,3932.35986
6802,P,-315.436066
6803,P,-315.436066
6804,P,4685.91211
6805,P,4685.91211
6806,P,1781.53821
6807,P,1781.53821
6808,P,1348.01978
6809,P,1348.01978
6810,P,1406.57935
6811,P,1406.57935
6812,P,1078.89343
6813,P,1078.89343
6814,P,1422.55444
6815,P,1422.55444
6816,P,1367.5708
6817,P,1367.5708
6818,P,1083.44373
6819,P,1083.44373
6820,P,1124.06494
6821,P,1124.06494
6822,P,4663.13672
6823,P,4663.13672
6824,P,3926.71582
6825,P,3926.71582
6826,P,-312.14212
6827,P,-312.14212
6828,P,-1580.75623
6829,P,-1580.75623
6830,P,3881.28735
6831,P,3881.28735
6832,P,-327.514862
6833,P,-327.514862
6834,P,4659.01709
6835,P,4659.01709
6836,P,-1613.15356
6837,P,-1613.15356
6838,P,1829.51062
6839,P,1829.51062
6840,P,1816.29688
6841,P,1816.29688
6842,P,1387.79004
6843,P,1387.79004
6844,P,1459.84131
6845,P,1459.84131
6846,P,1362.37646
6847,P,1362.37646
6848,P,1080.93286
6849,P,1080.93286
6850,P,1461.23938
6851,P,1461.23938
6852,P,1105.50171
6853,P,1105.50171
6854,P,-189.794464
6855,P,-189.794464
6856,P,-213.988922
6857,P,-213.988922
6858,P,-211.024963
6859,P,-211.024963
6860,P,-187.679993
6861,P,-187.679993
6862,P,595.348999
6863,P,595.348999
6864,P,-185.13121
6865,P,-185.13121
6866,P,-207.330032
6867,P,-207.330032
6868,P,-210.227646
6869,P,-210.227646
6870,P,-188.034256
6871,P,-188.034256
6872,P,-228.262497
6873,P,-228.262497
6874,P,-272.03064
6875,P,-272.03064
6876,P,-230.507355
6877,P,-230.507355
6878,P,-268.237274
6879,P,-268.237274
6880,P,-238.332199
6881,P,-238.332199
6882,P,-281.605042
6883,P,-281.605042
6884,P,-247.569794
6885,P,-247.569794
6886,P,-285.144135
6887,P,-285.144135
6888,P,-252.14949
6889,P,-252.14949
6890,P,-242.318069
6891,P,-242.318069
6892,P,594.155823
6893,P,594.155823
6894,P,-174.800873
6895,P,-174.800873
6896,P,-192.134979
6897,P,-192.134979
6898,P,-197.091003
6899,P,-197.091003
6900,P,-169.343597
6901,P,-169.343597
6902,P,-183.016968
6903,P,-183.016968
6904,P,-207.388489
6905,P,-207.388489
6906,P,-183.484451
6907,P,-183.484451
6908,P,-201.546799
6909,P,-201.546799
6910,P,1827.86865
6911,P,1827.86865
6912,P,4540.95996
6913,P,4540.95996
6914,P,3765.54395
6915,P,3765.54395
6916,P,-420.067993
6917,P,-420.067993
6918,P,3734.3877
6919,P,3734.3877
6920,P,-416.285522
6921,P,-416.285522
6922,P,4455.70312
6923,P,4455.70312
6924,P,1798.41748
6925,P,1798.41748
6926,P,2408.2876
6927,P,2408.2876
6928,P,1377.33374
6929,P,1377.33374
6930,P,1092.30481
6931,P,1092.30481
6932,P,1467.66406
6933,P,1467.66406
6934,P,1446.89734
6935,P,1446.89734
6936,P,1369.16492
6937,P,1369.16492
6938,P,1085.50928
6939,P,1085.50928
6940,P,4513.25488
6941,P,4513.25488
6942,P,3712.46851
6943,P,3712.46851
6944,P,-414.85672
6945,P,-414.85672
6946,P,-1587.19275
6947,P,-1587.19275
6948,P,3688.50854
6949,P,3688.50854
6950,P,-404.69101
6951,P,-404.69101
6952,P,4522.55225
6953,P,4522.55225
6954,P,-1612.66614
6955,P,-1612.66614
6956,P,1652.16199
6957,P,1652.16199
6958,P,2359.80884
6959,P,2359.80884
6960,P,1758.5022
6961,P,1758.5022
6962,P,1282.625
6963,P,1282.625
6964,P,1357.32581
6965,P,1357.32581
6966,P,1052.30627
6967,P,1052.30627
6968,P,1351.58313
6969,P,1351.58313
6970,P,1049.38928
6971,P,1049.38928
6972,P,1405.87292
6973,P,1405.87292
6974,P,1124.86023
6975,P,1124.86023
6976,P,-163.123398
6977,P,-163.123398
6978,P,-190.207382
6979,P,-190.207382
6980,P,-180.140625
6981,P,-180.140625
6982,P,-168.129471
6983,P,-168.129471
6984,P,640.562988
6985,P,640.562988
6986,P,-143.527847
6987,P,-143.527847
6988,P,-161.241501
6989,P,-161.241501
6990,P,-166.796127
6991,P,-166.796127
6992,P,-142.441864
6993,P,-142.441864
6994,P,-189.640213
6995,P,-189.640213
6996,P,-147.374588
6997,P,-147.374588
6998,P,-181.085175
6999,P,-181.085175
7000,P,-151.827927
7001,P,-151.827927
7002,P,-229.227737
7003,P,-229.227737
7004,P,-194.522934
7005,P,-194.522934
7006,P,-231.404434
7007,P,-231.404434
7008,P,-124.444809
7009,P,-124.444809
7010,P,-193.081177
7011,P,-193.081177
7012,P,644.255615
7013,P,644.255615
7014,P,-95.8439789
7015,P,-95.8439789
7016,P,-108.855759
7017,P,-108.855759
7018,P,-111.110161
7019,P,-111.110161
7020,P,-91.1215591
7021,P,-91.1215591
7022,P,-132.42099
7023,P,-132.42099
7024,P,-155.785355
7025,P,-155.785355
7026,P,-135.269547
7027,P,-135.269547
7028,P,-149.995224
7029,P,-149.995224
7030,P,2190.41089
7031,P,2190.41089
7032,P,1631.15991
7033,P,1631.15991
7034,P,3769.73535
7035,P,3769.73535
7036,P,2935.52368
7037,P,2935.52368
7038,P,-705.775513
7039,P,-705.775513
7040,P,3002.99341
7041,P,3002.99341
7042,P,-678.423645
7043,P,-678.423645
7044,P,3715.9624
7045,P,3715.9624
7046,P,1430.04456
7047,P,1430.04456
7048,P,1284.11633
7049,P,1284.11633
7050,P,1330.45081
7051,P,1330.45081
7052,P,1080.48267
7053,P,1080.48267
7054,P,1233.94592
7055,P,1233.94592
7056,P,1170.0509
7057,P,1170.0509
7058,P,1017.63605
7059,P,1017.63605
7060,P,1014.24072
7061,P,1014.24072
7062,P,3507.49268
7063,P,3507.49268
7064,P,2835.10645
7065,P,2835.10645
7066,P,-750.846375
7067,P,-750.846375
7068,P,-1297.19482
7069,P,-1297.19482
7070,P,2732.93677
7071,P,2732.93677
7072,P,-765.994202
7073,P,-765.994202
7074,P,3605.50537
7075,P,3605.50537
7076,P,-1294.37109
7077,P,-1294.37109
7078,P,561.908691
7079,P,561.908691
7080,P,1327.36108
7081,P,1327.36108
7082,P,1047.38477
7083,P,1047.38477
7084,P,1152.40442
7085,P,1152.40442
7086,P,1155.17517
7087,P,1155.17517
7088,P,978.074524
7089,P,978.074524
7090,P,1187.06018
7091,P,1187.06018
7092,P,982.952393
7093,P,982.952393
7094,P,-66.79216
7095,P,-66.79216
7096,P,-96.6796646
7097,P,-96.6796646
7098,P,-87.5456467
7099,P,-87.5456467
7100,P,-79.0505295
7101,P,-79.0505295
7102,P,-169.143997
7103,P,-169.143997
7104,P,703.858093
7105,P,703.858093
7106,P,17.2900867
7107,P,17.2900867
7108,P,34.1781464
7109,P,34.1781464
7110,P,532.772827
7111,P,532.772827
7112,P,-8.04458523
7113,P,-8.04458523
7114,P,108.818634
7115,P,108.818634
7116,P,166.457062
7117,P,166.457062
7118,P,178.691422
7119,P,178.691422
7120,P,119.273834
7121,P,119.273834
7122,P,-27.3387165
7123,P,-27.3387165
7124,P,24.9588013
7125,P,24.9588013
7126,P,-42.6935043
7127,P,-42.6935043
7128,P,9.91956711
7129,P,9.91956711
7130,P,34.7353439
7131,P,34.7353439
7132,P,-236.995789
7133,P,-236.995789
7134,P,340.416473
7135,P,340.416473
7136,P,142.271713
7137,P,142.271713
7138,P,290.968018
7139,P,290.968018
7140,P,110.981094
7141,P,110.981094
7142,P,553.394897
7143,P,553.394897
7144,P,67.0457535
7145,P,67.0457535
7146,P,707.236267
7147,P,707.236267
7148,P,52.0635033
7149,P,52.0635033
7150,P,-56.1014481
7151,P,-56.1014481
7152,P,-1086.71472
7153,P,-1086.71472
7154,P,-76.8499069
7155,P,-76.8499069
7156,P,-85.6136703
7157,P,-85.6136703
7158,P,623.381104
7159,P,623.381104
7160,P,-44.8825493
7161,P,-44.8825493
7162,P,424.880737
7163,P,424.880737
7164,P,1096.79675
7165,P,1096.79675
7166,P,530.025879
7167,P,530.025879
7168,P,695.087097
7169,P,695.087097
7170,P,1486.65198
7171,P,1486.65198
7172,P,735.297852
7173,P,735.297852
7174,P,-241.802811
7175,P,-241.802811
7176,P,-241.802811
7177,P,395.699066
7178,P,395.699066
7179,P,395.699066
7180,P,-139.56604
7181,P,-139.56604
7182,P,-139.56604
7183,P,915.143066
7184,P,915.143066
7185,P,915.143066
7186,P,2413.69531
7187,P,2413.69531
7188,P,1001.90198
7189,P,1001.90198
7190,P,-1513.43384
7191,P,-1513.43384
7192,P,1607.32788
7193,P,1607.32788
7194,P,742.57312
7195,P,742.57312
7196,P,262.206421
7197,P,262.206421
7198,P,262.206421
7199,P,60.1173439
7200,P,60.1173439
7201,P,60.1173439
7202,P,-445.173553
7203,P,-445.173553
7204,P,-462.177368
7205,P,-462.177368
7206,P,-6.22454643
7207,P,-6.22454643
7208,P,464.137115
7209,P,464.137115
7210,P,11.4305382
7211,P,11.4305382
7212,P,428.356079
7213,P,428.356079
7214,P,341.689758
7215,P,341.689758
7216,P,695.535706
7217,P,695.535706
7218,P,292.595245
7219,P,292.595245
7220,P,299.52771
7221,P,299.52771
7222,P,686.036377
7223,P,686.036377
7224,P,-1191.70691
7225,P,-1191.70691
7226,P,378.631622
7227,P,378.631622
7228,P,-241.069763
7229,P,-241.069763
7230,P,-241.069763
7231,P,-95.0024414
7232,P,-95.0024414
7233,P,-95.0024414
7234,P,-303.67218
7235,P,-303.67218
7236,P,-303.67218
7237,P,-70.1619186
7238,P,-70.1619186
7239,P,-70.1619186
7240,P,657.795349
7241,P,657.795349
7242,P,329.31839
7243,P,329.31839
7244,P,-1459.84106
7245,P,-1459.84106
7246,P,671.653809
7247,P,671.653809
7248,P,-1377.04309
7249,P,-1377.04309
7250,P,387.198639
7251,P,387.198639
7252,P,-108.609825
7253,P,-108.609825
7254,P,-108.609825
7255,P,-79.0479507
7256,P,-79.0479507
7257,P,-79.0479507
7258,P,-534.331665
7259,P,-534.331665
7260,P,-1194.40454
7261,P,-1194.40454
7262,P,-555.443848
7263,P,-555.443848
7264,P,-385.749908
7265,P,-385.749908
7266,P,241.919739
7267,P,241.919739
7268,P,-390.497772
7269,P,-390.497772
7270,P,242.518646
7271,P,242.518646
7272,P,221.701782
7273,P,221.701782
7274,P,396.098419
7275,P,396.098419
7276,P,269.184998
7277,P,269.184998
7278,P,-1615.7428
7279,P,-1615.7428
7280,P,244.795517
7281,P,244.795517
7282,P,462.65921
7283,P,462.65921
7284,P,-1578.45483
7285,P,-1578.45483
7286,P,408.812378
7287,P,408.812378
7288,P,-448.34552
7289,P,-448.34552
7290,P,-448.34552
7291,P,189.264816
7292,P,189.264816
7293,P,189.264816
7294,P,-445.410095
7295,P,-445.410095
7296,P,-445.410095
7297,P,211.539673
7298,P,211.539673
7299,P,211.539673
7300,P,641.721252
7301,P,641.721252
7302,P,418.851654
7303,P,418.851654
7304,P,480.026794
7305,P,480.026794
7306,P,418.589111
7307,P,418.589111
7308,P,183.723099
7309,P,183.723099
7310,P,183.723099
7311,P,182.29274
7312,P,182.29274
7313,P,182.29274
7314,P,-572.388306
7315,P,-572.388306
7316,P,-1136.75085
7317,P,-1136.75085
7318,P,-553.653992
7319,P,-553.653992
7320,P,-396.423218
7321,P,-396.423218
7322,P,254.689117
7323,P,254.689117
7324,P,-395.220398
7325,P,-395.220398
7326,P,252.620132
7327,P,252.620132
7328,P,221.766876
7329,P,221.766876
7330,P,407.277161
7331,P,407.277161
7332,P,268.019501
7333,P,268.019501
7334,P,-1298.97253
7335,P,-1298.97253
7336,P,267.484589
7337,P,267.484589
7338,P,425.572327
7339,P,425.572327
7340,P,-1550.23132
7341,P,-1550.23132
7342,P,245.869156
7343,P,245.869156
7344,P,-471.887756
7345,P,-471.887756
7346,P,-471.887756
7347,P,197.365662
7348,P,197.365662
7349,P,197.365662
7350,P,-471.301971
7351,P,-471.301971
7352,P,-471.301971
7353,P,204.345993
7354,P,204.345993
7355,P,204.345993
7356,P,419.852692
7357,P,419.852692
7358,P,267.17749
7359,P,267.17749
7360,P,422.151428
7361,P,422.151428
7362,P,237.8862
7363,P,237.8862
7364,P,198.139908
7365,P,198.139908
7366,P,198.139908
7367,P,192.088608
7368,P,192.088608
7369,P,192.088608
7370,P,-1122.92053
7371,P,-1122.92053
7372,P,-525.273499
7373,P,-525.273499
7374,P,-1156.87012
7375,P,-1156.87012
7376,P,-524.952148
7377,P,-524.952148
7378,P,-310.286743
7379,P,-310.286743
7380,P,-149.805771
7381,P,-149.805771
7382,P,377.316132
7383,P,377.316132
7384,P,688.807861
7385,P,688.807861
7386,P,304.929504
7387,P,304.929504
7388,P,364.301117
7389,P,364.301117
7390,P,710.285828
7391,P,710.285828
7392,P,367.165985
7393,P,367.165985
7394,P,-424.89621
7395,P,-424.89621
7396,P,-424.89621
7397,P,221.165985
7398,P,221.165985
7399,P,221.165985
7400,P,-440.413239
7401,P,-440.413239
7402,P,-440.413239
7403,P,217.101105
7404,P,217.101105
7405,P,217.101105
7406,P,649.166992
7407,P,649.166992
7408,P,424.872253
7409,P,424.872253
7410,P,-1617.54248
7411,P,-1617.54248
7412,P,685.344299
7413,P,685.344299
7414,P,379.400665
7415,P,379.400665
7416,P,211.270645
7417,P,211.270645
7418,P,211.270645
7419,P,-12.8052931
7420,P,-12.8052931
7421,P,-12.8052931
7422,P,-1014.63031
7423,P,-1014.63031
7424,P,-420.425903
7425,P,-420.425903
7426,P,-404.213226
7427,P,-404.213226
7428,P,-35.484623
7429,P,-35.484623
7430,P,533.840637
7431,P,533.840637
7432,P,-33.802803
7433,P,-33.802803
7434,P,396.447388
7435,P,396.447388
7436,P,1057.80786
7437,P,1057.80786
7438,P,515.070374
7439,P,515.070374
7440,P,287.840668
7441,P,287.840668
7442,P,759.440735
7443,P,759.440735
7444,P,-1154.16248
7445,P,-1154.16248
7446,P,383.877716
7447,P,383.877716
7448,P,-288.208374
7449,P,-288.208374
7450,P,-288.208374
7451,P,-63.7959557
7452,P,-63.7959557
7453,P,-63.7959557
7454,P,-292.053772
7455,P,-292.053772
7456,P,-292.053772
7457,P,-95.8504868
7458,P,-95.8504868
7459,P,-95.8504868
7460,P,681.863342
7461,P,681.863342
7462,P,348.917816
7463,P,348.917816
7464,P,-1180.35486
7465,P,-1180.35486
7466,P,724.885071
7467,P,724.885071
7468,P,-1353.56738
7469,P,-1353.56738
7470,P,376.572357
7471,P,376.572357
7472,P,-42.9590034
7473,P,-42.9590034
7474,P,-42.9590034
7475,P,8.33685017
7476,P,8.33685017
7477,P,8.33685017
7478,P,175.24556
7479,P,175.24556
7480,P,2629.71753
7481,P,2629.71753
7482,P,2056.80176
7483,P,2056.80176
7484,P,2357.56104
7485,P,2357.56104
7486,P,2201.71558
7487,P,2201.71558
7488,P,3008.27783
7489,P,3008.27783
7490,P,2400.35205
7491,P,2400.35205
7492,P,-841.881958
7493,P,-841.881958
7494,P,2246.19702
7495,P,2246.19702
7496,P,-859.334656
7497,P,-859.334656
7498,P,3146.0979
7499,P,3146.0979
7500,P,4167.86816
7501,P,4167.86816
7502,P,3245.52344
7503,P,3245.52344
7504,P,-574.409485
7505,P,-574.409485
7506,P,-1513.6322
7507,P,-1513.6322
7508,P,-1508.3562
7509,P,-1508.3562
7510,P,3300.29443
7511,P,3300.29443
7512,P,-554.344116
7513,P,-554.344116
7514,P,4085.4126
7515,P,4085.4126
7516,P,4317.01172
7517,P,4317.01172
7518,P,-1009.90228
7519,P,-1009.90228
7520,P,4216.29541
7521,P,4216.29541
7522,P,4326.604
7523,P,4326.604
7524,P,4101.26953
7525,P,4101.26953
7526,P,-1076.84583
7527,P,-1076.84583
7528,P,-1044.12256
7529,P,-1044.12256
7530,P,271.631104
7531,P,271.631104
7532,P,886.561523
7533,P,886.561523
7534,P,238.638519
7535,P,238.638519
7536,P,161.571014
7537,P,161.571014
7538,P,293.184021
7539,P,293.184021
7540,P,220.93634
7541,P,220.93634
7542,P,878.391541
7543,P,878.391541
7544,P,-963.223572
7545,P,-963.223572
7546,P,-400.819855
7547,P,-400.819855
7548,P,-369.56958
7549,P,-369.56958
7550,P,3.71858501
7551,P,3.71858501
7552,P,533.732239
7553,P,533.732239
7554,P,741.025818
7555,P,741.025818
7556,P,-41.2695007
7557,P,-41.2695007
7558,P,-31.0873547
7559,P,-31.0873547
7560,P,690.878174
7561,P,690.878174
7562,P,-21.3138447
7563,P,-21.3138447
7564,P,4430.19629
7565,P,4430.19629
7566,P,4328.75879
7567,P,4328.75879
7568,P,4380.81738
7569,P,4380.81738
7570,P,4266.22363
7571,P,4266.22363
7572,P,4430.65527
7573,P,4430.65527
7574,P,3598.05664
7575,P,3598.05664
7576,P,-455.664124
7577,P,-455.664124
7578,P,3552.91528
7579,P,3552.91528
7580,P,-463.4104
7581,P,-463.4104
7582,P,4458.09131
7583,P,4458.09131
7584,P,4639.44922
7585,P,4639.44922
7586,P,3814.21826
7587,P,3814.21826
7588,P,-374.981384
7589,P,-374.981384
7590,P,-1616.88855
7591,P,-1616.88855
7592,P,-1610.71143
7593,P,-1610.71143
7594,P,3833.23901
7595,P,3833.23901
7596,P,-370.247925
7597,P,-370.247925
7598,P,4607.62549
7599,P,4607.62549
7600,P,4691.73193
7601,P,4691.73193
7602,P,-1147.91589
7603,P,-1147.91589
7604,P,4412.96777
7605,P,4412.96777
7606,P,4708.47803
7607,P,4708.47803
7608,P,4501.896
7609,P,4501.896
7610,P,-1147.77026
7611,P,-1147.77026
7612,P,-1124.49133
7613,P,-1124.49133
7614,P,-84.9956055
7615,P,-84.9956055
7616,P,727.964722
7617,P,727.964722
7618,P,-57.7853737
7619,P,-57.7853737
7620,P,620.967468
7621,P,620.967468
7622,P,-40.0437279
7623,P,-40.0437279
7624,P,-77.2169189
7625,P,-77.2169189
7626,P,753.661438
7627,P,753.661438
7628,P,-1151.52991
7629,P,-1151.52991
7630,P,-545.267944
7631,P,-545.267944
7632,P,-528.459351
7633,P,-528.459351
7634,P,-145.82695
7635,P,-145.82695
7636,P,622.274475
7637,P,622.274475
7638,P,739.118713
7639,P,739.118713
7640,P,-159.195511
7641,P,-159.195511
7642,P,-152.859924
7643,P,-152.859924
7644,P,751.267273
7645,P,751.267273
7646,P,-153.508087
7647,P,-153.508087
7648,P,4733.53174
7649,P,4733.53174
7650,P,4421.04834
7651,P,4421.04834
7652,P,4738.55225
7653,P,4738.55225
7654,P,4422.7207
7655,P,4422.7207
7656,P,4695.82373
7657,P,4695.82373
7658,P,3865.12671
7659,P,3865.12671
7660,P,-337.932098
7661,P,-337.932098
7662,P,3872.65405
7663,P,3872.65405
7664,P,-336.036438
7665,P,-336.036438
7666,P,4724.25537
7667,P,4724.25537
7668,P,4733.42041
7669,P,4733.42041
7670,P,3936.24072
7671,P,3936.24072
7672,P,-319.987152
7673,P,-319.987152
7674,P,-1614.30847
7675,P,-1614.30847
7676,P,-1602.63708
7677,P,-1602.63708
7678,P,3976.40112
7679,P,3976.40112
7680,P,-324.690704
7681,P,-324.690704
7682,P,4701.07373
7683,P,4701.07373
7684,P,4739.65967
7685,P,4739.65967
7686,P,-1134.02551
7687,P,-1134.02551
7688,P,4470.6543
7689,P,4470.6543
7690,P,4794.65381
7691,P,4794.65381
7692,P,4470.40283
7693,P,4470.40283
7694,P,-1137.6416
7695,P,-1137.6416
7696,P,-1119.73145
7697,P,-1119.73145
7698,P,-165.67308
7699,P,-165.67308
7700,P,719.776245
7701,P,719.776245
7702,P,-161.990219
7703,P,-161.990219
7704,P,597.94751
7705,P,597.94751
7706,P,-169.724777
7707,P,-169.724777
7708,P,-160.414276
7709,P,-160.414276
7710,P,724.566711
7711,P,724.566711
7712,P,-1158.28613
7713,P,-1158.28613
7714,P,-556.245728
7715,P,-556.245728
7716,P,-564.78772
7717,P,-564.78772
7718,P,-170.896942
7719,P,-170.896942
7720,P,579.41095
7721,P,579.41095
7722,P,672.87738
7723,P,672.87738
7724,P,-182.431503
7725,P,-182.431503
7726,P,-172.714951
7727,P,-172.714951
7728,P,668.763672
7729,P,668.763672
7730,P,-177.963867
7731,P,-177.963867
7732,P,4743.48975
7733,P,4743.48975
7734,P,4519.53613
7735,P,4519.53613
7736,P,4761.61182
7737,P,4761.61182
7738,P,4465.80127
7739,P,4465.80127
7740,P,4719.70215
7741,P,4719.70215
7742,P,3968.88892
7743,P,3968.88892
7744,P,-336.605469
7745,P,-336.605469
7746,P,3942.42773
7747,P,3942.42773
7748,P,-330.558472
7749,P,-330.558472
7750,P,4643.16162
7751,P,4643.16162
7752,P,4685.47607
7753,P,4685.47607
7754,P,3860.14209
7755,P,3860.14209
7756,P,-316.872314
7757,P,-316.872314
7758,P,-1592.05725
7759,P,-1592.05725
7760,P,-1589.15906
7761,P,-1589.15906
7762,P,3843.32031
7763,P,3843.32031
7764,P,-326.519165
7765,P,-326.519165
7766,P,4679.88428
7767,P,4679.88428
7768,P,4689.71045
7769,P,4689.71045
7770,P,-1117.18103
7771,P,-1117.18103
7772,P,4481.70068
7773,P,4481.70068
7774,P,4671.25439
7775,P,4671.25439
7776,P,4581.38477
7777,P,4581.38477
7778,P,-1098.98291
7779,P,-1098.98291
7780,P,-1103.58411
7781,P,-1103.58411
7782,P,-174.848892
7783,P,-174.848892
7784,P,678.422546
7785,P,678.422546
7786,P,-181.390839
7787,P,-181.390839
7788,P,584.053162
7789,P,584.053162
7790,P,-177.043564
7791,P,-177.043564
7792,P,-177.558029
7793,P,-177.558029
7794,P,696.531311
7795,P,696.531311
7796,P,-1129.2262
7797,P,-1129.2262
7798,P,-530.968628
7799,P,-530.968628
7800,P,-533.399475
7801,P,-533.399475
7802,P,-159.962692
7803,P,-159.962692
7804,P,603.296082
7805,P,603.296082
7806,P,735.834167
7807,P,735.834167
7808,P,-164.84407
7809,P,-164.84407
7810,P,-163.460205
7811,P,-163.460205
7812,P,708.951965
7813,P,708.951965
7814,P,-158.510223
7815,P,-158.510223
7816,P,4772.22705
7817,P,4772.22705
7818,P,4457.27002
7819,P,4457.27002
7820,P,4744.33301
7821,P,4744.33301
7822,P,4492.47314
7823,P,4492.47314
7824,P,4550.0835
7825,P,4550.0835
7826,P,3758.95874
7827,P,3758.95874
7828,P,-383.716187
7829,P,-383.716187
7830,P,3808.79272
7831,P,3808.79272
7832,P,-377.17749
7833,P,-377.17749
7834,P,4591.90625
7835,P,4591.90625
7836,P,4418.69727
7837,P,4418.69727
7838,P,3591.82178
7839,P,3591.82178
7840,P,-447.412048
7841,P,-447.412048
7842,P,-1602.52844
7843,P,-1602.52844
7844,P,-1588.6936
7845,P,-1588.6936
7846,P,3541.41455
7847,P,3541.41455
7848,P,-456.365509
7849,P,-456.365509
7850,P,4467.98535
7851,P,4467.98535
7852,P,4527.36084
7853,P,4527.36084
7854,P,-1021.09985
7855,P,-1021.09985
7856,P,4226.56104
7857,P,4226.56104
7858,P,4448.65625
7859,P,4448.65625
7860,P,4213.271
7861,P,4213.271
7862,P,-1128.59558
7863,P,-1128.59558
7864,P,-1108.37915
7865,P,-1108.37915
7866,P,-148.538849
7867,P,-148.538849
7868,P,741.28125
7869,P,741.28125
7870,P,-150.100586
7871,P,-150.100586
7872,P,620.033569
7873,P,620.033569
7874,P,-159.160126
7875,P,-159.160126
7876,P,-148.421539
7877,P,-148.421539
7878,P,722.177246
7879,P,722.177246
7880,P,-1083.65088
7881,P,-1083.65088
7882,P,-451.91507
7883,P,-451.91507
7884,P,-459.974121
7885,P,-459.974121
7886,P,-87.634407
7887,P,-87.634407
7888,P,638.822998
7889,P,638.822998
7890,P,735.38855
7891,P,735.38855
7892,P,-59.8390579
7893,P,-59.8390579
7894,P,-42.5608978
7895,P,-42.5608978
7896,P,753.674255
7897,P,753.674255
7898,P,-78.9226074
7899,P,-78.9226074
7900,P,4310.44727
7901,P,4310.44727
7902,P,4160.97168
7903,P,4160.97168
7904,P,4382.146
7905,P,4382.146
7906,P,4008.91528
7907,P,4008.91528
7908,P,4146.1958
7909,P,4146.1958
7910,P,3251.21313
7911,P,3251.21313
7912,P,-583.646301
7913,P,-583.646301
7914,P,3310.17065
7915,P,3310.17065
7916,P,-555.615051
7917,P,-555.615051
7918,P,4101.90527
7919,P,4101.90527
7920,P,2966.82397
7921,P,2966.82397
7922,P,2363.76465
7923,P,2363.76465
7924,P,-841.976379
7925,P,-841.976379
7926,P,-1233.31104
7927,P,-1233.31104
7928,P,-1209.57483
7929,P,-1209.57483
7930,P,2219.88867
7931,P,2219.88867
7932,P,-858.20459
7933,P,-858.20459
7934,P,3126.43921
7935,P,3126.43921
7936,P,2621.60303
7937,P,2621.60303
7938,P,-791.531982
7939,P,-791.531982
7940,P,2053.66772
7941,P,2053.66772
7942,P,2358.33765
7943,P,2358.33765
7944,P,2215.2334
7945,P,2215.2334
7946,P,-1287.25586
7947,P,-1287.25586
7948,P,-1121.40442
7949,P,-1121.40442
7950,P,-2.2446661
7951,P,-2.2446661
7952,P,751.481445
7953,P,751.481445
7954,P,-43.9076691
7955,P,-43.9076691
7956,P,527.118652
7957,P,527.118652
7958,P,-36.4624939
7959,P,-36.4624939
7960,P,-25.5342216
7961,P,-25.5342216
7962,P,704.971558
7963,P,704.971558
7964,P,-1101.20251
7965,P,-1101.20251
7966,P,-43.3801041
7967,P,-43.3801041
7968,P,-69.5382309
7969,P,-69.5382309
7970,P,217.717575
7971,P,217.717575
7972,P,146.354858
7973,P,146.354858
7974,P,877.191406
7975,P,877.191406
7976,P,193.675003
7977,P,193.675003
7978,P,168.291946
7979,P,168.291946
7980,P,236.047165
7981,P,236.047165
7982,P,893.31427
7983,P,893.31427
7984,P,175.873291
7985,P,175.873291
7986,P,-126.833206
7987,P,-126.833206
7988,P,155.916977
7989,P,155.916977
7990,P,74.1561584
7991,P,74.1561584
7992,P,55.04739
7993,P,55.04739
7994,P,70.3630295
7995,P,70.3630295
7996,P,28.2232189
7997,P,28.2232189
7998,P,86.2881775
7999,P,86.2881775
8000,P,32.9221878
8001,P,32.9221878
8002,P,97.4698486
8003,P,97.4698486
8004,P,-301.54187
8005,P,-301.54187
8006,P,-825.75415
8007,P,-825.75415
8008,P,-258.493591
8009,P,-258.493591
8010,P,-18.3995438
8011,P,-18.3995438
8012,P,56.7480965
8013,P,56.7480965
8014,P,49.0460129
8015,P,49.0460129
8016,P,1.70789909
8017,P,1.70789909
8018,P,42.012989
8019,P,42.012989
8020,P,-162.93895
8021,P,-162.93895
8022,P,-121.020401
8023,P,-121.020401
8024,P,-39.5604935
8025,P,-39.5604935
8026,P,457.226105
8027,P,457.226105
8028,P,-46.7249947
8029,P,-46.7249947
8030,P,395.926971
8031,P,395.926971
8032,P,1057.82422
8033,P,1057.82422
8034,P,514.952332
8035,P,514.952332
8036,P,-1230.30273
8037,P,-1230.30273
8038,P,298.567505
8039,P,298.567505
8040,P,796.595398
8041,P,796.595398
8042,P,-1154.26636
8043,P,-1154.26636
8044,P,394.436859
8045,P,394.436859
8046,P,-291.055389
8047,P,-291.055389
8048,P,-291.055389
8049,P,-58.1529083
8050,P,-58.1529083
8051,P,-58.1529083
8052,P,-292.059052
8053,P,-292.059052
8054,P,-292.059052
8055,P,-82.0797882
8056,P,-82.0797882
8057,P,-82.0797882
8058,P,-47.9985352
8059,P,-47.9985352
8060,P,-47.9985352
8061,P,9.42278576
8062,P,9.42278576
8063,P,9.42278576
8064,P,644.353455
8065,P,644.353455
8066,P,321.340454
8067,P,321.340454
8068,P,751.08136
8069,P,751.08136
8070,P,384.75177
8071,P,384.75177
8072,P,-126.129715
8073,P,-126.129715
8074,P,-325.278229
8075,P,-325.278229
8076,P,-173.584213
8077,P,-173.584213
8078,P,-200.629486
8079,P,-200.629486
8080,P,-168.836578
8081,P,-168.836578
8082,P,-205.029907
8083,P,-205.029907
8084,P,-164.196106
8085,P,-164.196106
8086,P,-341.028778
8087,P,-341.028778
8088,P,-85.4548798
8089,P,-85.4548798
8090,P,-498.211578
8091,P,-498.211578
8092,P,-479.033997
8093,P,-479.033997
8094,P,-216.83316
8095,P,-216.83316
8096,P,-176.804733
8097,P,-176.804733
8098,P,-157.706039
8099,P,-157.706039
8100,P,-209.541489
8101,P,-209.541489
8102,P,-182.14212
8103,P,-182.14212
8104,P,-373.985596
8105,P,-373.985596
8106,P,-366.970612
8107,P,-366.970612
8108,P,-309.305695
8109,P,-309.305695
8110,P,293.114807
8111,P,293.114807
8112,P,-150.529083
8113,P,-150.529083
8114,P,436.326202
8115,P,436.326202
8116,P,345.674988
8117,P,345.674988
8118,P,701.291931
8119,P,701.291931
8120,P,307.60614
8121,P,307.60614
8122,P,-1187.45398
8123,P,-1187.45398
8124,P,375.578186
8125,P,375.578186
8126,P,697.962891
8127,P,697.962891
8128,P,384.633026
8129,P,384.633026
8130,P,-424.761505
8131,P,-424.761505
8132,P,-424.761505
8133,P,225.382492
8134,P,225.382492
8135,P,225.382492
8136,P,-438.703796
8137,P,-438.703796
8138,P,-438.703796
8139,P,222.199097
8140,P,222.199097
8141,P,222.199097
8142,P,212.253189
8143,P,212.253189
8144,P,212.253189
8145,P,-40.7687912
8146,P,-40.7687912
8147,P,-40.7687912
8148,P,689.001404
8149,P,689.001404
8150,P,422.631622
8151,P,422.631622
8152,P,728.789429
8153,P,728.789429
8154,P,404.713654
8155,P,404.713654
8156,P,-247.94426
8157,P,-247.94426
8158,P,-417.186249
8159,P,-417.186249
8160,P,-273.120819
8161,P,-273.120819
8162,P,-275.025482
8163,P,-275.025482
8164,P,-234.754623
8165,P,-234.754623
8166,P,-274.032928
8167,P,-274.032928
8168,P,-240.255768
8169,P,-240.255768
8170,P,-438.522736
8171,P,-438.522736
8172,P,-186.706726
8173,P,-186.706726
8174,P,-550.599731
8175,P,-550.599731
8176,P,-556.01532
8177,P,-556.01532
8178,P,-283.79126
8179,P,-283.79126
8180,P,-244.125717
8181,P,-244.125717
8182,P,-238.521622
8183,P,-238.521622
8184,P,-279.040771
8185,P,-279.040771
8186,P,-245.116333
8187,P,-245.116333
8188,P,-437.743835
8189,P,-437.743835
8190,P,-445.075043
8191,P,-445.075043
8192,P,-394.490082
8193,P,-394.490082
8194,P,237.852051
8195,P,237.852051
8196,P,-395.287109
8197,P,-395.287109
8198,P,229.389023
8199,P,229.389023
8200,P,401.799683
8201,P,401.799683
8202,P,264.476654
8203,P,264.476654
8204,P,-1306.02026
8205,P,-1306.02026
8206,P,269.170654
8207,P,269.170654
8208,P,435.576874
8209,P,435.576874
8210,P,-1542.46387
8211,P,-1542.46387
8212,P,240.702652
8213,P,240.702652
8214,P,-474.651672
8215,P,-474.651672
8216,P,-474.651672
8217,P,199.027939
8218,P,199.027939
8219,P,199.027939
8220,P,-469.899017
8221,P,-469.899017
8222,P,-469.899017
8223,P,200.880081
8224,P,200.880081
8225,P,200.880081
8226,P,198.773926
8227,P,198.773926
8228,P,198.773926
8229,P,186.789047
8230,P,186.789047
8231,P,186.789047
8232,P,424.584534
8233,P,424.584534
8234,P,252.398483
8235,P,252.398483
8236,P,-1587.53284
8237,P,-1587.53284
8238,P,440.753235
8239,P,440.753235
8240,P,230.222
8241,P,230.222
8242,P,-297.153351
8243,P,-297.153351
8244,P,-466.484192
8245,P,-466.484192
8246,P,-246.59584
8247,P,-246.59584
8248,P,-288.187744
8249,P,-288.187744
8250,P,-255.602432
8251,P,-255.602432
8252,P,-289.713715
8253,P,-289.713715
8254,P,-252.450867
8255,P,-252.450867
8256,P,-439.549011
8257,P,-439.549011
8258,P,-256.04306
8259,P,-256.04306
8260,P,-546.794128
8261,P,-546.794128
8262,P,-558.444397
8263,P,-558.444397
8264,P,-291.035706
8265,P,-291.035706
8266,P,-249.482635
8267,P,-249.482635
8268,P,-201.769836
8269,P,-201.769836
8270,P,-286.175873
8271,P,-286.175873
8272,P,-255.673157
8273,P,-255.673157
8274,P,-429.367554
8275,P,-429.367554
8276,P,-443.492523
8277,P,-443.492523
8278,P,-386.261261
8279,P,-386.261261
8280,P,-393.043793
8281,P,-393.043793
8282,P,232.165756
8283,P,232.165756
8284,P,403.313995
8285,P,403.313995
8286,P,281.509277
8287,P,281.509277
8288,P,-1630.23889
8289,P,-1630.23889
8290,P,240.812408
8291,P,240.812408
8292,P,459.591339
8293,P,459.591339
8294,P,-1294.9519
8295,P,-1294.9519
8296,P,361.220764
8297,P,361.220764
8298,P,-450.49649
8299,P,-450.49649
8300,P,-450.49649
8301,P,196.63533
8302,P,196.63533
8303,P,196.63533
8304,P,-445.919281
8305,P,-445.919281
8306,P,-445.919281
8307,P,213.14064
8308,P,213.14064
8309,P,213.14064
8310,P,192.522949
8311,P,192.522949
8312,P,192.522949
8313,P,188.731689
8314,P,188.731689
8315,P,188.731689
8316,P,665.352539
8317,P,665.352539
8318,P,416.871216
8319,P,416.871216
8320,P,476.837769
8321,P,476.837769
8322,P,382.12265
8323,P,382.12265
8324,P,-237.212067
8325,P,-237.212067
8326,P,-410.39447
8327,P,-410.39447
8328,P,-225.899628
8329,P,-225.899628
8330,P,-258.067413
8331,P,-258.067413
8332,P,-215.756027
8333,P,-215.756027
8334,P,-253.733276
8335,P,-253.733276
8336,P,-224.68515
8337,P,-224.68515
8338,P,-405.336548
8339,P,-405.336548
8340,P,-148.616425
8341,P,-148.616425
8342,P,-506.193237
8343,P,-506.193237
8344,P,-517.891663
8345,P,-517.891663
8346,P,-139.403839
8347,P,-139.403839
8348,P,-246.907822
8349,P,-246.907822
8350,P,-217.732681
8351,P,-217.732681
8352,P,-218.851913
8353,P,-218.851913
8354,P,-253.050766
8355,P,-253.050766
8356,P,-209.677353
8357,P,-209.677353
8358,P,-390.000519
8359,P,-390.000519
8360,P,-400.439178
8361,P,-400.439178
8362,P,-11.2308331
8363,P,-11.2308331
8364,P,435.514282
8365,P,435.514282
8366,P,3.76434326
8367,P,3.76434326
8368,P,435.951721
8369,P,435.951721
8370,P,367.131592
8371,P,367.131592
8372,P,704.089233
8373,P,704.089233
8374,P,292.261932
8375,P,292.261932
8376,P,-1295.68384
8377,P,-1295.68384
8378,P,313.067688
8379,P,313.067688
8380,P,699.505066
8381,P,699.505066
8382,P,-1190.42773
8383,P,-1190.42773
8384,P,365.667236
8385,P,365.667236
8386,P,-246.092865
8387,P,-246.092865
8388,P,-246.092865
8389,P,-89.4738922
8390,P,-89.4738922
8391,P,-89.4738922
8392,P,-303.923767
8393,P,-303.923767
8394,P,-303.923767
8395,P,-103.459099
8396,P,-103.459099
8397,P,-103.459099
8398,P,-108.66906
8399,P,-108.66906
8400,P,-108.66906
8401,P,-82.3758774
8402,P,-82.3758774
8403,P,-82.3758774
8404,P,689.992981
8405,P,689.992981
8406,P,370.008942
8407,P,370.008942
8408,P,698.47113
8409,P,698.47113
8410,P,367.278931
8411,P,367.278931
8412,P,-57.7390404
8413,P,-57.7390404
8414,P,-287.322449
8415,P,-287.322449
8416,P,-142.631149
8417,P,-142.631149
8418,P,-94.0771713
8419,P,-94.0771713
8420,P,-128.305679
8421,P,-128.305679
8422,P,-106.264404
8423,P,-106.264404
8424,P,-279.92572
8425,P,-279.92572
8426,P,-79.8525314
8427,P,-79.8525314
8428,P,-344.235748
8429,P,-344.235748
8430,P,-889.799866
8431,P,-889.799866
8432,P,-358.555634
8433,P,-358.555634
8434,P,-962.423035
8435,P,-962.423035
8436,P,-90.8583145
8437,P,-90.8583145
8438,P,-66.5640259
8439,P,-66.5640259
8440,P,-4.09691238
8441,P,-4.09691238
8442,P,-110.614113
8443,P,-110.614113
8444,P,-37.9680672
8445,P,-37.9680672
8446,P,-214.448792
8447,P,-214.448792
8448,P,-228.834076
8449,P,-228.834076
8450,P,-81.5931702
8451,P,-81.5931702
8452,P,640.44397
8453,P,640.44397
8454,P,-32.686676
8455,P,-32.686676
8456,P,427.292633
8457,P,427.292633
8458,P,1100.7052
8459,P,1100.7052
8460,P,525.498108
8461,P,525.498108
8462,P,-1483.71643
8463,P,-1483.71643
8464,P,723.573608
8465,P,723.573608
8466,P,1498.79565
8467,P,1498.79565
8468,P,753.609802
8469,P,753.609802
8470,P,-241.708694
8471,P,-241.708694
8472,P,-241.708694
8473,P,404.49939
8474,P,404.49939
8475,P,404.49939
8476,P,-136.486923
8477,P,-136.486923
8478,P,-136.486923
8479,P,925.533508
8480,P,925.533508
8481,P,925.533508
8482,P,265.609711
8483,P,265.609711
8484,P,265.609711
8485,P,62.5478554
8486,P,62.5478554
8487,P,62.5478554
8488,P,2421.52954
8489,P,2421.52954
8490,P,1039.55615
8491,P,1039.55615
8492,P,1647.85315
8493,P,1647.85315
8494,P,772.550537
8495,P,772.550537
8496,P,1654.44885
8497,P,1654.44885
8498,P,1641.43005
8499,P,1641.43005
8500,P,1704.29663
8501,P,1704.29663
8502,P,1605.16614
8503,P,1605.16614
8504,P,521.59021
8505,P,521.59021
8506,P,3385.42212
8507,P,3385.42212
8508,P,2536.08081
8509,P,2536.08081
8510,P,-799.536499
8511,P,-799.536499
8512,P,3275.61743
8513,P,3275.61743
8514,P,2637.34399
8515,P,2637.34399
8516,P,-776.209778
8517,P,-776.209778
8518,P,3538.77148
8519,P,3538.77148
8520,P,3296.05469
8521,P,3296.05469
8522,P,3162.69482
8523,P,3162.69482
8524,P,3614.08569
8525,P,3614.08569
8526,P,1232.2002
8527,P,1232.2002
8528,P,1704.09338
8529,P,1704.09338
8530,P,2027.24365
8531,P,2027.24365
8532,P,2458.86768
8533,P,2458.86768
8534,P,2409.0293
8535,P,2409.0293
8536,P,2020.67932
8537,P,2020.67932
8538,P,1167.09473
8539,P,1167.09473
8540,P,1111.24536
8541,P,1111.24536
8542,P,1039.2478
8543,P,1039.2478
8544,P,967.15509
8545,P,967.15509
8546,P,1226.95691
8547,P,1226.95691
8548,P,1160.37659
8549,P,1160.37659
8550,P,3899.04272
8551,P,3899.04272
8552,P,3181.72095
8553,P,3181.72095
8554,P,-605.05603
8555,P,-605.05603
8556,P,-1430.73291
8557,P,-1430.73291
8558,P,3989.1687
8559,P,3989.1687
8560,P,3101.48047
8561,P,3101.48047
8562,P,-630.403442
8563,P,-630.403442
8564,P,-1425.69775
8565,P,-1425.69775
8566,P,3858.11572
8567,P,3858.11572
8568,P,-865.878174
8569,P,-865.878174
8570,P,3491.53271
8571,P,3491.53271
8572,P,3754.77539
8573,P,3754.77539
8574,P,3512.49561
8575,P,3512.49561
8576,P,-926.508667
8577,P,-926.508667
8578,P,2497.86255
8579,P,2497.86255
8580,P,3243.31152
8581,P,3243.31152
8582,P,3166.77881
8583,P,3166.77881
8584,P,2542.2605
8585,P,2542.2605
8586,P,1598.78455
8587,P,1598.78455
8588,P,2197.47314
8589,P,2197.47314
8590,P,2689.68823
8591,P,2689.68823
8592,P,2149.9895
8593,P,2149.9895
8594,P,2751.52441
8595,P,2751.52441
8596,P,1543.19556
8597,P,1543.19556
8598,P,1321.00146
8599,P,1321.00146
8600,P,1240.03003
8601,P,1240.03003
8602,P,1278.87329
8603,P,1278.87329
8604,P,1234.51782
8605,P,1234.51782
8606,P,-826.312866
8607,P,-826.312866
8608,P,-464.540436
8609,P,-464.540436
8610,P,402.199127
8611,P,402.199127
8612,P,70.1495209
8613,P,70.1495209
8614,P,92.4478531
8615,P,92.4478531
8616,P,403.50351
8617,P,403.50351
8618,P,-280.734528
8619,P,-280.734528
8620,P,413.53125
8621,P,413.53125
8622,P,-168.8974
8623,P,-168.8974
8624,P,882.077698
8625,P,882.077698
8626,P,292.146271
8627,P,292.146271
8628,P,314.575226
8629,P,314.575226
8630,P,984.437927
8631,P,984.437927
8632,P,385.080261
8633,P,385.080261
8634,P,-1340.78455
8635,P,-1340.78455
8636,P,442.141541
8637,P,442.141541
8638,P,83.5631561
8639,P,83.5631561
8640,P,52.7885056
8641,P,52.7885056
8642,P,528.971619
8643,P,528.971619
8644,P,-1850.27173
8645,P,-1850.27173
8646,P,-923.746887
8647,P,-923.746887
8648,P,-349.266907
8649,P,-349.266907
8650,P,-952.404602
8651,P,-952.404602
8652,P,-362.621338
8653,P,-362.621338
8654,P,-53.6392365
8655,P,-53.6392365
8656,P,-288.148682
8657,P,-288.148682
8658,P,-62.4325523
8659,P,-62.4325523
8660,P,-137.895935
8661,P,-137.895935
8662,P,-89.0802689
8663,P,-89.0802689
8664,P,-121.440216
8665,P,-121.440216
8666,P,-103.142395
8667,P,-103.142395
8668,P,-267.299469
8669,P,-267.299469
8670,P,-60.2164078
8671,P,-60.2164078
8672,P,-218.066544
8673,P,-218.066544
8674,P,-64.5737152
8675,P,-64.5737152
8676,P,-94.7709045
8677,P,-94.7709045
8678,P,-60.9714432
8679,P,-60.9714432
8680,P,-103.862541
8681,P,-103.862541
8682,P,-39.118679
8683,P,-39.118679
8684,P,-235.791229
8685,P,-235.791229
8686,P,21.8999443
8687,P,21.8999443
8688,P,155.054413
8689,P,155.054413
8690,P,-86.2379608
8691,P,-86.2379608
8692,P,956.265808
8693,P,956.265808
8694,P,162.542328
8695,P,162.542328
8696,P,133.214218
8697,P,133.214218
8698,P,874.148682
8699,P,874.148682
8700,P,176.807358
8701,P,176.807358
8702,P,-90.2525635
8703,P,-90.2525635
8704,P,-45.0957947
8705,P,-45.0957947
8706,P,-48.330471
8707,P,-48.330471
8708,P,-59.2712555
8709,P,-59.2712555
8710,P,-70.0368347
8711,P,-70.0368347
8712,P,-12.4018707
8713,P,-12.4018707
8714,P,-49.3440514
8715,P,-49.3440514
8716,P,391.48822
8717,P,391.48822
8718,P,-40.6616707
8719,P,-40.6616707
8720,P,-29.3937035
8721,P,-29.3937035
8722,P,80.4965363
8723,P,80.4965363
8724,P,-1428.08008
8725,P,-1428.08008
8726,P,2594.40186
8727,P,2594.40186
8728,P,3314.73535
8729,P,3314.73535
8730,P,3321.02515
8731,P,3321.02515
8732,P,2590.0083
8733,P,2590.0083
8734,P,1662.46765
8735,P,1662.46765
8736,P,2343.95044
8737,P,2343.95044
8738,P,4470.59131
8739,P,4470.59131
8740,P,3638.45215
8741,P,3638.45215
8742,P,-445.306824
8743,P,-445.306824
8744,P,4491.34326
8745,P,4491.34326
8746,P,3667.13037
8747,P,3667.13037
8748,P,-433.212494
8749,P,-433.212494
8750,P,4552.43652
8751,P,4552.43652
8752,P,4343.48828
8753,P,4343.48828
8754,P,4412.4917
8755,P,4412.4917
8756,P,4616.43457
8757,P,4616.43457
8758,P,1714.75281
8759,P,1714.75281
8760,P,2588.25122
8761,P,2588.25122
8762,P,3315.93286
8763,P,3315.93286
8764,P,3331.60962
8765,P,3331.60962
8766,P,2617.23462
8767,P,2617.23462
8768,P,1337.39722
8769,P,1337.39722
8770,P,1261.48462
8771,P,1261.48462
8772,P,1120.97986
8773,P,1120.97986
8774,P,1386.13196
8775,P,1386.13196
8776,P,1284.07312
8777,P,1284.07312
8778,P,1079.00061
8779,P,1079.00061
8780,P,4590.3374
8781,P,4590.3374
8782,P,3836.02466
8783,P,3836.02466
8784,P,-379.276764
8785,P,-379.276764
8786,P,-1598.44104
8787,P,-1598.44104
8788,P,4529.4375
8789,P,4529.4375
8790,P,3791.96899
8791,P,3791.96899
8792,P,-382.269104
8793,P,-382.269104
8794,P,-1602.0188
8795,P,-1602.0188
8796,P,4666.53809
8797,P,4666.53809
8798,P,-1121.42212
8799,P,-1121.42212
8800,P,4404.22217
8801,P,4404.22217
8802,P,4644.20996
8803,P,4644.20996
8804,P,4286.81055
8805,P,4286.81055
8806,P,-1117.68005
8807,P,-1117.68005
8808,P,2754.09741
8809,P,2754.09741
8810,P,3388.08521
8811,P,3388.08521
8812,P,3443.89185
8813,P,3443.89185
8814,P,2691.21777
8815,P,2691.21777
8816,P,1769.46936
8817,P,1769.46936
8818,P,2356.27319
8819,P,2356.27319
8820,P,2691.21606
8821,P,2691.21606
8822,P,3393.573
8823,P,3393.573
8824,P,2642.38257
8825,P,2642.38257
8826,P,3366.96338
8827,P,3366.96338
8828,P,1774.00659
8829,P,1774.00659
8830,P,1429.79187
8831,P,1429.79187
8832,P,1329.48901
8833,P,1329.48901
8834,P,1123.60193
8835,P,1123.60193
8836,P,1140.97534
8837,P,1140.97534
8838,P,1415.59302
8839,P,1415.59302
8840,P,1346.20667
8841,P,1346.20667
8842,P,-21.5512505
8843,P,-21.5512505
8844,P,-57.7919998
8845,P,-57.7919998
8846,P,-106.649788
8847,P,-106.649788
8848,P,-127.97879
8849,P,-127.97879
8850,P,-124.248848
8851,P,-124.248848
8852,P,-110.443649
8853,P,-110.443649
8854,P,-108.886978
8855,P,-108.886978
8856,P,632.066345
8857,P,632.066345
8858,P,730.375366
8859,P,730.375366
8860,P,-64.6837311
8861,P,-64.6837311
8862,P,-78.8621597
8863,P,-78.8621597
8864,P,716.186951
8865,P,716.186951
8866,P,-115.179863
8867,P,-115.179863
8868,P,-78.48703
8869,P,-78.48703
8870,P,-121.647026
8871,P,-121.647026
8872,P,-138.979248
8873,P,-138.979248
8874,P,-143.091934
8875,P,-143.091934
8876,P,-118.479912
8877,P,-118.479912
8878,P,-101.030167
8879,P,-101.030167
8880,P,-1134.21802
8881,P,-1134.21802
8882,P,-515.700317
8883,P,-515.700317
8884,P,-1119.52356
8885,P,-1119.52356
8886,P,-521.654541
8887,P,-521.654541
8888,P,-158.343613
8889,P,-158.343613
8890,P,-419.352356
8891,P,-419.352356
8892,P,-180.770203
8893,P,-180.770203
8894,P,-256.854706
8895,P,-256.854706
8896,P,-223.676376
8897,P,-223.676376
8898,P,-221.645691
8899,P,-221.645691
8900,P,-257.874329
8901,P,-257.874329
8902,P,-218.744339
8903,P,-218.744339
8904,P,-413.207367
8905,P,-413.207367
8906,P,-397.072144
8907,P,-397.072144
8908,P,-223.34053
8909,P,-223.34053
8910,P,-250.744446
8911,P,-250.744446
8912,P,-213.727325
8913,P,-213.727325
8914,P,-154.664993
8915,P,-154.664993
8916,P,-251.202789
8917,P,-251.202789
8918,P,-214.547974
8919,P,-214.547974
8920,P,-403.870819
8921,P,-403.870819
8922,P,-134.276779
8923,P,-134.276779
8924,P,627.557983
8925,P,627.557983
8926,P,715.836914
8927,P,715.836914
8928,P,-121.368378
8929,P,-121.368378
8930,P,-102.922371
8931,P,-102.922371
8932,P,731.39856
8933,P,731.39856
8934,P,-135.353943
8935,P,-135.353943
8936,P,-121.652565
8937,P,-121.652565
8938,P,-133.95076
8939,P,-133.95076
8940,P,-157.659622
8941,P,-157.659622
8942,P,-183.478378
8943,P,-183.478378
8944,P,-178.525665
8945,P,-178.525665
8946,P,-161.415375
8947,P,-161.415375
8948,P,-107.983437
8949,P,-107.983437
8950,P,-79.3375015
8951,P,-79.3375015
8952,P,-151.846298
8953,P,-151.846298
8954,P,-174.016083
8955,P,-174.016083
8956,P,-175.55719
8957,P,-175.55719
8958,P,-155.568436
8959,P,-155.568436
8960,P,-81.6388779
8961,P,-81.6388779
8962,P,2671.31982
8963,P,2671.31982
8964,P,3392.64624
8965,P,3392.64624
8966,P,3402.61377
8967,P,3402.61377
8968,P,2706.29004
8969,P,2706.29004
8970,P,1858.07593
8971,P,1858.07593
8972,P,4712.18506
8973,P,4712.18506
8974,P,3928.88403
8975,P,3928.88403
8976,P,-350.303558
8977,P,-350.303558
8978,P,4724.54248
8979,P,4724.54248
8980,P,3887.09253
8981,P,3887.09253
8982,P,-335.588959
8983,P,-335.588959
8984,P,4752.03174
8985,P,4752.03174
8986,P,4476.43848
8987,P,4476.43848
8988,P,4459.22607
8989,P,4459.22607
8990,P,4773.50342
8991,P,4773.50342
8992,P,1850.54224
8993,P,1850.54224
8994,P,2438.52173
8995,P,2438.52173
8996,P,2749.68848
8997,P,2749.68848
8998,P,3482.61768
8999,P,3482.61768
9000,P,3437.56128
9001,P,3437.56128
9002,P,2778.52271
9003,P,2778.52271
9004,P,1455.10315
9005,P,1455.10315
9006,P,1382.76636
9007,P,1382.76636
9008,P,1082.84094
9009,P,1082.84094
9010,P,1116.59656
9011,P,1116.59656
9012,P,1459.14966
9013,P,1459.14966
9014,P,1352.68274
9015,P,1352.68274
9016,P,4661.62256
9017,P,4661.62256
9018,P,3949.79956
9019,P,3949.79956
9020,P,-325.96405
9021,P,-325.96405
9022,P,-1636.52209
9023,P,-1636.52209
9024,P,4618.72852
9025,P,4618.72852
9026,P,3907.62207
9027,P,3907.62207
9028,P,-316.229828
9029,P,-316.229828
9030,P,-1626.91382
9031,P,-1626.91382
9032,P,4901.604
9033,P,4901.604
9034,P,-1088.87341
9035,P,-1088.87341
9036,P,4464.41943
9037,P,4464.41943
9038,P,4818.02441
9039,P,4818.02441
9040,P,4502.37646
9041,P,4502.37646
9042,P,-1149.11951
9043,P,-1149.11951
9044,P,2676.49121
9045,P,2676.49121
9046,P,3461.87891
9047,P,3461.87891
9048,P,3423.08643
9049,P,3423.08643
9050,P,2650.04834
9051,P,2650.04834
9052,P,1738.97864
9053,P,1738.97864
9054,P,2780.04541
9055,P,2780.04541
9056,P,3495.7439
9057,P,3495.7439
9058,P,2778.73535
9059,P,2778.73535
9060,P,3515.27197
9061,P,3515.27197
9062,P,1790.64795
9063,P,1790.64795
9064,P,1432.9342
9065,P,1432.9342
9066,P,1344.2821
9067,P,1344.2821
9068,P,1419.57178
9069,P,1419.57178
9070,P,1356.97168
9071,P,1356.97168
9072,P,-121.604912
9073,P,-121.604912
9074,P,-77.704216
9075,P,-77.704216
9076,P,-177.048996
9077,P,-177.048996
9078,P,-192.982101
9079,P,-192.982101
9080,P,-199.60849
9081,P,-199.60849
9082,P,-174.798172
9083,P,-174.798172
9084,P,-136.045929
9085,P,-136.045929
9086,P,-169.8349
9087,P,-169.8349
9088,P,584.844421
9089,P,584.844421
9090,P,710.50885
9091,P,710.50885
9092,P,-181.500793
9093,P,-181.500793
9094,P,-170.567245
9095,P,-170.567245
9096,P,687.381531
9097,P,687.381531
9098,P,-176.403946
9099,P,-176.403946
9100,P,-149.985504
9101,P,-149.985504
9102,P,-184.325211
9103,P,-184.325211
9104,P,-204.120544
9105,P,-204.120544
9106,P,-203.347092
9107,P,-203.347092
9108,P,-182.894379
9109,P,-182.894379
9110,P,-93.7414551
9111,P,-93.7414551
9112,P,-1179.0708
9113,P,-1179.0708
9114,P,-552.965027
9115,P,-552.965027
9116,P,-1134.4679
9117,P,-1134.4679
9118,P,-547.755066
9119,P,-547.755066
9120,P,-248.881363
9121,P,-248.881363
9122,P,-441.93396
9123,P,-441.93396
9124,P,-218.816315
9125,P,-218.816315
9126,P,-289.079895
9127,P,-289.079895
9128,P,-257.636566
9129,P,-257.636566
9130,P,-292.153656
9131,P,-292.153656
9132,P,-249.42218
9133,P,-249.42218
9134,P,-452.049774
9135,P,-452.049774
9136,P,-258.838593
9137,P,-258.838593
9138,P,-446.607025
9139,P,-446.607025
9140,P,-243.847748
9141,P,-243.847748
9142,P,-285.661499
9143,P,-285.661499
9144,P,-254.113373
9145,P,-254.113373
9146,P,-289.139587
9147,P,-289.139587
9148,P,-251.038086
9149,P,-251.038086
9150,P,-434.156494
9151,P,-434.156494
9152,P,-184.93721
9153,P,-184.93721
9154,P,-172.227737
9155,P,-172.227737
9156,P,583.15387
9157,P,583.15387
9158,P,684.909119
9159,P,684.909119
9160,P,-169.213394
9161,P,-169.213394
9162,P,-173.986832
9163,P,-173.986832
9164,P,714.573853
9165,P,714.573853
9166,P,-171.924759
9167,P,-171.924759
9168,P,-156.516266
9169,P,-156.516266
9170,P,-158.283371
9171,P,-158.283371
9172,P,-186.93219
9173,P,-186.93219
9174,P,-215.547119
9175,P,-215.547119
9176,P,-207.211151
9177,P,-207.211151
9178,P,-192.852173
9179,P,-192.852173
9180,P,-106.624077
9181,P,-106.624077
9182,P,-186.629486
9183,P,-186.629486
9184,P,-211.297867
9185,P,-211.297867
9186,P,-210.586472
9187,P,-210.586472
9188,P,-190.306595
9189,P,-190.306595
9190,P,-142.502243
9191,P,-142.502243
9192,P,2627.63672
9193,P,2627.63672
9194,P,3454.59253
9195,P,3454.59253
9196,P,3458.01953
9197,P,3458.01953
9198,P,2621.26514
9199,P,2621.26514
9200,P,1756.93213
9201,P,1756.93213
9202,P,2312.58667
9203,P,2312.58667
9204,P,4716.26562
9205,P,4716.26562
9206,P,3922.93652
9207,P,3922.93652
9208,P,-309.485504
9209,P,-309.485504
9210,P,4715.05908
9211,P,4715.05908
9212,P,3909.17944
9213,P,3909.17944
9214,P,-313.779144
9215,P,-313.779144
9216,P,4757.31738
9217,P,4757.31738
9218,P,4455.37744
9219,P,4455.37744
9220,P,4449.55957
9221,P,4449.55957
9222,P,4752.74805
9223,P,4752.74805
9224,P,1776.36255
9225,P,1776.36255
9226,P,2697.01831
9227,P,2697.01831
9228,P,3414.87915
9229,P,3414.87915
9230,P,3420.83228
9231,P,3420.83228
9232,P,2688.7688
9233,P,2688.7688
9234,P,1404.60657
9235,P,1404.60657
9236,P,1332.62622
9237,P,1332.62622
9238,P,1086.82068
9239,P,1086.82068
9240,P,1453.34448
9241,P,1453.34448
9242,P,1367.40039
9243,P,1367.40039
9244,P,1057.84424
9245,P,1057.84424
9246,P,4582.08105
9247,P,4582.08105
9248,P,3879.17554
9249,P,3879.17554
9250,P,-307.897003
9251,P,-307.897003
9252,P,-1576.33875
9253,P,-1576.33875
9254,P,4670.87842
9255,P,4670.87842
9256,P,3916.59839
9257,P,3916.59839
9258,P,-314.790161
9259,P,-314.790161
9260,P,-1582.05847
9261,P,-1582.05847
9262,P,4772.39551
9263,P,4772.39551
9264,P,-1073.41199
9265,P,-1073.41199
9266,P,4444.47217
9267,P,4444.47217
9268,P,4703.58398
9269,P,4703.58398
9270,P,4420.60938
9271,P,4420.60938
9272,P,-1073.19971
9273,P,-1073.19971
9274,P,2688.20532
9275,P,2688.20532
9276,P,3470.21216
9277,P,3470.21216
9278,P,3491.86426
9279,P,3491.86426
9280,P,2729.65454
9281,P,2729.65454
9282,P,1827.26721
9283,P,1827.26721
9284,P,2462.85718
9285,P,2462.85718
9286,P,2684.44067
9287,P,2684.44067
9288,P,3422.85864
9289,P,3422.85864
9290,P,2722.62695
9291,P,2722.62695
9292,P,3401.93042
9293,P,3401.93042
9294,P,1791.77454
9295,P,1791.77454
9296,P,1449.00623
9297,P,1449.00623
9298,P,1345.72241
9299,P,1345.72241
9300,P,1147.91345
9301,P,1147.91345
9302,P,1105.65442
9303,P,1105.65442
9304,P,1474.67761
9305,P,1474.67761
9306,P,1381.5863
9307,P,1381.5863
9308,P,-108.724869
9309,P,-108.724869
9310,P,-146.090225
9311,P,-146.090225
9312,P,-186.645081
9313,P,-186.645081
9314,P,-214.883957
9315,P,-214.883957
9316,P,-210.997772
9317,P,-210.997772
9318,P,-191.339813
9319,P,-191.339813
9320,P,-179.088287
9321,P,-179.088287
9322,P,578.738037
9323,P,578.738037
9324,P,717.811829
9325,P,717.811829
9326,P,-182.599121
9327,P,-182.599121
9328,P,-183.072311
9329,P,-183.072311
9330,P,684.584961
9331,P,684.584961
9332,P,-178.884369
9333,P,-178.884369
9334,P,-100.64827
9335,P,-100.64827
9336,P,-189.635925
9337,P,-189.635925
9338,P,-209.361404
9339,P,-209.361404
9340,P,-214.923004
9341,P,-214.923004
9342,P,-189.158768
9343,P,-189.158768
9344,P,-102.647186
9345,P,-102.647186
9346,P,-1107.58447
9347,P,-1107.58447
9348,P,-541.776917
9349,P,-541.776917
9350,P,-1074.2135
9351,P,-1074.2135
9352,P,-541.680115
9353,P,-541.680115
9354,P,-162.631546
9355,P,-162.631546
9356,P,-415.324188
9357,P,-415.324188
9358,P,-171.882874
9359,P,-171.882874
9360,P,-275.069244
9361,P,-275.069244
9362,P,-244.166962
9363,P,-244.166962
9364,P,-234.504944
9365,P,-234.504944
9366,P,-278.958893
9367,P,-278.958893
9368,P,-235.792404
9369,P,-235.792404
9370,P,-426.06601
9371,P,-426.06601
9372,P,-431.907104
9373,P,-431.907104
9374,P,-259.125427
9375,P,-259.125427
9376,P,-282.639893
9377,P,-282.639893
9378,P,-240.303116
9379,P,-240.303116
9380,P,-182.756104
9381,P,-182.756104
9382,P,-278.023895
9383,P,-278.023895
9384,P,-245.643372
9385,P,-245.643372
9386,P,-426.835052
9387,P,-426.835052
9388,P,-173.39801
9389,P,-173.39801
9390,P,593.506653
9391,P,593.506653
9392,P,692.433899
9393,P,692.433899
9394,P,-172.668579
9395,P,-172.668579
9396,P,-176.989716
9397,P,-176.989716
9398,P,686.9646
9399,P,686.9646
9400,P,-173.214996
9401,P,-173.214996
9402,P,-139.153137
9403,P,-139.153137
9404,P,-137.812531
9405,P,-137.812531
9406,P,-171.555679
9407,P,-171.555679
9408,P,-202.293457
9409,P,-202.293457
9410,P,-193.803253
9411,P,-193.803253
9412,P,-179.545944
9413,P,-179.545944
9414,P,-138.771423
9415,P,-138.771423
9416,P,-90.7418823
9417,P,-90.7418823
9418,P,-181.619614
9419,P,-181.619614
9420,P,-198.832733
9421,P,-198.832733
9422,P,-205.510818
9423,P,-205.510818
9424,P,-180.07811
9425,P,-180.07811
9426,P,-136.62886
9427,P,-136.62886
9428,P,2726.28345
9429,P,2726.28345
9430,P,3512.96191
9431,P,3512.96191
9432,P,3520.94702
9433,P,3520.94702
9434,P,2724.41797
9435,P,2724.41797
9436,P,1779.47156
9437,P,1779.47156
9438,P,4527.44775
9439,P,4527.44775
9440,P,3749.49219
9441,P,3749.49219
9442,P,-393.78183
9443,P,-393.78183
9444,P,4575.2124
9445,P,4575.2124
9446,P,3787.71338
9447,P,3787.71338
9448,P,-405.628632
9449,P,-405.628632
9450,P,4635.97705
9451,P,4635.97705
9452,P,4464.40723
9453,P,4464.40723
9454,P,4398.57324
9455,P,4398.57324
9456,P,4646.07178
9457,P,4646.07178
9458,P,1814.56104
9459,P,1814.56104
9460,P,2443.98828
9461,P,2443.98828
9462,P,2691.57031
9463,P,2691.57031
9464,P,3449.79248
9465,P,3449.79248
9466,P,3397.24731
9467,P,3397.24731
9468,P,2687.23608
9469,P,2687.23608
9470,P,1456.73523
9471,P,1456.73523
9472,P,1360.15186
9473,P,1360.15186
9474,P,1108.97485
9475,P,1108.97485
9476,P,1073.88196
9477,P,1073.88196
9478,P,1439.16565
9479,P,1439.16565
9480,P,1373.15576
9481,P,1373.15576
9482,P,4498.10986
9483,P,4498.10986
9484,P,3638.90649
9485,P,3638.90649
9486,P,-436.149048
9487,P,-436.149048
9488,P,-1586.8584
9489,P,-1586.8584
9490,P,4456.59619
9491,P,4456.59619
9492,P,3657.15552
9493,P,3657.15552
9494,P,-437.152985
9495,P,-437.152985
9496,P,-1600.48853
9497,P,-1600.48853
9498,P,4563.80566
9499,P,4563.80566
9500,P,-1133.43665
9501,P,-1133.43665
9502,P,4405.87939
9503,P,4405.87939
9504,P,4613.14941
9505,P,4613.14941
9506,P,4474.81885
9507,P,4474.81885
9508,P,-1119.63037
9509,P,-1119.63037
9510,P,2538.20361
9511,P,2538.20361
9512,P,3247.75977
9513,P,3247.75977
9514,P,3251.4873
9515,P,3251.4873
9516,P,2486.49438
9517,P,2486.49438
9518,P,1716.68909
9519,P,1716.68909
9520,P,2683.45752
9521,P,2683.45752
9522,P,3435.4104
9523,P,3435.4104
9524,P,2671.30518
9525,P,2671.30518
9526,P,3442.64746
9527,P,3442.64746
9528,P,1713.5592
9529,P,1713.5592
9530,P,1384.42078
9531,P,1384.42078
9532,P,1331.71924
9533,P,1331.71924
9534,P,1399.92969
9535,P,1399.92969
9536,P,1311.87244
9537,P,1311.87244
9538,P,-99.8201675
9539,P,-99.8201675
9540,P,-83.2606201
9541,P,-83.2606201
9542,P,-162.799789
9543,P,-162.799789
9544,P,-172.508392
9545,P,-172.508392
9546,P,-183.950714
9547,P,-183.950714
9548,P,-154.334702
9549,P,-154.334702
9550,P,-129.388123
9551,P,-129.388123
9552,P,-130.575912
9553,P,-130.575912
9554,P,637.157288
9555,P,637.157288
9556,P,753.644958
9557,P,753.644958
9558,P,-119.126709
9559,P,-119.126709
9560,P,-105.422157
9561,P,-105.422157
9562,P,761.889465
9563,P,761.889465
9564,P,-132.094879
9565,P,-132.094879
9566,P,-113.287651
9567,P,-113.287651
9568,P,-150.113907
9569,P,-150.113907
9570,P,-177.140961
9571,P,-177.140961
9572,P,-167.9207
9573,P,-167.9207
9574,P,-155.108032
9575,P,-155.108032
9576,P,-61.8447876
9577,P,-61.8447876
9578,P,-1179.15784
9579,P,-1179.15784
9580,P,-502.895905
9581,P,-502.895905
9582,P,-1137.32446
9583,P,-1137.32446
9584,P,-498.080505
9585,P,-498.080505
9586,P,-141.164902
9587,P,-141.164902
9588,P,-331.454407
9589,P,-331.454407
9590,P,-149.522842
9591,P,-149.522842
9592,P,-199.808426
9593,P,-199.808426
9594,P,-172.766968
9595,P,-172.766968
9596,P,-211.331131
9597,P,-211.331131
9598,P,-163.436401
9599,P,-163.436401
9600,P,-337.442535
9601,P,-337.442535
9602,P,-66.1215286
9603,P,-66.1215286
9604,P,-378.411835
9605,P,-378.411835
9606,P,-89.7561111
9607,P,-89.7561111
9608,P,-222.513428
9609,P,-222.513428
9610,P,-182.278229
9611,P,-182.278229
9612,P,-217.398026
9613,P,-217.398026
9614,P,-185.0383
9615,P,-185.0383
9616,P,-372.559723
9617,P,-372.559723
9618,P,-160.503967
9619,P,-160.503967
9620,P,-111.444145
9621,P,-111.444145
9622,P,635.188477
9623,P,635.188477
9624,P,761.842102
9625,P,761.842102
9626,P,-58.7965698
9627,P,-58.7965698
9628,P,-80.839653
9629,P,-80.839653
9630,P,743.228088
9631,P,743.228088
9632,P,-111.982941
9633,P,-111.982941
9634,P,-69.9475937
9635,P,-69.9475937
9636,P,-7.92412949
9637,P,-7.92412949
9638,P,-105.542336
9639,P,-105.542336
9640,P,-132.472122
9641,P,-132.472122
9642,P,-125.560158
9643,P,-125.560158
9644,P,-109.129601
9645,P,-109.129601
9646,P,-53.3102951
9647,P,-53.3102951
9648,P,-125.657516
9649,P,-125.657516
9650,P,-142.428116
9651,P,-142.428116
9652,P,-145.488449
9653,P,-145.488449
9654,P,-121.546539
9655,P,-121.546539
9656,P,-100.724693
9657,P,-100.724693
9658,P,2439.31689
9659,P,2439.31689
9660,P,3160.92114
9661,P,3160.92114
9662,P,3117.33887
9663,P,3117.33887
9664,P,2465.96948
9665,P,2465.96948
9666,P,1585.69531
9667,P,1585.69531
9668,P,2135.92676
9669,P,2135.92676
9670,P,3863.46533
9671,P,3863.46533
9672,P,3167.57227
9673,P,3167.57227
9674,P,-613.646057
9675,P,-613.646057
9676,P,3975.63745
9677,P,3975.63745
9678,P,3085.62354
9679,P,3085.62354
9680,P,-642.940796
9681,P,-642.940796
9682,P,3836.78687
9683,P,3836.78687
9684,P,3542.89771
9685,P,3542.89771
9686,P,3560.73535
9687,P,3560.73535
9688,P,3809.54248
9689,P,3809.54248
9690,P,1485.96216
9691,P,1485.96216
9692,P,2114.66504
9693,P,2114.66504
9694,P,2709.20728
9695,P,2709.20728
9696,P,2651.22412
9697,P,2651.22412
9698,P,2163.03296
9699,P,2163.03296
9700,P,1312.44495
9701,P,1312.44495
9702,P,1235.05725
9703,P,1235.05725
9704,P,1016.55475
9705,P,1016.55475
9706,P,1245.6897
9707,P,1245.6897
9708,P,1203.56567
9709,P,1203.56567
9710,P,1032.77966
9711,P,1032.77966
9712,P,3383.08057
9713,P,3383.08057
9714,P,2507.40405
9715,P,2507.40405
9716,P,-802.662659
9717,P,-802.662659
9718,P,-1163.38184
9719,P,-1163.38184
9720,P,3268.57764
9721,P,3268.57764
9722,P,2622.44971
9723,P,2622.44971
9724,P,-790.159424
9725,P,-790.159424
9726,P,-1298.12708
9727,P,-1298.12708
9728,P,3600.10522
9729,P,3600.10522
9730,P,-824.467529
9731,P,-824.467529
9732,P,3336.35352
9733,P,3336.35352
9734,P,3681.15918
9735,P,3681.15918
9736,P,3267.68018
9737,P,3267.68018
9738,P,-834.585571
9739,P,-834.585571
9740,P,1668.64648
9741,P,1668.64648
9742,P,1646.41235
9743,P,1646.41235
9744,P,1710.28967
9745,P,1710.28967
9746,P,1610.84839
9747,P,1610.84839
9748,P,521.138977
9749,P,521.138977
9750,P,1951.06653
9751,P,1951.06653
9752,P,2017.92871
9753,P,2017.92871
9754,P,2500.90479
9755,P,2500.90479
9756,P,2025.98413
9757,P,2025.98413
9758,P,2450.87744
9759,P,2450.87744
9760,P,1209.78699
9761,P,1209.78699
9762,P,1166.93604
9763,P,1166.93604
9764,P,1089.01746
9765,P,1089.01746
9766,P,979.397095
9767,P,979.397095
9768,P,1037.25928
9769,P,1037.25928
9770,P,1211.61072
9771,P,1211.61072
9772,P,1155.79333
9773,P,1155.79333
9774,P,-17.4913044
9775,P,-17.4913044
9776,P,-46.5413933
9777,P,-46.5413933
9778,P,-53.1460648
9779,P,-53.1460648
9780,P,-62.8237572
9781,P,-62.8237572
9782,P,-73.0310669
9783,P,-73.0310669
9784,P,-15.3987827
9785,P,-15.3987827
9786,P,156.328827
9787,P,156.328827
9788,P,-32.0944481
9789,P,-32.0944481
9790,P,885.877747
9791,P,885.877747
9792,P,163.000458
9793,P,163.000458
9794,P,137.20253
9795,P,137.20253
9796,P,861.308167
9797,P,861.308167
9798,P,179.954544
9799,P,179.954544
9800,P,-263.87265
9801,P,-263.87265
9802,P,391.287872
9803,P,391.287872
9804,P,-45.1909752
9805,P,-45.1909752
9806,P,-30.2106552
9807,P,-30.2106552
9808,P,74.0633392
9809,P,74.0633392
9810,P,-1419.41516
9811,P,-1419.41516
9812,P,-790.213379
9813,P,-790.213379
9814,P,-268.930847
9815,P,-268.930847
9816,P,-896.547974
9817,P,-896.547974
9818,P,-229.953857
9819,P,-229.953857
9820,P,-102.771339
9821,P,-102.771339
9822,P,168.067368
9823,P,168.067368
9824,P,186.783554
9825,P,186.783554
9826,P,65.0289001
9827,P,65.0289001
9828,P,82.6365356
9829,P,82.6365356
9830,P,173.068176
9831,P,173.068176
9832,P,33.5707741
9833,P,33.5707741
9834,P,98.7166443
9835,P,98.7166443
9836,P,33.0383987
9837,P,33.0383987
9838,P,-137.658249
9839,P,-137.658249
9840,P,66.3813095
9841,P,66.3813095
9842,P,-8.66687775
9843,P,-8.66687775
9844,P,68.2784958
9845,P,68.2784958
9846,P,97.7022629
9847,P,97.7022629
9848,P,9.71147537
9849,P,9.71147537
9850,P,46.912075
9851,P,46.912075
9852,P,-106.582382
9853,P,-106.582382
9854,P,417.857208
9855,P,417.857208
9856,P,-181.170044
9857,P,-181.170044
9858,P,1047.75244
9859,P,1047.75244
9860,P,291.111969
9861,P,291.111969
9862,P,295.010437
9863,P,295.010437
9864,P,999.387512
9865,P,999.387512
9866,P,397.244171
9867,P,397.244171
9868,P,-845.013489
9869,P,-845.013489
9870,P,-482.989227
9871,P,-482.989227
9872,P,425.264313
9873,P,425.264313
9874,P,81.4462662
9875,P,81.4462662
9876,P,106.83091
9877,P,106.83091
9878,P,413.196198
9879,P,413.196198
9880,P,-302.89743
9881,P,-302.89743
9882,P,-1365.20142
9883,P,-1365.20142
9884,P,446.192932
9885,P,446.192932
9886,P,93.5300598
9887,P,93.5300598
9888,P,53.7963257
9889,P,53.7963257
9890,P,540.732117
9891,P,540.732117
9892,P,-1859.31201
9893,P,-1859.31201
9894,P,878.683411
9895,P,878.683411
9896,P,768.049622
9897,P,768.049622
9898,P,512.669067
9899,P,512.669067
9900,P,491.127136
9901,P,491.127136
9902,P,355.086578
9903,P,355.086578
9904,P,415.254089
9905,P,415.254089
9906,P,520.715576
9907,P,520.715576
9908,P,-8.29476833
9909,P,-8.29476833
9910,P,1658.93457
9911,P,1658.93457
9912,P,-917.864014
9913,P,-917.864014
9914,P,-809.208435
9915,P,-809.208435
9916,P,2267.91138
9917,P,2267.91138
9918,P,1949.77844
9919,P,1949.77844
9920,P,-695.507629
9921,P,-695.507629
9922,P,1373.00635
9923,P,1373.00635
9924,P,-849.303528
9925,P,-849.303528
9926,P,919.613281
9927,P,919.613281
9928,P,506.285339
9929,P,506.285339
9930,P,524.047058
9931,P,524.047058
9932,P,404.696716
9933,P,404.696716
9934,P,409.556152
9935,P,409.556152
9936,P,523.557373
9937,P,523.557373
9938,P,873.348816
9939,P,873.348816
9940,P,739.927002
9941,P,739.927002
9942,P,1627.49573
9943,P,1627.49573
9944,P,-926.61377
9945,P,-926.61377
9946,P,2271.84399
9947,P,2271.84399
9948,P,1953.60583
9949,P,1953.60583
9950,P,1318.66821
9951,P,1318.66821
9952,P,-867.249084
9953,P,-867.249084
9954,P,1050.0929
9955,P,1050.0929
9956,P,-10.5116978
9957,P,-10.5116978
9958,P,1158.84424
9959,P,1158.84424
9960,P,466.859924
9961,P,466.859924
9962,P,471.780304
9963,P,471.780304
9964,P,355.924011
9965,P,355.924011
9966,P,372.984619
9967,P,372.984619
9968,P,384.485413
9969,P,384.485413
9970,P,455.609192
9971,P,455.609192
9972,P,552.197937
9973,P,552.197937
9974,P,221.292068
9975,P,221.292068
9976,P,-31.6238708
9977,P,-31.6238708
9978,P,245.957993
9979,P,245.957993
9980,P,282.020782
9981,P,282.020782
9982,P,282.020782
9983,P,346.90155
9984,P,346.90155
9985,P,294.563171
9986,P,294.563171
9987,P,838.018372
9988,P,838.018372
9989,P,1013.68164
9990,P,1013.68164
9991,P,1195.80164
9992,P,1195.80164
9993,P,931.04303
9994,P,931.04303
9995,P,132.613831
9996,P,132.613831
9997,P,206.145279
9998,P,206.145279
9999,P,246.968002
10000,P,246.968002
10001,P,246.968002
10002,P,293.847961
10003,P,293.847961
10004,P,164.589722
10005,P,164.589722
10006,P,143.424911
10007,P,143.424911
10008,P,89.4339523
10009,P,89.4339523
10010,P,120.551666
10011,P,120.551666
10012,P,144.105392
10013,P,144.105392
10014,P,556.262451
10015,P,556.262451
10016,P,468.547485
10017,P,468.547485
10018,P,434.643188
10019,P,434.643188
10020,P,361.818604
10021,P,361.818604
10022,P,481.5354
10023,P,481.5354
10024,P,575.962219
10025,P,575.962219
10026,P,853.057861
10027,P,853.057861
10028,P,999.99176
10029,P,999.99176
10030,P,923.907654
10031,P,923.907654
10032,P,1811.68774
10033,P,1811.68774
10034,P,1811.68774
10035,P,232.471893
10036,P,232.471893
10037,P,253.307388
10038,P,253.307388
10039,P,272.766693
10040,P,272.766693
10041,P,234.47551
10042,P,234.47551
10043,P,-392.312042
10044,P,-392.312042
10045,P,614.329895
10046,P,614.329895
10047,P,778.30719
10048,P,778.30719
10049,P,4.05008984
10050,P,4.05008984
10051,P,-90.4003372
10052,P,-90.4003372
10053,P,-7.09210968
10054,P,-7.09210968
10055,P,704.485107
10056,P,704.485107
10057,P,696.390808
10058,P,696.390808
10059,P,14.0576258
10060,P,14.0576258
10061,P,-74.4993439
10062,P,-74.4993439
10063,P,4.08641291
10064,P,4.08641291
10065,P,-2474.09399
10066,P,-2474.09399
10067,P,462.788086
10068,P,462.788086
10069,P,406.735748
10070,P,406.735748
10071,P,21.2130451
10072,P,21.2130451
10073,P,-19.6599617
10074,P,-19.6599617
10075,P,-14.443615
10076,P,-14.443615
10077,P,412.646149
10078,P,412.646149
10079,P,389.676514
10080,P,389.676514
10081,P,-20.7043514
10082,P,-20.7043514
10083,P,10.1396894
10084,P,10.1396894
10085,P,4.93828297
10086,P,4.93828297
10087,P,-226.339813
10088,P,-226.339813
10089,P,-257.699371
10090,P,-257.699371
10091,P,242.392883
10092,P,242.392883
10093,P,297.169312
10094,P,297.169312
10095,P,-352.797546
10096,P,-352.797546
10097,P,-381.335297
10098,P,-381.335297
10099,P,-354.099304
10100,P,-354.099304
10101,P,291.516022
10102,P,291.516022
10103,P,248.99614
10104,P,248.99614
10105,P,-349.12442
10106,P,-349.12442
10107,P,-376.408539
10108,P,-376.408539
10109,P,-349.35553
10110,P,-349.35553
10111,P,-262.65094
10112,P,-262.65094
10113,P,-248.458038
10114,P,-248.458038
10115,P,252.5298
10116,P,252.5298
10117,P,288.690308
10118,P,288.690308
10119,P,-368.43924
10120,P,-368.43924
10121,P,-397.526184
10122,P,-397.526184
10123,P,-367.294678
10124,P,-367.294678
10125,P,287.06842
10126,P,287.06842
10127,P,238.551422
10128,P,238.551422
10129,P,-368.410797
10130,P,-368.410797
10131,P,-398.313171
10132,P,-398.313171
10133,P,-368.720825
10134,P,-368.720825
10135,P,-232.544983
10136,P,-232.544983
10137,P,412.32666
10138,P,412.32666
10139,P,-279.993469
10140,P,-279.993469
10141,P,278.20105
10142,P,278.20105
10143,P,333.544708
10144,P,333.544708
10145,P,-320.90683
10146,P,-320.90683
10147,P,-353.570862
10148,P,-353.570862
10149,P,-325.876617
10150,P,-325.876617
10151,P,340.96582
10152,P,340.96582
10153,P,272.875916
10154,P,272.875916
10155,P,-348.068634
10156,P,-348.068634
10157,P,-369.998322
10158,P,-369.998322
10159,P,-342.277649
10160,P,-342.277649
10161,P,539.667725
10162,P,539.667725
10163,P,-1230.0979
10164,P,-1230.0979
10165,P,488.996246
10166,P,488.996246
10167,P,462.475342
10168,P,462.475342
10169,P,83.3693695
10170,P,83.3693695
10171,P,-61.6760864
10172,P,-61.6760864
10173,P,51.4639168
10174,P,51.4639168
10175,P,453.327637
10176,P,453.327637
10177,P,473.08551
10178,P,473.08551
10179,P,9.72853756
10180,P,9.72853756
10181,P,-56.1151237
10182,P,-56.1151237
10183,P,31.3404484
10184,P,31.3404484
10185,P,90.8211365
10186,P,90.8211365
10187,P,97.4653702
10188,P,97.4653702
10189,P,-69.0199356
10190,P,-69.0199356
10191,P,-69.0199356
10192,P,1096.81116
10193,P,1096.81116
10194,P,1096.81116
10195,P,2470.22998
10196,P,2470.22998
10197,P,1048.79419
10198,P,1048.79419
10199,P,1827.90942
10200,P,1827.90942
10201,P,2020.39319
10202,P,2020.39319
10203,P,1780.63025
10204,P,1780.63025
10205,P,1670.30371
10206,P,1670.30371
10207,P,1499.47986
10208,P,1499.47986
10209,P,-556.68689
10210,P,-556.68689
10211,P,1018.89722
10212,P,1018.89722
10213,P,-579.00946
10214,P,-579.00946
10215,P,-183.985336
10216,P,-183.985336
10217,P,-183.985336
10218,P,-322.058411
10219,P,-322.058411
10220,P,101.603607
10221,P,101.603607
10222,P,136.640732
10223,P,136.640732
10224,P,1831.50952
10225,P,1831.50952
10226,P,308.965424
10227,P,308.965424
10228,P,313.456238
10229,P,313.456238
10230,P,382.139221
10231,P,382.139221
10232,P,1372.92542
10233,P,1372.92542
10234,P,385.753937
10235,P,385.753937
10236,P,1780.37073
10237,P,1780.37073
10238,P,1780.37073
10239,P,-1087.5188
10240,P,-1087.5188
10241,P,-1229.68896
10242,P,-1229.68896
10243,P,514.296997
10244,P,514.296997
10245,P,439.713043
10246,P,439.713043
10247,P,83.3580093
10248,P,83.3580093
10249,P,-66.7474442
10250,P,-66.7474442
10251,P,458.18692
10252,P,458.18692
10253,P,47.5030861
10254,P,47.5030861
10255,P,474.155457
10256,P,474.155457
10257,P,6.97351456
10258,P,6.97351456
10259,P,-59.46875
10260,P,-59.46875
10261,P,26.9668465
10262,P,26.9668465
10263,P,-242.059006
10264,P,-242.059006
10265,P,-267.02774
10266,P,-267.02774
10267,P,286.848083
10268,P,286.848083
10269,P,324.46994
10270,P,324.46994
10271,P,-319.539764
10272,P,-319.539764
10273,P,-351.649445
10274,P,-351.649445
10275,P,333.149811
10276,P,333.149811
10277,P,-323.117462
10278,P,-323.117462
10279,P,273.595978
10280,P,273.595978
10281,P,-345.141205
10282,P,-345.141205
10283,P,-370.508972
10284,P,-370.508972
10285,P,-341.563446
10286,P,-341.563446
10287,P,-270.66745
10288,P,-270.66745
10289,P,-239.84317
10290,P,-239.84317
10291,P,235.81572
10292,P,235.81572
10293,P,286.724976
10294,P,286.724976
10295,P,-369.518585
10296,P,-369.518585
10297,P,-396.217377
10298,P,-396.217377
10299,P,284.385742
10300,P,284.385742
10301,P,-366.600403
10302,P,-366.600403
10303,P,236.964569
10304,P,236.964569
10305,P,-366.952698
10306,P,-366.952698
10307,P,-399.171722
10308,P,-399.171722
10309,P,-368.983826
10310,P,-368.983826
10311,P,-214.617661
10312,P,-214.617661
10313,P,-240.502853
10314,P,-240.502853
10315,P,253.470261
10316,P,253.470261
10317,P,301.704437
10318,P,301.704437
10319,P,-354.659637
10320,P,-354.659637
10321,P,-380.763397
10322,P,-380.763397
10323,P,297.070435
10324,P,297.070435
10325,P,-353.880798
10326,P,-353.880798
10327,P,254.678238
10328,P,254.678238
10329,P,-350.464935
10330,P,-350.464935
10331,P,-378.017456
10332,P,-378.017456
10333,P,-351.367126
10334,P,-351.367126
10335,P,-1564.95911
10336,P,-1564.95911
10337,P,-2450.55811
10338,P,-2450.55811
10339,P,449.743927
10340,P,449.743927
10341,P,427.66626
10342,P,427.66626
10343,P,11.6316729
10344,P,11.6316729
10345,P,-25.0979595
10346,P,-25.0979595
10347,P,417.232941
10348,P,417.232941
10349,P,-21.3250904
10350,P,-21.3250904
10351,P,484.690491
10352,P,484.690491
10353,P,-19.3117256
10354,P,-19.3117256
10355,P,9.84122944
10356,P,9.84122944
10357,P,3.22075009
10358,P,3.22075009
10359,P,717.077087
10360,P,717.077087
10361,P,-224.456161
10362,P,-224.456161
10363,P,623.73468
10364,P,623.73468
10365,P,771.785278
10366,P,771.785278
10367,P,20.5408592
10368,P,20.5408592
10369,P,-97.0960617
10370,P,-97.0960617
10371,P,703.720825
10372,P,703.720825
10373,P,-1.86654723
10374,P,-1.86654723
10375,P,705.32019
10376,P,705.32019
10377,P,15.3227005
10378,P,15.3227005
10379,P,-81.1534195
10380,P,-81.1534195
10381,P,2.32824492
10382,P,2.32824492
10383,P,1827.91992
10384,P,1827.91992
10385,P,2026.44067
10386,P,2026.44067
10387,P,1782.50427
10388,P,1782.50427
10389,P,1671.7345
10390,P,1671.7345
10391,P,1477.48083
10392,P,1477.48083
10393,P,991.899353
10394,P,991.899353
10395,P,-600.191833
10396,P,-600.191833
10397,P,1961.17224
10398,P,1961.17224
10399,P,233.904892
10400,P,233.904892
10401,P,191.720596
10402,P,191.720596
10403,P,200.131622
10404,P,200.131622
10405,P,1557.73608
10406,P,1557.73608
10407,P,277.954193
10408,P,277.954193
10409,P,1843.32141
10410,P,1843.32141
10411,P,1843.32141
10412,P,-78.8929749
10413,P,-78.8929749
10414,P,-78.8929749
10415,P,1121.15125
10416,P,1121.15125
10417,P,1121.15125
10418,P,2467.19336
10419,P,2467.19336
10420,P,990.503601
10421,P,990.503601
10422,P,619.796082
10423,P,619.796082
10424,P,-576.904236
10425,P,-576.904236
10426,P,642.77179
10427,P,642.77179
10428,P,592.866821
10429,P,592.866821
10430,P,22.6111355
10431,P,22.6111355
10432,P,-75.3159332
10433,P,-75.3159332
10434,P,655.779907
10435,P,655.779907
10436,P,38.3570137
10437,P,38.3570137
10438,P,595.807678
10439,P,595.807678
10440,P,80.6263046
10441,P,80.6263046
10442,P,-60.506649
10443,P,-60.506649
10444,P,61.3762512
10445,P,61.3762512
10446,P,504.820892
10447,P,504.820892
10448,P,1260.05981
10449,P,1260.05981
10450,P,613.199097
10451,P,613.199097
10452,P,557.175232
10453,P,557.175232
10454,P,1313.06641
10455,P,1313.06641
10456,P,623.61792
10457,P,623.61792
10458,P,521.283813
10459,P,521.283813
10460,P,521.283813
10461,P,-223.853455
10462,P,-223.853455
10463,P,-223.853455
10464,P,-552.978333
10465,P,-552.978333
10466,P,589.787842
10467,P,589.787842
10468,P,-502.889526
10469,P,-502.889526
10470,P,765.444702
10471,P,765.444702
10472,P,-574.600769
10473,P,-574.600769
10474,P,1157.77454
10475,P,1157.77454
10476,P,-674.900085
10477,P,-674.900085
10478,P,864.066406
10479,P,864.066406
10480,P,710.589905
10481,P,710.589905
10482,P,710.589905
10483,P,-190.991714
10484,P,-190.991714
10485,P,-190.991714
10486,P,-382.364288
10487,P,-382.364288
10488,P,1029.29114
10489,P,1029.29114
10490,P,-488.232025
10491,P,-488.232025
10492,P,791.799072
10493,P,791.799072
10494,P,-751.281128
10495,P,-751.281128
10496,P,587.685364
10497,P,587.685364
10498,P,-706.112976
10499,P,-706.112976
10500,P,779.673462
10501,P,779.673462
10502,P,2126.07495
10503,P,2126.07495
10504,P,-1258.7865
10505,P,-1258.7865
10506,P,896.441956
10507,P,896.441956
10508,P,2004.66248
10509,P,2004.66248
10510,P,858.609436
10511,P,858.609436
10512,P,574.837646
10513,P,574.837646
10514,P,173.981232
10515,P,173.981232
10516,P,173.981232
10517,P,380.675323
10518,P,380.675323
10519,P,439.322083
10520,P,439.322083
10521,P,546.475098
10522,P,546.475098
10523,P,457.020569
10524,P,457.020569
10525,P,99.0433426
10526,P,99.0433426
10527,P,99.0433426
10528,P,481.714722
10529,P,481.714722
10530,P,468.972321
10531,P,468.972321
10532,P,-2606.63184
10533,P,-2606.63184
10534,P,407.556732
10535,P,407.556732
10536,P,-11.6011133
10537,P,-11.6011133
10538,P,446.968811
10539,P,446.968811
10540,P,43.7743912
10541,P,43.7743912
10542,P,407.767853
10543,P,407.767853
10544,P,20.3469486
10545,P,20.3469486
10546,P,462.813354
10547,P,462.813354
10548,P,8.55236626
10549,P,8.55236626
10550,P,-24.1084061
10551,P,-24.1084061
10552,P,-14.0032015
10553,P,-14.0032015
10554,P,317.7565
10555,P,317.7565
10556,P,694.666504
10557,P,694.666504
10558,P,-1167.52881
10559,P,-1167.52881
10560,P,303.899384
10561,P,303.899384
10562,P,309.605652
10563,P,309.605652
10564,P,692.272156
10565,P,692.272156
10566,P,313.338867
10567,P,313.338867
10568,P,-83.5737839
10569,P,-83.5737839
10570,P,-83.5737839
10571,P,-288.468414
10572,P,-288.468414
10573,P,-288.468414
10574,P,-555.6521
10575,P,-555.6521
10576,P,308.965942
10577,P,308.965942
10578,P,-567.133667
10579,P,-567.133667
10580,P,-787.003235
10581,P,-787.003235
10582,P,267.158722
10583,P,267.158722
10584,P,-792.731567
10585,P,-792.731567
10586,P,263.190277
10587,P,263.190277
10588,P,-79.3418427
10589,P,-79.3418427
10590,P,-79.3418427
10591,P,-256.366882
10592,P,-256.366882
10593,P,-256.366882
10594,P,-573.926697
10595,P,-573.926697
10596,P,-569.276184
10597,P,-569.276184
10598,P,297.884949
10599,P,297.884949
10600,P,-787.234192
10601,P,-787.234192
10602,P,275.914429
10603,P,275.914429
10604,P,-783.607056
10605,P,-783.607056
10606,P,269.909119
10607,P,269.909119
10608,P,611.763733
10609,P,611.763733
10610,P,-1386.30103
10611,P,-1386.30103
10612,P,372.751404
10613,P,372.751404
10614,P,637.245239
10615,P,637.245239
10616,P,-1208.05615
10617,P,-1208.05615
10618,P,381.68161
10619,P,381.68161
10620,P,323.362854
10621,P,323.362854
10622,P,-117.740784
10623,P,-117.740784
10624,P,-117.740784
10625,P,286.438171
10626,P,286.438171
10627,P,287.253479
10628,P,287.253479
10629,P,274.651337
10630,P,274.651337
10631,P,284.464508
10632,P,284.464508
10633,P,-109.695648
10634,P,-109.695648
10635,P,-109.695648
10636,P,337.21933
10637,P,337.21933
10638,P,316.300873
10639,P,316.300873
10640,P,-262.674469
10641,P,-262.674469
10642,P,-226.550781
10643,P,-226.550781
10644,P,249.398941
10645,P,249.398941
10646,P,279.900909
10647,P,279.900909
10648,P,-357.121857
10649,P,-357.121857
10650,P,-385.163147
10651,P,-385.163147
10652,P,285.068817
10653,P,285.068817
10654,P,-356.115845
10655,P,-356.115845
10656,P,247.048508
10657,P,247.048508
10658,P,-360.063568
10659,P,-360.063568
10660,P,-391.978729
10661,P,-391.978729
10662,P,-361.973175
10663,P,-361.973175
10664,P,239.446579
10665,P,239.446579
10666,P,403.507996
10667,P,403.507996
10668,P,320.394379
10669,P,320.394379
10670,P,234.853119
10671,P,234.853119
10672,P,417.88739
10673,P,417.88739
10674,P,-1305.86548
10675,P,-1305.86548
10676,P,345.647675
10677,P,345.647675
10678,P,194.330978
10679,P,194.330978
10680,P,194.330978
10681,P,-450.281036
10682,P,-450.281036
10683,P,-450.281036
10684,P,-674.249939
10685,P,-674.249939
10686,P,182.181351
10687,P,182.181351
10688,P,-670.013672
10689,P,-670.013672
10690,P,196.507568
10691,P,196.507568
10692,P,-819.942444
10693,P,-819.942444
10694,P,243.01059
10695,P,243.01059
10696,P,-810.764343
10697,P,-810.764343
10698,P,222.931778
10699,P,222.931778
10700,P,204.017807
10701,P,204.017807
10702,P,204.017807
10703,P,-443.354675
10704,P,-443.354675
10705,P,-443.354675
10706,P,-663.417358
10707,P,-663.417358
10708,P,223.312592
10709,P,223.312592
10710,P,-667.046814
10711,P,-667.046814
10712,P,203.314819
10713,P,203.314819
10714,P,-816.130432
10715,P,-816.130432
10716,P,196.317764
10717,P,196.317764
10718,P,-832.465576
10719,P,-832.465576
10720,P,215.630219
10721,P,215.630219
10722,P,579.28418
10723,P,579.28418
10724,P,446.391663
10725,P,446.391663
10726,P,538.707336
10727,P,538.707336
10728,P,433.670105
10729,P,433.670105
10730,P,178.952835
10731,P,178.952835
10732,P,180.630798
10733,P,180.630798
10734,P,180.630798
10735,P,179.546066
10736,P,179.546066
10737,P,179.135284
10738,P,179.135284
10739,P,190.804581
10740,P,190.804581
10741,P,180.237625
10742,P,180.237625
10743,P,181.037613
10744,P,181.037613
10745,P,181.037613
10746,P,174.796127
10747,P,174.796127
10748,P,380.846161
10749,P,380.846161
10750,P,371.953369
10751,P,371.953369
10752,P,-258.820435
10753,P,-258.820435
10754,P,284.144592
10755,P,284.144592
10756,P,-365.788239
10757,P,-365.788239
10758,P,252.133316
10759,P,252.133316
10760,P,-397.725342
10761,P,-397.725342
10762,P,289.920105
10763,P,289.920105
10764,P,-366.845428
10765,P,-366.845428
10766,P,252.609314
10767,P,252.609314
10768,P,-364.644348
10769,P,-364.644348
10770,P,-395.540833
10771,P,-395.540833
10772,P,-364.644928
10773,P,-364.644928
10774,P,246.290131
10775,P,246.290131
10776,P,423.297821
10777,P,423.297821
10778,P,-1626.48975
10779,P,-1626.48975
10780,P,250.381454
10781,P,250.381454
10782,P,249.902725
10783,P,249.902725
10784,P,428.33905
10785,P,428.33905
10786,P,260.262909
10787,P,260.262909
10788,P,201.203415
10789,P,201.203415
10790,P,201.203415
10791,P,-469.147644
10792,P,-469.147644
10793,P,-469.147644
10794,P,-701.760559
10795,P,-701.760559
10796,P,196.105545
10797,P,196.105545
10798,P,-704.312866
10799,P,-704.312866
10800,P,-849.335632
10801,P,-849.335632
10802,P,205.203873
10803,P,205.203873
10804,P,-843.442444
10805,P,-843.442444
10806,P,203.503204
10807,P,203.503204
10808,P,205.45108
10809,P,205.45108
10810,P,205.45108
10811,P,-472.305054
10812,P,-472.305054
10813,P,-472.305054
10814,P,-706.728821
10815,P,-706.728821
10816,P,-703.506592
10817,P,-703.506592
10818,P,194.869446
10819,P,194.869446
10820,P,-843.089233
10821,P,-843.089233
10822,P,201.128265
10823,P,201.128265
10824,P,-846.533081
10825,P,-846.533081
10826,P,206.680069
10827,P,206.680069
10828,P,408.444672
10829,P,408.444672
10830,P,270.879913
10831,P,270.879913
10832,P,412.978119
10833,P,412.978119
10834,P,-1348.14294
10835,P,-1348.14294
10836,P,274.150024
10837,P,274.150024
10838,P,201.333099
10839,P,201.333099
10840,P,194.762482
10841,P,194.762482
10842,P,194.762482
10843,P,186.41954
10844,P,186.41954
10845,P,191.870514
10846,P,191.870514
10847,P,202.022919
10848,P,202.022919
10849,P,192.255356
10850,P,192.255356
10851,P,190.772217
10852,P,190.772217
10853,P,190.772217
10854,P,186.742508
10855,P,186.742508
10856,P,191.323349
10857,P,191.323349
10858,P,-1687.82642
10859,P,-1687.82642
10860,P,297.357391
10861,P,297.357391
10862,P,359.188751
10863,P,359.188751
10864,P,-252.161301
10865,P,-252.161301
10866,P,-283.393555
10867,P,-283.393555
10868,P,350.556915
10869,P,350.556915
10870,P,-197.503418
10871,P,-197.503418
10872,P,364.276459
10873,P,364.276459
10874,P,-55.1717186
10875,P,-55.1717186
10876,P,-115.68618
10877,P,-115.68618
10878,P,-67.812645
10879,P,-67.812645
10880,P,346.909393
10881,P,346.909393
10882,P,696.469299
10883,P,696.469299
10884,P,362.70932
10885,P,362.70932
10886,P,350.134766
10887,P,350.134766
10888,P,711.48999
10889,P,711.48999
10890,P,400.442535
10891,P,400.442535
10892,P,225.402054
10893,P,225.402054
10894,P,225.402054
10895,P,-428.341034
10896,P,-428.341034
10897,P,-428.341034
10898,P,-653.036682
10899,P,-653.036682
10900,P,258.200378
10901,P,258.200378
10902,P,-666.006287
10903,P,-666.006287
10904,P,240.391785
10905,P,240.391785
10906,P,-833.197815
10907,P,-833.197815
10908,P,240.831711
10909,P,240.831711
10910,P,-804.509277
10911,P,-804.509277
10912,P,253.642899
10913,P,253.642899
10914,P,219.076035
10915,P,219.076035
10916,P,219.076035
10917,P,-440.571838
10918,P,-440.571838
10919,P,-440.571838
10920,P,-669.382751
10921,P,-669.382751
10922,P,222.83548
10923,P,222.83548
10924,P,-661.647156
10925,P,-661.647156
10926,P,237.573822
10927,P,237.573822
10928,P,-798.968628
10929,P,-798.968628
10930,P,264.60022
10931,P,264.60022
10932,P,-825.258057
10933,P,-825.258057
10934,P,255.230118
10935,P,255.230118
10936,P,686.895935
10937,P,686.895935
10938,P,-1282.12756
10939,P,-1282.12756
10940,P,414.738068
10941,P,414.738068
10942,P,682.841492
10943,P,682.841492
10944,P,413.505402
10945,P,413.505402
10946,P,265.524963
10947,P,265.524963
10948,P,174.731567
10949,P,174.731567
10950,P,174.731567
10951,P,305.65976
10952,P,305.65976
10953,P,290.831848
10954,P,290.831848
10955,P,268.169342
10956,P,268.169342
10957,P,284.807159
10958,P,284.807159
10959,P,70.5351868
10960,P,70.5351868
10961,P,70.5351868
10962,P,289.064819
10963,P,289.064819
10964,P,546.403259
10965,P,546.403259
10966,P,534.012634
10967,P,534.012634
10968,P,-1128.18323
10969,P,-1128.18323
10970,P,486.97406
10971,P,486.97406
10972,P,85.9953766
10973,P,85.9953766
10974,P,519.914062
10975,P,519.914062
10976,P,-23.5388927
10977,P,-23.5388927
10978,P,467.981842
10979,P,467.981842
10980,P,106.393883
10981,P,106.393883
10982,P,521.776306
10983,P,521.776306
10984,P,100.054718
10985,P,100.054718
10986,P,-34.5270233
10987,P,-34.5270233
10988,P,97.8543243
10989,P,97.8543243
10990,P,342.651825
10991,P,342.651825
10992,P,944.62323
10993,P,944.62323
10994,P,-1237.19263
10995,P,-1237.19263
10996,P,441.34256
10997,P,441.34256
10998,P,325.413269
10999,P,325.413269
11000,P,910.307617
11001,P,910.307617
11002,P,426.136505
11003,P,426.136505
11004,P,-76.7728348
11005,P,-76.7728348
11006,P,-76.7728348
11007,P,-305.332916
11008,P,-305.332916
11009,P,-305.332916
11010,P,-581.871704
11011,P,-581.871704
11012,P,340.910034
11013,P,340.910034
11014,P,-574.992249
11015,P,-574.992249
11016,P,-769.204346
11017,P,-769.204346
11018,P,272.817871
11019,P,272.817871
11020,P,-758.073608
11021,P,-758.073608
11022,P,276.311523
11023,P,276.311523
11024,P,-76.8655548
11025,P,-76.8655548
11026,P,-76.8655548
11027,P,-302.339172
11028,P,-302.339172
11029,P,-302.339172
11030,P,-571.224548
11031,P,-571.224548
11032,P,-573.287109
11033,P,-573.287109
11034,P,304.579895
11035,P,304.579895
11036,P,-767.809204
11037,P,-767.809204
11038,P,278.342896
11039,P,278.342896
11040,P,-745.813354
11041,P,-745.813354
11042,P,267.82373
11043,P,267.82373
11044,P,685.444702
11045,P,685.444702
11046,P,-1296.28589
11047,P,-1296.28589
11048,P,309.760986
11049,P,309.760986
11050,P,681.928101
11051,P,681.928101
11052,P,-1069.88452
11053,P,-1069.88452
11054,P,315.77121
11055,P,315.77121
11056,P,330.740967
11057,P,330.740967
11058,P,-43.6861877
11059,P,-43.6861877
11060,P,-43.6861877
11061,P,358.32431
11062,P,358.32431
11063,P,310.926178
11064,P,310.926178
11065,P,286.997467
11066,P,286.997467
11067,P,307.603455
11068,P,307.603455
11069,P,-25.7215977
11070,P,-25.7215977
11071,P,-25.7215977
11072,P,418.735748
11073,P,418.735748
11074,P,343.31192
11075,P,343.31192
11076,P,209.9673
11077,P,209.9673
11078,P,184.646881
11079,P,184.646881
11080,P,1479.95618
11081,P,1479.95618
11082,P,1460.52136
11083,P,1460.52136
11084,P,1419.04492
11085,P,1419.04492
11086,P,1392.50415
11087,P,1392.50415
11088,P,927.309509
11089,P,927.309509
11090,P,-5.28438473
11091,P,-5.28438473
11092,P,209.965454
11093,P,209.965454
11094,P,212.369888
11095,P,212.369888
11096,P,-138.309555
11097,P,-138.309555
11098,P,134.226547
11099,P,134.226547
11100,P,163.829788
11101,P,163.829788
11102,P,88.3434982
11103,P,88.3434982
11104,P,530.965332
11105,P,530.965332
11106,P,550.504333
11107,P,550.504333
11108,P,-1131.23254
11109,P,-1131.23254
11110,P,479.439606
11111,P,479.439606
11112,P,100.122131
11113,P,100.122131
11114,P,482.59082
11115,P,482.59082
11116,P,-29.35993
11117,P,-29.35993
11118,P,469.977661
11119,P,469.977661
11120,P,108.225937
11121,P,108.225937
11122,P,529.280945
11123,P,529.280945
11124,P,80.3778305
11125,P,80.3778305
11126,P,-44.771843
11127,P,-44.771843
11128,P,89.690712
11129,P,89.690712
11130,P,345.606934
11131,P,345.606934
11132,P,941.415466
11133,P,941.415466
11134,P,-1235.21008
11135,P,-1235.21008
11136,P,455.563721
11137,P,455.563721
11138,P,325.761658
11139,P,325.761658
11140,P,906.396423
11141,P,906.396423
11142,P,-1475.34326
11143,P,-1475.34326
11144,P,454.51236
11145,P,454.51236
11146,P,-91.3164368
11147,P,-91.3164368
11148,P,-91.3164368
11149,P,-309.463776
11150,P,-309.463776
11151,P,-309.463776
11152,P,-582.52179
11153,P,-582.52179
11154,P,-575.81189
11155,P,-575.81189
11156,P,-769.698547
11157,P,-769.698547
11158,P,266.107422
11159,P,266.107422
11160,P,-755.791138
11161,P,-755.791138
11162,P,255.990509
11163,P,255.990509
11164,P,-91.3399658
11165,P,-91.3399658
11166,P,-91.3399658
11167,P,-305.232178
11168,P,-305.232178
11169,P,-305.232178
11170,P,-571.541931
11171,P,-571.541931
11172,P,-573.421692
11173,P,-573.421692
11174,P,316.69693
11175,P,316.69693
11176,P,-766.863037
11177,P,-766.863037
11178,P,283.124054
11179,P,283.124054
11180,P,-744.123901
11181,P,-744.123901
11182,P,257.788788
11183,P,257.788788
11184,P,-45.9769974
11185,P,-45.9769974
11186,P,-45.9769974
11187,P,326.183319
11188,P,326.183319
11189,P,367.934448
11190,P,367.934448
11191,P,373.728363
11192,P,373.728363
11193,P,319.50882
11194,P,319.50882
11195,P,-24.0784264
11196,P,-24.0784264
11197,P,-24.0784264
11198,P,283.469086
11199,P,283.469086
11200,P,308.32019
11201,P,308.32019
11202,P,631.19696
11203,P,631.19696
11204,P,301.76889
11205,P,301.76889
11206,P,638.933167
11207,P,638.933167
11208,P,-1069.52527
11209,P,-1069.52527
11210,P,311.078094
11211,P,311.078094
11212,P,-1466.66943
11213,P,-1466.66943
11214,P,-1686.17297
11215,P,-1686.17297
11216,P,301.066376
11217,P,301.066376
11218,P,358.599487
11219,P,358.599487
11220,P,-251.005234
11221,P,-251.005234
11222,P,-283.486938
11223,P,-283.486938
11224,P,343.34494
11225,P,343.34494
11226,P,-198.888397
11227,P,-198.888397
11228,P,356.372894
11229,P,356.372894
11230,P,-50.2395058
11231,P,-50.2395058
11232,P,-118.738693
11233,P,-118.738693
11234,P,-64.2144394
11235,P,-64.2144394
11236,P,347.326477
11237,P,347.326477
11238,P,694.907959
11239,P,694.907959
11240,P,-1258.81543
11241,P,-1258.81543
11242,P,364.979614
11243,P,364.979614
11244,P,352.220764
11245,P,352.220764
11246,P,708.56604
11247,P,708.56604
11248,P,408.39798
11249,P,408.39798
11250,P,227.585571
11251,P,227.585571
11252,P,227.585571
11253,P,-426.348877
11254,P,-426.348877
11255,P,-426.348877
11256,P,-652.026367
11257,P,-652.026367
11258,P,269.800201
11259,P,269.800201
11260,P,-663.8927
11261,P,-663.8927
11262,P,-806.407471
11263,P,-806.407471
11264,P,248.660675
11265,P,248.660675
11266,P,-800.196655
11267,P,-800.196655
11268,P,265.741272
11269,P,265.741272
11270,P,225.393494
11271,P,225.393494
11272,P,225.393494
11273,P,-440.485229
11274,P,-440.485229
11275,P,-440.485229
11276,P,-661.767273
11277,P,-661.767273
11278,P,-657.851501
11279,P,-657.851501
11280,P,-798.83667
11281,P,-798.83667
11282,P,276.096527
11283,P,276.096527
11284,P,-822.539795
11285,P,-822.539795
11286,P,267.818695
11287,P,267.818695
11288,P,183.349777
11289,P,183.349777
11290,P,183.349777
11291,P,273.089905
11292,P,273.089905
11293,P,283.568512
11294,P,283.568512
11295,P,294.953979
11296,P,294.953979
11297,P,291.960632
11298,P,291.960632
11299,P,63.6296234
11300,P,63.6296234
11301,P,63.6296234
11302,P,326.370026
11303,P,326.370026
11304,P,284.305695
11305,P,284.305695
11306,P,279.343933
11307,P,279.343933
11308,P,285.836212
11309,P,285.836212
11310,P,697.730469
11311,P,697.730469
11312,P,411.861053
11313,P,411.861053
11314,P,710.540771
11315,P,710.540771
11316,P,-1612.77441
11317,P,-1612.77441
11318,P,406.085602
11319,P,406.085602
11320,P,368.563446
11321,P,368.563446
11322,P,378.145996
11323,P,378.145996
11324,P,283.217926
11325,P,283.217926
11326,P,-365.699982
11327,P,-365.699982
11328,P,239.43544
11329,P,239.43544
11330,P,-397.489746
11331,P,-397.489746
11332,P,283.070801
11333,P,283.070801
11334,P,-367.76181
11335,P,-367.76181
11336,P,248.001587
11337,P,248.001587
11338,P,-364.278198
11339,P,-364.278198
11340,P,-391.982758
11341,P,-391.982758
11342,P,-362.308899
11343,P,-362.308899
11344,P,253.106049
11345,P,253.106049
11346,P,432.04599
11347,P,432.04599
11348,P,257.955902
11349,P,257.955902
11350,P,257.70929
11351,P,257.70929
11352,P,433.567505
11353,P,433.567505
11354,P,-1549.04639
11355,P,-1549.04639
11356,P,249.111832
11357,P,249.111832
11358,P,204.715134
11359,P,204.715134
11360,P,204.715134
11361,P,-469.622223
11362,P,-469.622223
11363,P,-469.622223
11364,P,-700.906738
11365,P,-700.906738
11366,P,-705.829773
11367,P,-705.829773
11368,P,-864.68103
11369,P,-864.68103
11370,P,209.386261
11371,P,209.386261
11372,P,-847.746887
11373,P,-847.746887
11374,P,204.584686
11375,P,204.584686
11376,P,205.141968
11377,P,205.141968
11378,P,205.141968
11379,P,-473.255249
11380,P,-473.255249
11381,P,-473.255249
11382,P,-710.179321
11383,P,-710.179321
11384,P,-706.872864
11385,P,-706.872864
11386,P,202.564041
11387,P,202.564041
11388,P,-844.203308
11389,P,-844.203308
11390,P,203.031097
11391,P,203.031097
11392,P,-848.037659
11393,P,-848.037659
11394,P,205.921066
11395,P,205.921066
11396,P,194.629532
11397,P,194.629532
11398,P,194.629532
11399,P,197.45433
11400,P,197.45433
11401,P,187.08493
11402,P,187.08493
11403,P,181.793411
11404,P,181.793411
11405,P,190.688141
11406,P,190.688141
11407,P,190.569138
11408,P,190.569138
11409,P,190.569138
11410,P,197.808426
11411,P,197.808426
11412,P,192.371445
11413,P,192.371445
11414,P,435.91748
11415,P,435.91748
11416,P,-1333.38013
11417,P,-1333.38013
11418,P,222.797012
11419,P,222.797012
11420,P,433.675232
11421,P,433.675232
11422,P,220.758316
11423,P,220.758316
11424,P,385.649048
11425,P,385.649048
11426,P,-232.952911
11427,P,-232.952911
11428,P,-250.892883
11429,P,-250.892883
11430,P,243.952042
11431,P,243.952042
11432,P,287.841125
11433,P,287.841125
11434,P,-357.979065
11435,P,-357.979065
11436,P,-388.143097
11437,P,-388.143097
11438,P,292.156799
11439,P,292.156799
11440,P,-358.747192
11441,P,-358.747192
11442,P,252.637375
11443,P,252.637375
11444,P,-362.694458
11445,P,-362.694458
11446,P,-391.374298
11447,P,-391.374298
11448,P,-361.300903
11449,P,-361.300903
11450,P,241.485657
11451,P,241.485657
11452,P,415.877869
11453,P,415.877869
11454,P,-1296.73096
11455,P,-1296.73096
11456,P,308.655334
11457,P,308.655334
11458,P,237.080215
11459,P,237.080215
11460,P,427.962341
11461,P,427.962341
11462,P,-1613.12598
11463,P,-1613.12598
11464,P,333.214539
11465,P,333.214539
11466,P,202.61972
11467,P,202.61972
11468,P,202.61972
11469,P,-450.509583
11470,P,-450.509583
11471,P,-450.509583
11472,P,-676.080444
11473,P,-676.080444
11474,P,184.904266
11475,P,184.904266
11476,P,-670.847839
11477,P,-670.847839
11478,P,-810.629822
11479,P,-810.629822
11480,P,236.603683
11481,P,236.603683
11482,P,-826.998535
11483,P,-826.998535
11484,P,220.702957
11485,P,220.702957
11486,P,208.445816
11487,P,208.445816
11488,P,208.445816
11489,P,-445.546021
11490,P,-445.546021
11491,P,-445.546021
11492,P,-665.370667
11493,P,-665.370667
11494,P,-669.999512
11495,P,-669.999512
11496,P,-815.751038
11497,P,-815.751038
11498,P,196.298126
11499,P,196.298126
11500,P,-809.618774
11501,P,-809.618774
11502,P,213.417221
11503,P,213.417221
11504,P,188.264694
11505,P,188.264694
11506,P,188.264694
11507,P,181.635956
11508,P,181.635956
11509,P,180.372986
11510,P,180.372986
11511,P,185.74588
11512,P,185.74588
11513,P,184.844406
11514,P,184.844406
11515,P,189.563461
11516,P,189.563461
11517,P,189.563461
11518,P,184.73555
11519,P,184.73555
11520,P,183.830994
11521,P,183.830994
11522,P,190.850891
11523,P,190.850891
11524,P,183.908691
11525,P,183.908691
11526,P,555.641968
11527,P,555.641968
11528,P,-1589.93115
11529,P,-1589.93115
11530,P,433.668396
11531,P,433.668396
11532,P,531.667664
11533,P,531.667664
11534,P,-1288.1792
11535,P,-1288.1792
11536,P,428.315033
11537,P,428.315033
11538,P,509.529022
11539,P,509.529022
11540,P,-2574.55029
11541,P,-2574.55029
11542,P,410.04129
11543,P,410.04129
11544,P,-16.6656075
11545,P,-16.6656075
11546,P,370.718201
11547,P,370.718201
11548,P,36.6433716
11549,P,36.6433716
11550,P,407.783264
11551,P,407.783264
11552,P,16.0921307
11553,P,16.0921307
11554,P,375.16568
11555,P,375.16568
11556,P,0.930916667
11557,P,0.930916667
11558,P,-44.1562042
11559,P,-44.1562042
11560,P,-17.2198963
11561,P,-17.2198963
11562,P,340.959534
11563,P,340.959534
11564,P,678.365173
11565,P,678.365173
11566,P,-1164.95142
11567,P,-1164.95142
11568,P,315.312714
11569,P,315.312714
11570,P,355.806061
11571,P,355.806061
11572,P,697.847229
11573,P,697.847229
11574,P,-1334.9657
11575,P,-1334.9657
11576,P,328.373749
11577,P,328.373749
11578,P,-100.944359
11579,P,-100.944359
11580,P,-100.944359
11581,P,-292.055298
11582,P,-292.055298
11583,P,-292.055298
11584,P,-554.25885
11585,P,-554.25885
11586,P,-563.799011
11587,P,-563.799011
11588,P,-786.981873
11589,P,-786.981873
11590,P,275.693817
11591,P,275.693817
11592,P,-786.744995
11593,P,-786.744995
11594,P,283.42807
11595,P,283.42807
11596,P,-99.3182755
11597,P,-99.3182755
11598,P,-99.3182755
11599,P,-259.173035
11600,P,-259.173035
11601,P,-259.173035
11602,P,-574.372803
11603,P,-574.372803
11604,P,-566.451294
11605,P,-566.451294
11606,P,335.582825
11607,P,335.582825
11608,P,-783.58551
11609,P,-783.58551
11610,P,295.030579
11611,P,295.030579
11612,P,-777.358032
11613,P,-777.358032
11614,P,285.531311
11615,P,285.531311
11616,P,-94.7124023
11617,P,-94.7124023
11618,P,-94.7124023
11619,P,343.679657
11620,P,343.679657
11621,P,329.861298
11622,P,329.861298
11623,P,304.243683
11624,P,304.243683
11625,P,299.695984
11626,P,299.695984
11627,P,-79.6410828
11628,P,-79.6410828
11629,P,-79.6410828
11630,P,289.338837
11631,P,289.338837
11632,P,305.483887
11633,P,305.483887
11634,P,694.927002
11635,P,694.927002
11636,P,369.675812
11637,P,369.675812
11638,P,697.199585
11639,P,697.199585
11640,P,-1195.41406
11641,P,-1195.41406
11642,P,388.915161
11643,P,388.915161
11644,P,-779.32782
11645,P,-779.32782
11646,P,-587.192322
11647,P,-587.192322
11648,P,672.194031
11649,P,672.194031
11650,P,594.907532
11651,P,594.907532
11652,P,40.6900291
11653,P,40.6900291
11654,P,-66.7138824
11655,P,-66.7138824
11656,P,651.145386
11657,P,651.145386
11658,P,61.9503212
11659,P,61.9503212
11660,P,592.083557
11661,P,592.083557
11662,P,102.627274
11663,P,102.627274
11664,P,-51.3445587
11665,P,-51.3445587
11666,P,83.7621155
11667,P,83.7621155
11668,P,520.455444
11669,P,520.455444
11670,P,1292.98804
11671,P,1292.98804
11672,P,-1541.66809
11673,P,-1541.66809
11674,P,617.498657
11675,P,617.498657
11676,P,573.031921
11677,P,573.031921
11678,P,1342.9873
11679,P,1342.9873
11680,P,628.482666
11681,P,628.482666
11682,P,526.211914
11683,P,526.211914
11684,P,526.211914
11685,P,-225.106659
11686,P,-225.106659
11687,P,-225.106659
11688,P,-554.754761
11689,P,-554.754761
11690,P,584.545593
11691,P,584.545593
11692,P,-503.410309
11693,P,-503.410309
11694,P,-557.52478
11695,P,-557.52478
11696,P,1166.17017
11697,P,1166.17017
11698,P,-685.637573
11699,P,-685.637573
11700,P,864.388672
11701,P,864.388672
11702,P,718.263672
11703,P,718.263672
11704,P,718.263672
11705,P,-192.282684
11706,P,-192.282684
11707,P,-192.282684
11708,P,-378.13736
11709,P,-378.13736
11710,P,-488.953644
11711,P,-488.953644
11712,P,-758.080444
11713,P,-758.080444
11714,P,586.182068
11715,P,586.182068
11716,P,-698.05304
11717,P,-698.05304
11718,P,776.84491
11719,P,776.84491
11720,P,157.581512
11721,P,157.581512
11722,P,157.581512
11723,P,576.003967
11724,P,576.003967
11725,P,487.357727
11726,P,487.357727
11727,P,373.799866
11728,P,373.799866
11729,P,429.895233
11730,P,429.895233
11731,P,103.11319
11732,P,103.11319
11733,P,103.11319
11734,P,425.420715
11735,P,425.420715
11736,P,476.001892
11737,P,476.001892
11738,P,552.355835
11739,P,552.355835
11740,P,451.209808
11741,P,451.209808
11742,P,2169.92017
11743,P,2169.92017
11744,P,922.378906
11745,P,922.378906
11746,P,2046.22021
11747,P,2046.22021
11748,P,-1261.13367
11749,P,-1261.13367
11750,P,878.356506
11751,P,878.356506
11752,P,1480.04333
11753,P,1480.04333
11754,P,1465.86487
11755,P,1465.86487
11756,P,1413.0675
11757,P,1413.0675
11758,P,1393.03528
11759,P,1393.03528
11760,P,925.690002
11761,P,925.690002
11762,P,446.572113
11763,P,446.572113
11764,P,446.572113
11765,P,-27.1972656
11766,P,-27.1972656
11767,P,476.931976
11768,P,476.931976
11769,P,186.619003
11770,P,186.619003
11771,P,1129.07593
11772,P,1129.07593
11773,P,556.78186
11774,P,556.78186
11775,P,441.721191
11776,P,441.721191
11777,P,1132.73621
11778,P,1132.73621
11779,P,267.810455
11780,P,267.810455
11781,P,493.957092
11782,P,493.957092
11783,P,698.250122
11784,P,698.250122
11785,P,-1287.97766
11786,P,-1287.97766
11787,P,653.336243
11788,P,653.336243
11789,P,1404.16003
11790,P,1404.16003
11791,P,-1557.75562
11792,P,-1557.75562
11793,P,-1293.95007
11794,P,-1293.95007
11795,P,963.290161
11796,P,963.290161
11797,P,-1227.43335
11798,P,-1227.43335
11799,P,2385.26929
11800,P,2385.26929
11801,P,790.21167
11802,P,790.21167
11803,P,1734.70496
11804,P,1734.70496
11805,P,259.521973
11806,P,259.521973
11807,P,-1012.07013
11808,P,-1012.07013
11809,P,336.073273
11810,P,336.073273
11811,P,679.783447
11812,P,679.783447
11813,P,353.408936
11814,P,353.408936
11815,P,-1400.36768
11816,P,-1400.36768
11817,P,310.95639
11818,P,310.95639
11819,P,702.943298
11820,P,702.943298
11821,P,280.010101
11822,P,280.010101
11823,P,323.698029
11824,P,323.698029
11825,P,-1179.96753
11826,P,-1179.96753
11827,P,643.55957
11828,P,643.55957
11829,P,378.46875
11830,P,378.46875
11831,P,-1080.24475
11832,P,-1080.24475
11833,P,662.162292
11834,P,662.162292
11835,P,271.744324
11836,P,271.744324
11837,P,231.27388
11838,P,231.27388
11839,P,392.456512
11840,P,392.456512
11841,P,201.504562
11842,P,201.504562
11843,P,193.949524
11844,P,193.949524
11845,P,211.598038
11846,P,211.598038
11847,P,379.967346
11848,P,379.967346
11849,P,237.526978
11850,P,237.526978
11851,P,446.870728
11852,P,446.870728
11853,P,206.262726
11854,P,206.262726
11855,P,-1577.14746
11856,P,-1577.14746
11857,P,-1289.8678
11858,P,-1289.8678
11859,P,-1298.05103
11860,P,-1298.05103
11861,P,424.378601
11862,P,424.378601
11863,P,635.193726
11864,P,635.193726
11865,P,431.716034
11866,P,431.716034
11867,P,-1616.90491
11868,P,-1616.90491
11869,P,497.533691
11870,P,497.533691
11871,P,272.879669
11872,P,272.879669
11873,P,224.685379
11874,P,224.685379
11875,P,412.010681
11876,P,412.010681
11877,P,200.783752
11878,P,200.783752
11879,P,200.67009
11880,P,200.67009
11881,P,205.344681
11882,P,205.344681
11883,P,262.49588
11884,P,262.49588
11885,P,261.647827
11886,P,261.647827
11887,P,424.463165
11888,P,424.463165
11889,P,-1342.1449
11890,P,-1342.1449
11891,P,-1341.25757
11892,P,-1341.25757
11893,P,-1321.96558
11894,P,-1321.96558
11895,P,259.043823
11896,P,259.043823
11897,P,413.812225
11898,P,413.812225
11899,P,237.395859
11900,P,237.395859
11901,P,-1329.07471
11902,P,-1329.07471
11903,P,423.464844
11904,P,423.464844
11905,P,301.652893
11906,P,301.652893
11907,P,355.249939
11908,P,355.249939
11909,P,675.46814
11910,P,675.46814
11911,P,303.30426
11912,P,303.30426
11913,P,336.692535
11914,P,336.692535
11915,P,373.612762
11916,P,373.612762
11917,P,-1298.20288
11918,P,-1298.20288
11919,P,361.654205
11920,P,361.654205
11921,P,689.574219
11922,P,689.574219
11923,P,-1306.59375
11924,P,-1306.59375
11925,P,-1609.36377
11926,P,-1609.36377
11927,P,411.785828
11928,P,411.785828
11929,P,-1309.69434
11930,P,-1309.69434
11931,P,661.796265
11932,P,661.796265
11933,P,388.414154
11934,P,388.414154
11935,P,686.262146
11936,P,686.262146
11937,P,500.772705
11938,P,500.772705
11939,P,-1256.28735
11940,P,-1256.28735
11941,P,381.072998
11942,P,381.072998
11943,P,1016.23291
11944,P,1016.23291
11945,P,404.641785
11946,P,404.641785
11947,P,-1428.39294
11948,P,-1428.39294
11949,P,298.088715
11950,P,298.088715
11951,P,808.618896
11952,P,808.618896
11953,P,199.678879
11954,P,199.678879
11955,P,340.93277
11956,P,340.93277
11957,P,-1388.10693
11958,P,-1388.10693
11959,P,684.550415
11960,P,684.550415
11961,P,358.306641
11962,P,358.306641
11963,P,-1100.40808
11964,P,-1100.40808
11965,P,696.053101
11966,P,696.053101
11967,P,494.248596
11968,P,494.248596
11969,P,-1255.13306
11970,P,-1255.13306
11971,P,381.191742
11972,P,381.191742
11973,P,1014.83221
11974,P,1014.83221
11975,P,236.86702
11976,P,236.86702
11977,P,181.817673
11978,P,181.817673
11979,P,420.93158
11980,P,420.93158
11981,P,305.581451
11982,P,305.581451
11983,P,838.495178
11984,P,838.495178
11985,P,210.80542
11986,P,210.80542
11987,P,-1184.65051
11988,P,-1184.65051
11989,P,-1385.49792
11990,P,-1385.49792
11991,P,-1356.57422
11992,P,-1356.57422
11993,P,320.335205
11994,P,320.335205
11995,P,653.86554
11996,P,653.86554
11997,P,359.438263
11998,P,359.438263
11999,P,-1099.15649
12000,P,-1099.15649
12001,P,701.244629
12002,P,701.244629
12003,P,336.391693
12004,P,336.391693
12005,P,319.127075
12006,P,319.127075
12007,P,347.907349
12008,P,347.907349
12009,P,700.312927
12010,P,700.312927
12011,P,332.246368
12012,P,332.246368
12013,P,346.205414
12014,P,346.205414
12015,P,373.795502
12016,P,373.795502
12017,P,367.225586
12018,P,367.225586
12019,P,707.831726
12020,P,707.831726
12021,P,-1312.37317
12022,P,-1312.37317
12023,P,-1298.84912
12024,P,-1298.84912
12025,P,-1302.51562
12026,P,-1302.51562
12027,P,438.431732
12028,P,438.431732
12029,P,702.938538
12030,P,702.938538
12031,P,404.1604
12032,P,404.1604
12033,P,-1614.66907
12034,P,-1614.66907
12035,P,717.323853
12036,P,717.323853
12037,P,197.618927
12038,P,197.618927
12039,P,271.357147
12040,P,271.357147
12041,P,227.845108
12042,P,227.845108
12043,P,411.461731
12044,P,411.461731
12045,P,210.043411
12046,P,210.043411
12047,P,266.09079
12048,P,266.09079
12049,P,-1316.86084
12050,P,-1316.86084
12051,P,264.307648
12052,P,264.307648
12053,P,448.481445
12054,P,448.481445
12055,P,-1319.45947
12056,P,-1319.45947
12057,P,-1328.47827
12058,P,-1328.47827
12059,P,227.714706
12060,P,227.714706
12061,P,-1325.48499
12062,P,-1325.48499
12063,P,429.812653
12064,P,429.812653
12065,P,211.099548
12066,P,211.099548
12067,P,442.263702
12068,P,442.263702
12069,P,194.756424
12070,P,194.756424
12071,P,276.717438
12072,P,276.717438
12073,P,-1329.69519
12074,P,-1329.69519
12075,P,237.337784
12076,P,237.337784
12077,P,402.57428
12078,P,402.57428
12079,P,350.789459
12080,P,350.789459
12081,P,-1552.98035
12082,P,-1552.98035
12083,P,237.216064
12084,P,237.216064
12085,P,446.888977
12086,P,446.888977
12087,P,205.634308
12088,P,205.634308
12089,P,-1277.11169
12090,P,-1277.11169
12091,P,-1307.31909
12092,P,-1307.31909
12093,P,414.121857
12094,P,414.121857
12095,P,-1601.92651
12096,P,-1601.92651
12097,P,638.795349
12098,P,638.795349
12099,P,394.005554
12100,P,394.005554
12101,P,-1554.73914
12102,P,-1554.73914
12103,P,489.887146
12104,P,489.887146
12105,P,255.671951
12106,P,255.671951
12107,P,-1003.5379
12108,P,-1003.5379
12109,P,354.036987
12110,P,354.036987
12111,P,690.657898
12112,P,690.657898
12113,P,318.631287
12114,P,318.631287
12115,P,316.140503
12116,P,316.140503
12117,P,354.154633
12118,P,354.154633
12119,P,315.578796
12120,P,315.578796
12121,P,705.192505
12122,P,705.192505
12123,P,311.255646
12124,P,311.255646
12125,P,-1449.03735
12126,P,-1449.03735
12127,P,-1168.03577
12128,P,-1168.03577
12129,P,-1368.69141
12130,P,-1368.69141
12131,P,346.70224
12132,P,346.70224
12133,P,688.104553
12134,P,688.104553
12135,P,359.212952
12136,P,359.212952
12137,P,-1068.7207
12138,P,-1068.7207
12139,P,698.566284
12140,P,698.566284
12141,P,260.386047
12142,P,260.386047
12143,P,553.700317
12144,P,553.700317
12145,P,445.556152
12146,P,445.556152
12147,P,1156.1084
12148,P,1156.1084
12149,P,301.830658
12150,P,301.830658
12151,P,494.744934
12152,P,494.744934
12153,P,708.613159
12154,P,708.613159
12155,P,686.00177
12156,P,686.00177
12157,P,1429.87366
12158,P,1429.87366
12159,P,-1214.44958
12160,P,-1214.44958
12161,P,-1546.69446
12162,P,-1546.69446
12163,P,-1588.67224
12164,P,-1588.67224
12165,P,967.678955
12166,P,967.678955
12167,P,2383.75854
12168,P,2383.75854
12169,P,809.046631
12170,P,809.046631
12171,P,-1277.5271
12172,P,-1277.5271
12173,P,1749.57361
12174,P,1749.57361
12175,P,-77.7149811
12176,P,-77.7149811
12177,P,33.8429832
12178,P,33.8429832
12179,P,1467.54236
12180,P,1467.54236
12181,P,82.3262558
12182,P,82.3262558
12183,P,71.7306519
12184,P,71.7306519
12185,P,705.885498
12186,P,705.885498
12187,P,705.885498
12188,P,2518.74243
12189,P,2518.74243
12190,P,2518.74243
12191,P,1267.79883
12192,P,1267.79883
12193,P,232.921021
12194,P,232.921021
12195,P,143.643509
12196,P,143.643509
12197,P,2264.12598
12198,P,2264.12598
12199,P,2264.12598
12200,P,38.8250122
12201,P,38.8250122
12202,P,1430.15564
12203,P,1430.15564
12204,P,92.6362305
12205,P,92.6362305
12206,P,84.0284882
12207,P,84.0284882
12208,P,1389.34119
12209,P,1389.34119
12210,P,2406.00757
12211,P,2406.00757
12212,P,2406.00757
12213,P,230.20369
12214,P,230.20369
12215,P,133.906601
12216,P,133.906601
12217,P,-501.902771
12218,P,-501.902771
12219,P,1292.15759
12220,P,1292.15759
12221,P,-128.869904
12222,P,-128.869904
12223,P,1648.59705
12224,P,1648.59705
12225,P,-326.836578
12226,P,-326.836578
12227,P,1195.74731
12228,P,1195.74731
12229,P,1150.29236
12230,P,1150.29236
12231,P,1150.29236
12232,P,89.367157
12233,P,89.367157
12234,P,89.367157
12235,P,-12.5513849
12236,P,-12.5513849
12237,P,1128.25073
12238,P,1128.25073
12239,P,1128.25073
12240,P,1128.25073
12241,P,256.715485
12242,P,256.715485
12243,P,256.715485
12244,P,256.715485
12245,P,1497.67725
12246,P,1497.67725
12247,P,1521.80957
12248,P,1521.80957
12249,P,182.724518
12250,P,182.724518
12251,P,142.734024
12252,P,142.734024
12253,P,1568.35156
12254,P,1568.35156
12255,P,2244.90576
12256,P,2244.90576
12257,P,812.218994
12258,P,812.218994
12259,P,-898.694092
12260,P,-898.694092
12261,P,1966.63403
12262,P,1966.63403
12263,P,636.472656
12264,P,636.472656
12265,P,-501.587341
12266,P,-501.587341
12267,P,1282.08789
12268,P,1282.08789
12269,P,-118.253044
12270,P,-118.253044
12271,P,1555.68982
12272,P,1555.68982
12273,P,-334.150543
12274,P,-334.150543
12275,P,1162.0741
12276,P,1162.0741
12277,P,1179.28967
12278,P,1179.28967
12279,P,1179.28967
12280,P,88.9005127
12281,P,88.9005127
12282,P,88.9005127
12283,P,-17.7950573
12284,P,-17.7950573
12285,P,1085.17981
12286,P,1085.17981
12287,P,1085.17981
12288,P,1085.17981
12289,P,243.949158
12290,P,243.949158
12291,P,243.949158
12292,P,243.949158
12293,P,1354.14075
12294,P,1354.14075
12295,P,1937.86914
12296,P,1937.86914
12297,P,173.296753
12298,P,173.296753
12299,P,2029.32202
12300,P,2029.32202
12301,P,137.677872
12302,P,137.677872
12303,P,1481.78235
12304,P,1481.78235
12305,P,2236.37793
12306,P,2236.37793
12307,P,840.551208
12308,P,840.551208
12309,P,-1182.32153
12310,P,-1182.32153
12311,P,1945.60364
12312,P,1945.60364
12313,P,620.088806
12314,P,620.088806
12315,P,592.340576
12316,P,592.340576
12317,P,-1232.48181
12318,P,-1232.48181
12319,P,479.053406
12320,P,479.053406
12321,P,1187.56287
12322,P,1187.56287
12323,P,363.793823
12324,P,363.793823
12325,P,302.987915
12326,P,302.987915
12327,P,648.687317
12328,P,648.687317
12329,P,588.638733
12330,P,588.638733
12331,P,1343.94434
12332,P,1343.94434
12333,P,1164.60571
12334,P,1164.60571
12335,P,-777.06311
12336,P,-777.06311
12337,P,1091.08899
12338,P,1091.08899
12339,P,-611.723572
12340,P,-611.723572
12341,P,-844.01416
12342,P,-844.01416
12343,P,971.085876
12344,P,971.085876
12345,P,-659.438599
12346,P,-659.438599
12347,P,863.468872
12348,P,863.468872
12349,P,-904.974304
12350,P,-904.974304
12351,P,-854.058167
12352,P,-854.058167
12353,P,594.837708
12354,P,594.837708
12355,P,-935.921204
12356,P,-935.921204
12357,P,654.972351
12358,P,654.972351
12359,P,-728.544434
12360,P,-728.544434
12361,P,-944.552917
12362,P,-944.552917
12363,P,-1572.46851
12364,P,-1572.46851
12365,P,-1245.22339
12366,P,-1245.22339
12367,P,709.931702
12368,P,709.931702
12369,P,-711.399231
12370,P,-711.399231
12371,P,786.429504
12372,P,786.429504
12373,P,-898.128296
12374,P,-898.128296
12375,P,-941.268982
12376,P,-941.268982
12377,P,928.923889
12378,P,928.923889
12379,P,-1549.67847
12380,P,-1549.67847
12381,P,2318.70728
12382,P,2318.70728
12383,P,839.715088
12384,P,839.715088
12385,P,1833.04614
12386,P,1833.04614
12387,P,361.39563
12388,P,361.39563
12389,P,405.90799
12390,P,405.90799
12391,P,427.929993
12392,P,427.929993
12393,P,409.757812
12394,P,409.757812
12395,P,561.217468
12396,P,561.217468
12397,P,502.86795
12398,P,502.86795
12399,P,490.01004
12400,P,490.01004
12401,P,447.433838
12402,P,447.433838
12403,P,298.605591
12404,P,298.605591
12405,P,328.82605
12406,P,328.82605
12407,P,691.850037
12408,P,691.850037
12409,P,307.958191
12410,P,307.958191
12411,P,-1035.82031
12412,P,-1035.82031
12413,P,328.674835
12414,P,328.674835
12415,P,695.950928
12416,P,695.950928
12417,P,300.197662
12418,P,300.197662
12419,P,268.64444
12420,P,268.64444
12421,P,250.002014
12422,P,250.002014
12423,P,-936.660217
12424,P,-936.660217
12425,P,264.324341
12426,P,264.324341
12427,P,-781.629944
12428,P,-781.629944
12429,P,-962.83252
12430,P,-962.83252
12431,P,-1149.94983
12432,P,-1149.94983
12433,P,264.702728
12434,P,264.702728
12435,P,-780.703979
12436,P,-780.703979
12437,P,255.923416
12438,P,255.923416
12439,P,-952.767029
12440,P,-952.767029
12441,P,-964.243164
12442,P,-964.243164
12443,P,270.809906
12444,P,270.809906
12445,P,-945.629089
12446,P,-945.629089
12447,P,271.016815
12448,P,271.016815
12449,P,-772.640564
12450,P,-772.640564
12451,P,-947.624023
12452,P,-947.624023
12453,P,-1421.96191
12454,P,-1421.96191
12455,P,271.577087
12456,P,271.577087
12457,P,-797.013977
12458,P,-797.013977
12459,P,251.957199
12460,P,251.957199
12461,P,-960.24353
12462,P,-960.24353
12463,P,-946.729309
12464,P,-946.729309
12465,P,334.512268
12466,P,334.512268
12467,P,619.751404
12468,P,619.751404
12469,P,401.373718
12470,P,401.373718
12471,P,664.328247
12472,P,664.328247
12473,P,292.296936
12474,P,292.296936
12475,P,287.429474
12476,P,287.429474
12477,P,280.806641
12478,P,280.806641
12479,P,287.525024
12480,P,287.525024
12481,P,268.304626
12482,P,268.304626
12483,P,279.868317
12484,P,279.868317
12485,P,282.907684
12486,P,282.907684
12487,P,279.044678
12488,P,279.044678
12489,P,293.81543
12490,P,293.81543
12491,P,-1563.17151
12492,P,-1563.17151
12493,P,236.569046
12494,P,236.569046
12495,P,395.978058
12496,P,395.978058
12497,P,186.569077
12498,P,186.569077
12499,P,363.454651
12500,P,363.454651
12501,P,233.648087
12502,P,233.648087
12503,P,431.138672
12504,P,431.138672
12505,P,197.099899
12506,P,197.099899
12507,P,202.253036
12508,P,202.253036
12509,P,258.010162
12510,P,258.010162
12511,P,-967.878174
12512,P,-967.878174
12513,P,236.658676
12514,P,236.658676
12515,P,-806.347168
12516,P,-806.347168
12517,P,-981.663818
12518,P,-981.663818
12519,P,-1292.12183
12520,P,-1292.12183
12521,P,-1613.76575
12522,P,-1613.76575
12523,P,230.289856
12524,P,230.289856
12525,P,-827.793762
12526,P,-827.793762
12527,P,236.519684
12528,P,236.519684
12529,P,-982.284973
12530,P,-982.284973
12531,P,-973.19812
12532,P,-973.19812
12533,P,200.434113
12534,P,200.434113
12535,P,-987.02124
12536,P,-987.02124
12537,P,202.175659
12538,P,202.175659
12539,P,-835.5
12540,P,-835.5
12541,P,-978.707642
12542,P,-978.707642
12543,P,-1599.41711
12544,P,-1599.41711
12545,P,208.578705
12546,P,208.578705
12547,P,-812.626038
12548,P,-812.626038
12549,P,228.379547
12550,P,228.379547
12551,P,-976.886658
12552,P,-976.886658
12553,P,-983.897888
12554,P,-983.897888
12555,P,445.959473
12556,P,445.959473
12557,P,619.054688
12558,P,619.054688
12559,P,423.881073
12560,P,423.881073
12561,P,-1290.66382
12562,P,-1290.66382
12563,P,515.123108
12564,P,515.123108
12565,P,179.167892
12566,P,179.167892
12567,P,178.561508
12568,P,178.561508
12569,P,177.48674
12570,P,177.48674
12571,P,178.502029
12572,P,178.502029
12573,P,193.230133
12574,P,193.230133
12575,P,186.190445
12576,P,186.190445
12577,P,182.631012
12578,P,182.631012
12579,P,178.837128
12580,P,178.837128
12581,P,249.834457
12582,P,249.834457
12583,P,240.607086
12584,P,240.607086
12585,P,418.448883
12586,P,418.448883
12587,P,268.714844
12588,P,268.714844
12589,P,-1587.5686
12590,P,-1587.5686
12591,P,256.613556
12592,P,256.613556
12593,P,425.318329
12594,P,425.318329
12595,P,214.429214
12596,P,214.429214
12597,P,-1027.28406
12598,P,-1027.28406
12599,P,208.461945
12600,P,208.461945
12601,P,-848.716248
12602,P,-848.716248
12603,P,-1029.84937
12604,P,-1029.84937
12605,P,-1301.88538
12606,P,-1301.88538
12607,P,-1521.22327
12608,P,-1521.22327
12609,P,205.275238
12610,P,205.275238
12611,P,-856.247803
12612,P,-856.247803
12613,P,214.259079
12614,P,214.259079
12615,P,-1018.90918
12616,P,-1018.90918
12617,P,-1000.97552
12618,P,-1000.97552
12619,P,203.679413
12620,P,203.679413
12621,P,-1020.43054
12622,P,-1020.43054
12623,P,200.838501
12624,P,200.838501
12625,P,-844.709534
12626,P,-844.709534
12627,P,-1022.23737
12628,P,-1022.23737
12629,P,-1578.28748
12630,P,-1578.28748
12631,P,205.615097
12632,P,205.615097
12633,P,-856.209778
12634,P,-856.209778
12635,P,212.954407
12636,P,212.954407
12637,P,-1024.36243
12638,P,-1024.36243
12639,P,-1000.69781
12640,P,-1000.69781
12641,P,254.745163
12642,P,254.745163
12643,P,409.473053
12644,P,409.473053
12645,P,252.266174
12646,P,252.266174
12647,P,419.614288
12648,P,419.614288
12649,P,185.136368
12650,P,185.136368
12651,P,189.15831
12652,P,189.15831
12653,P,190.890152
12654,P,190.890152
12655,P,190.384079
12656,P,190.384079
12657,P,200.884766
12658,P,200.884766
12659,P,198.094101
12660,P,198.094101
12661,P,195.249603
12662,P,195.249603
12663,P,191.33017
12664,P,191.33017
12665,P,315.358337
12666,P,315.358337
12667,P,-1123.86572
12668,P,-1123.86572
12669,P,346.304077
12670,P,346.304077
12671,P,685.157288
12672,P,685.157288
12673,P,334.321838
12674,P,334.321838
12675,P,332.84433
12676,P,332.84433
12677,P,389.789459
12678,P,389.789459
12679,P,354.380188
12680,P,354.380188
12681,P,710.138367
12682,P,710.138367
12683,P,257.573639
12684,P,257.573639
12685,P,-978.755798
12686,P,-978.755798
12687,P,246.210403
12688,P,246.210403
12689,P,-810.307861
12690,P,-810.307861
12691,P,-982.83374
12692,P,-982.83374
12693,P,249.411209
12694,P,249.411209
12695,P,-829.193054
12696,P,-829.193054
12697,P,268.966583
12698,P,268.966583
12699,P,-977.496765
12700,P,-977.496765
12701,P,-973.625122
12702,P,-973.625122
12703,P,277.366486
12704,P,277.366486
12705,P,-973.335571
12706,P,-973.335571
12707,P,261.303436
12708,P,261.303436
12709,P,-818.333801
12710,P,-818.333801
12711,P,-963.573853
12712,P,-963.573853
12713,P,-1597.57495
12714,P,-1597.57495
12715,P,-1280.32935
12716,P,-1280.32935
12717,P,258.62207
12718,P,258.62207
12719,P,-802.425964
12720,P,-802.425964
12721,P,270.440918
12722,P,270.440918
12723,P,-968.08905
12724,P,-968.08905
12725,P,-975.141174
12726,P,-975.141174
12727,P,420.124146
12728,P,420.124146
12729,P,-1604.14539
12730,P,-1604.14539
12731,P,692.680603
12732,P,692.680603
12733,P,395.873932
12734,P,395.873932
12735,P,687.670654
12736,P,687.670654
12737,P,305.348236
12738,P,305.348236
12739,P,301.026428
12740,P,301.026428
12741,P,300.2388
12742,P,300.2388
12743,P,296.373566
12744,P,296.373566
12745,P,279.689911
12746,P,279.689911
12747,P,272.925751
12748,P,272.925751
12749,P,278.853241
12750,P,278.853241
12751,P,295.972076
12752,P,295.972076
12753,P,465.94046
12754,P,465.94046
12755,P,358.382019
12756,P,358.382019
12757,P,981.271912
12758,P,981.271912
12759,P,411.285278
12760,P,411.285278
12761,P,-1200.68469
12762,P,-1200.68469
12763,P,315.43576
12764,P,315.43576
12765,P,858.710327
12766,P,858.710327
12767,P,222.200333
12768,P,222.200333
12769,P,183.279526
12770,P,183.279526
12771,P,250.742874
12772,P,250.742874
12773,P,-937.983582
12774,P,-937.983582
12775,P,273.408661
12776,P,273.408661
12777,P,-775.631348
12778,P,-775.631348
12779,P,-916.586914
12780,P,-916.586914
12781,P,-1106.08667
12782,P,-1106.08667
12783,P,276.034363
12784,P,276.034363
12785,P,-754.278625
12786,P,-754.278625
12787,P,260.814911
12788,P,260.814911
12789,P,-895.06134
12790,P,-895.06134
12791,P,-910.87085
12792,P,-910.87085
12793,P,259.3815
12794,P,259.3815
12795,P,-911.209778
12796,P,-911.209778
12797,P,267.321533
12798,P,267.321533
12799,P,-753.663452
12800,P,-753.663452
12801,P,-909.547729
12802,P,-909.547729
12803,P,-1289.59961
12804,P,-1289.59961
12805,P,263.903564
12806,P,263.903564
12807,P,-756.163269
12808,P,-756.163269
12809,P,250.50383
12810,P,250.50383
12811,P,-897.600281
12812,P,-897.600281
12813,P,-893.348999
12814,P,-893.348999
12815,P,328.519958
12816,P,328.519958
12817,P,669.766479
12818,P,669.766479
12819,P,339.300964
12820,P,339.300964
12821,P,679.727661
12822,P,679.727661
12823,P,339.625488
12824,P,339.625488
12825,P,332.462402
12826,P,332.462402
12827,P,297.363434
12828,P,297.363434
12829,P,325.579468
12830,P,325.579468
12831,P,265.078369
12832,P,265.078369
12833,P,296.488251
12834,P,296.488251
12835,P,291.699768
12836,P,291.699768
12837,P,293.969696
12838,P,293.969696
12839,P,465.902802
12840,P,465.902802
12841,P,-1484.61938
12842,P,-1484.61938
12843,P,357.876495
12844,P,357.876495
12845,P,978.961304
12846,P,978.961304
12847,P,429.845551
12848,P,429.845551
12849,P,313.324677
12850,P,313.324677
12851,P,862.192078
12852,P,862.192078
12853,P,228.221542
12854,P,228.221542
12855,P,198.164841
12856,P,198.164841
12857,P,254.114944
12858,P,254.114944
12859,P,-943.17511
12860,P,-943.17511
12861,P,264.184082
12862,P,264.184082
12863,P,-775.019226
12864,P,-775.019226
12865,P,-919.519531
12866,P,-919.519531
12867,P,-1301.79724
12868,P,-1301.79724
12869,P,-1108.26331
12870,P,-1108.26331
12871,P,252.486938
12872,P,252.486938
12873,P,-753.41626
12874,P,-753.41626
12875,P,239.081604
12876,P,239.081604
12877,P,-894.417908
12878,P,-894.417908
12879,P,-912.393677
12880,P,-912.393677
12881,P,258.817627
12882,P,258.817627
12883,P,-909.393433
12884,P,-909.393433
12885,P,274.167542
12886,P,274.167542
12887,P,-752.246826
12888,P,-752.246826
12889,P,-907.693909
12890,P,-907.693909
12891,P,267.708496
12892,P,267.708496
12893,P,-755.12207
12894,P,-755.12207
12895,P,239.597458
12896,P,239.597458
12897,P,-895.78595
12898,P,-895.78595
12899,P,-892.028809
12900,P,-892.028809
12901,P,352.337189
12902,P,352.337189
12903,P,355.89563
12904,P,355.89563
12905,P,341.179962
12906,P,341.179962
12907,P,302.852783
12908,P,302.852783
12909,P,266.356781
12910,P,266.356781
12911,P,291.16684
12912,P,291.16684
12913,P,296.954346
12914,P,296.954346
12915,P,294.195099
12916,P,294.195099
12917,P,309.597961
12918,P,309.597961
12919,P,641.774292
12920,P,641.774292
12921,P,337.632416
12922,P,337.632416
12923,P,-1287.23889
12924,P,-1287.23889
12925,P,666.406494
12926,P,666.406494
12927,P,319.642639
12928,P,319.642639
12929,P,-1129.34961
12930,P,-1129.34961
12931,P,348.394714
12932,P,348.394714
12933,P,698.472534
12934,P,698.472534
12935,P,335.165405
12936,P,335.165405
12937,P,331.609436
12938,P,331.609436
12939,P,395.987885
12940,P,395.987885
12941,P,-1304.65662
12942,P,-1304.65662
12943,P,357.862396
12944,P,357.862396
12945,P,733.490479
12946,P,733.490479
12947,P,265.378723
12948,P,265.378723
12949,P,-990.601318
12950,P,-990.601318
12951,P,254.834213
12952,P,254.834213
12953,P,-802.810974
12954,P,-802.810974
12955,P,-987.093384
12956,P,-987.093384
12957,P,-1286.13794
12958,P,-1286.13794
12959,P,-1576.83887
12960,P,-1576.83887
12961,P,259.793304
12962,P,259.793304
12963,P,-820.276367
12964,P,-820.276367
12965,P,281.079132
12966,P,281.079132
12967,P,-977.740356
12968,P,-977.740356
12969,P,-969.959229
12970,P,-969.959229
12971,P,288.083282
12972,P,288.083282
12973,P,-974.01709
12974,P,-974.01709
12975,P,273.722534
12976,P,273.722534
12977,P,-818.002258
12978,P,-818.002258
12979,P,-965.26416
12980,P,-965.26416
12981,P,-1295.6958
12982,P,-1295.6958
12983,P,272.030396
12984,P,272.030396
12985,P,-799.719604
12986,P,-799.719604
12987,P,281.643372
12988,P,281.643372
12989,P,-969.410828
12990,P,-969.410828
12991,P,-976.441101
12992,P,-976.441101
12993,P,295.931976
12994,P,295.931976
12995,P,299.352844
12996,P,299.352844
12997,P,297.677551
12998,P,297.677551
12999,P,299.412659
13000,P,299.412659
13001,P,291.646973
13002,P,291.646973
13003,P,281.443054
13004,P,281.443054
13005,P,283.010712
13006,P,283.010712
13007,P,296.41571
13008,P,296.41571
13009,P,435.568298
13010,P,435.568298
13011,P,685.221436
13012,P,685.221436
13013,P,396.270905
13014,P,396.270905
13015,P,726.109924
13016,P,726.109924
13017,P,263.100006
13018,P,263.100006
13019,P,243.967712
13020,P,243.967712
13021,P,424.679291
13022,P,424.679291
13023,P,189.03862
13024,P,189.03862
13025,P,195.131454
13026,P,195.131454
13027,P,270.664856
13028,P,270.664856
13029,P,264.432434
13030,P,264.432434
13031,P,441.545441
13032,P,441.545441
13033,P,214.629471
13034,P,214.629471
13035,P,-1007.7063
13036,P,-1007.7063
13037,P,209.165558
13038,P,209.165558
13039,P,-845.583801
13040,P,-845.583801
13041,P,-1016.79077
13042,P,-1016.79077
13043,P,205.236023
13044,P,205.236023
13045,P,-861.876648
13046,P,-861.876648
13047,P,209.104965
13048,P,209.104965
13049,P,-1023.38837
13050,P,-1023.38837
13051,P,-1002.49609
13052,P,-1002.49609
13053,P,202.6259
13054,P,202.6259
13055,P,-1019.38947
13056,P,-1019.38947
13057,P,204.146881
13058,P,204.146881
13059,P,-846.822083
13060,P,-846.822083
13061,P,-1024.51929
13062,P,-1024.51929
13063,P,-1340.40723
13064,P,-1340.40723
13065,P,-1577.7865
13066,P,-1577.7865
13067,P,204.371918
13068,P,204.371918
13069,P,-858.115417
13070,P,-858.115417
13071,P,209.563828
13072,P,209.563828
13073,P,-1028.13977
13074,P,-1028.13977
13075,P,-1004.06787
13076,P,-1004.06787
13077,P,183.916824
13078,P,183.916824
13079,P,184.449875
13080,P,184.449875
13081,P,187.988586
13082,P,187.988586
13083,P,191.862747
13084,P,191.862747
13085,P,199.49292
13086,P,199.49292
13087,P,195.837189
13088,P,195.837189
13089,P,193.976959
13090,P,193.976959
13091,P,193.365005
13092,P,193.365005
13093,P,222.287903
13094,P,222.287903
13095,P,-1580.92383
13096,P,-1580.92383
13097,P,437.642334
13098,P,437.642334
13099,P,211.773758
13100,P,211.773758
13101,P,434.628143
13102,P,434.628143
13103,P,294.949402
13104,P,294.949402
13105,P,-1613.23303
13106,P,-1613.23303
13107,P,240.612564
13108,P,240.612564
13109,P,408.326721
13110,P,408.326721
13111,P,187.56424
13112,P,187.56424
13113,P,188.767914
13114,P,188.767914
13115,P,335.018463
13116,P,335.018463
13117,P,-1312.01245
13118,P,-1312.01245
13119,P,235.818039
13120,P,235.818039
13121,P,436.807281
13122,P,436.807281
13123,P,199.860855
13124,P,199.860855
13125,P,204.225235
13126,P,204.225235
13127,P,251.963623
13128,P,251.963623
13129,P,-985.606262
13130,P,-985.606262
13131,P,231.813339
13132,P,231.813339
13133,P,-832.300476
13134,P,-832.300476
13135,P,-979.963928
13136,P,-979.963928
13137,P,-1305.64575
13138,P,-1305.64575
13139,P,226.579117
13140,P,226.579117
13141,P,-810.055725
13142,P,-810.055725
13143,P,232.972351
13144,P,232.972351
13145,P,-973.03833
13146,P,-973.03833
13147,P,-985.603271
13148,P,-985.603271
13149,P,198.14267
13150,P,198.14267
13151,P,-996.073792
13152,P,-996.073792
13153,P,201.476013
13154,P,201.476013
13155,P,-825.094238
13156,P,-825.094238
13157,P,-971.587952
13158,P,-971.587952
13159,P,-1308.62573
13160,P,-1308.62573
13161,P,207.626282
13162,P,207.626282
13163,P,-811.99408
13164,P,-811.99408
13165,P,224.296768
13166,P,224.296768
13167,P,-990.367554
13168,P,-990.367554
13169,P,-993.462708
13170,P,-993.462708
13171,P,184.217133
13172,P,184.217133
13173,P,186.211426
13174,P,186.211426
13175,P,185.362625
13176,P,185.362625
13177,P,182.058945
13178,P,182.058945
13179,P,191.244766
13180,P,191.244766
13181,P,187.146622
13182,P,187.146622
13183,P,184.304489
13184,P,184.304489
13185,P,181.745728
13186,P,181.745728
13187,P,420.539612
13188,P,420.539612
13189,P,584.861389
13190,P,584.861389
13191,P,408.863922
13192,P,408.863922
13193,P,508.109833
13194,P,508.109833
13195,P,297.202698
13196,P,297.202698
13197,P,-1366.60474
13198,P,-1366.60474
13199,P,347.719635
13200,P,347.719635
13201,P,692.76532
13202,P,692.76532
13203,P,317.880554
13204,P,317.880554
13205,P,331.439758
13206,P,331.439758
13207,P,696.146973
13208,P,696.146973
13209,P,291.744354
13210,P,291.744354
13211,P,286.441772
13212,P,286.441772
13213,P,259.463928
13214,P,259.463928
13215,P,-930.97345
13216,P,-930.97345
13217,P,282.756134
13218,P,282.756134
13219,P,-778.92749
13220,P,-778.92749
13221,P,-955.750793
13222,P,-955.750793
13223,P,-1377.29858
13224,P,-1377.29858
13225,P,-1144.88293
13226,P,-1144.88293
13227,P,289.904358
13228,P,289.904358
13229,P,-776.103333
13230,P,-776.103333
13231,P,263.78714
13232,P,263.78714
13233,P,-943.528381
13234,P,-943.528381
13235,P,-957.433105
13236,P,-957.433105
13237,P,281.768219
13238,P,281.768219
13239,P,-941.487
13240,P,-941.487
13241,P,297.736084
13242,P,297.736084
13243,P,-767.92688
13244,P,-767.92688
13245,P,-940.407349
13246,P,-940.407349
13247,P,287.319397
13248,P,287.319397
13249,P,-791.532959
13250,P,-791.532959
13251,P,269.589905
13252,P,269.589905
13253,P,-952.045166
13254,P,-952.045166
13255,P,-939.156067
13256,P,-939.156067
13257,P,303.386963
13258,P,303.386963
13259,P,300.542694
13260,P,300.542694
13261,P,299.947632
13262,P,299.947632
13263,P,298.751465
13264,P,298.751465
13265,P,279.135193
13266,P,279.135193
13267,P,292.328949
13268,P,292.328949
13269,P,300.300568
13270,P,300.300568
13271,P,299.110626
13272,P,299.110626
13273,P,335.942474
13274,P,335.942474
13275,P,690.111389
13276,P,690.111389
13277,P,395.57843
13278,P,395.57843
13279,P,-1413.84705
13280,P,-1413.84705
13281,P,710.720703
13282,P,710.720703
13283,P,590.209106
13284,P,590.209106
13285,P,-1238.17212
13286,P,-1238.17212
13287,P,492.134369
13288,P,492.134369
13289,P,1225.43787
13290,P,1225.43787
13291,P,352.13913
13292,P,352.13913
13293,P,283.370422
13294,P,283.370422
13295,P,652.568542
13296,P,652.568542
13297,P,-1540.82056
13298,P,-1540.82056
13299,P,606.318542
13300,P,606.318542
13301,P,1369.51697
13302,P,1369.51697
13303,P,1173.29956
13304,P,1173.29956
13305,P,-785.955505
13306,P,-785.955505
13307,P,1092.02161
13308,P,1092.02161
13309,P,-617.417358
13310,P,-617.417358
13311,P,-819.116333
13312,P,-819.116333
13313,P,-1574.75024
13314,P,-1574.75024
13315,P,-1246.11682
13316,P,-1246.11682
13317,P,956.944275
13318,P,956.944275
13319,P,-646.848999
13320,P,-646.848999
13321,P,875.468628
13322,P,875.468628
13323,P,-886.735901
13324,P,-886.735901
13325,P,-870.217896
13326,P,-870.217896
13327,P,591.044495
13328,P,591.044495
13329,P,-939.557007
13330,P,-939.557007
13331,P,665.882568
13332,P,665.882568
13333,P,-731.042297
13334,P,-731.042297
13335,P,-941.240845
13336,P,-941.240845
13337,P,-1589.04346
13338,P,-1589.04346
13339,P,714.544617
13340,P,714.544617
13341,P,-732.173157
13342,P,-732.173157
13343,P,787.863342
13344,P,787.863342
13345,P,-916.000549
13346,P,-916.000549
13347,P,-918.960205
13348,P,-918.960205
13349,P,353.598206
13350,P,353.598206
13351,P,399.226074
13352,P,399.226074
13353,P,401.82196
13354,P,401.82196
13355,P,421.205353
13356,P,421.205353
13357,P,560.838684
13358,P,560.838684
13359,P,502.551544
13360,P,502.551544
13361,P,480.485382
13362,P,480.485382
13363,P,443.476593
13364,P,443.476593
13365,P,938.346008
13366,P,938.346008
13367,P,2344.12402
13368,P,2344.12402
13369,P,839.431458
13370,P,839.431458
13371,P,1875.49524
13372,P,1875.49524
13373,P,-1490.45996
13374,P,-1490.45996
13375,P,-1176.87402
13376,P,-1176.87402
13377,P,1026.72632
13378,P,1026.72632
13379,P,2513.70923
13380,P,2513.70923
13381,P,-1186.96619
13382,P,-1186.96619
13383,P,-1462.64233
13384,P,-1462.64233
13385,P,1008.86926
13386,P,1008.86926
13387,P,2529.12695
13388,P,2529.12695
13389,P,1287.11694
13390,P,1287.11694
13391,P,-688.719543
13392,P,-688.719543
13393,P,1387.5636
13394,P,1387.5636
13395,P,-412.336243
13396,P,-412.336243
13397,P,-611.627136
13398,P,-611.627136
13399,P,1525.89233
13400,P,1525.89233
13401,P,-296.151062
13402,P,-296.151062
13403,P,1718.32739
13404,P,1718.32739
13405,P,-180.849762
13406,P,-180.849762
13407,P,-391.775909
13408,P,-391.775909
13409,P,239.476578
13410,P,239.476578
13411,P,239.476578
13412,P,1819.79089
13413,P,1819.79089
13414,P,572.026672
13415,P,572.026672
13416,P,1416.12854
13417,P,1416.12854
13418,P,383.243774
13419,P,383.243774
13420,P,716.47406
13421,P,716.47406
13422,P,981.28949
13423,P,981.28949
13424,P,-1327.33948
13425,P,-1327.33948
13426,P,2406.77856
13427,P,2406.77856
13428,P,605.328796
13429,P,605.328796
13430,P,-344.389069
13431,P,-344.389069
13432,P,1676.7395
13433,P,1676.7395
13434,P,1806.52161
13435,P,1806.52161
13436,P,1278.5896
13437,P,1278.5896
13438,P,-734.759216
13439,P,-734.759216
13440,P,1369.22839
13441,P,1369.22839
13442,P,-428.124115
13443,P,-428.124115
13444,P,-623.76709
13445,P,-623.76709
13446,P,1496.35852
13447,P,1496.35852
13448,P,-305.756042
13449,P,-305.756042
13450,P,1726.93726
13451,P,1726.93726
13452,P,-316.239838
13453,P,-316.239838
13454,P,-515.179626
13455,P,-515.179626
13456,P,139.322037
13457,P,139.322037
13458,P,139.322037
13459,P,1845.92749
13460,P,1845.92749
13461,P,211.502411
13462,P,211.502411
13463,P,1281.08337
13464,P,1281.08337
13465,P,719.661926
13466,P,719.661926
13467,P,284.273163
13468,P,284.273163
13469,P,958.200623
13470,P,958.200623
13471,P,-1121.56287
13472,P,-1121.56287
13473,P,2430.57837
13474,P,2430.57837
13475,P,593.081787
13476,P,593.081787
13477,P,-83.2663498
13478,P,-83.2663498
13479,P,1651.01013
13480,P,1651.01013
13481,P,1782.62891
13482,P,1782.62891
13483,P,635.430481
13484,P,635.430481
13485,P,706.161316
13486,P,706.161316
13487,P,-331.200348
13488,P,-331.200348
13489,P,-536.721008
13490,P,-536.721008
13491,P,-325.420471
13492,P,-325.420471
13493,P,640.637756
13494,P,640.637756
13495,P,737.127319
13496,P,737.127319
13497,P,-313.426544
13498,P,-313.426544
13499,P,647.373535
13500,P,647.373535
13501,P,-525.542114
13502,P,-525.542114
13503,P,795.957275
13504,P,795.957275
13505,P,-328.653076
13506,P,-328.653076
13507,P,1020.77411
13508,P,1020.77411
13509,P,-236.670227
13510,P,-236.670227
13511,P,941.889099
13512,P,941.889099
13513,P,-432.146545
13514,P,-432.146545
13515,P,1018.65045
13516,P,1018.65045
13517,P,-276.052521
13518,P,-276.052521
13519,P,949.617249
13520,P,949.617249
13521,P,-311.205139
13522,P,-311.205139
13523,P,823.759155
13524,P,823.759155
13525,P,-458.228821
13526,P,-458.228821
13527,P,840.128906
13528,P,840.128906
13529,P,-289.64566
13530,P,-289.64566
13531,P,521.722229
13532,P,521.722229
13533,P,572.9953
13534,P,572.9953
13535,P,625.738586
13536,P,625.738586
13537,P,520.811218
13538,P,520.811218
13539,P,577.965271
13540,P,577.965271
13541,P,534.376282
13542,P,534.376282
13543,P,454.569611
13544,P,454.569611
13545,P,486.544556
13546,P,486.544556
13547,P,464.096222
13548,P,464.096222
13549,P,453.045776
13550,P,453.045776
13551,P,492.430664
13552,P,492.430664
13553,P,524.26593
13554,P,524.26593
13555,P,302.042542
13556,P,302.042542
13557,P,266.941467
13558,P,266.941467
13559,P,-302.71756
13560,P,-302.71756
13561,P,-562.153748
13562,P,-562.153748
13563,P,-313.596863
13564,P,-313.596863
13565,P,272.504822
13566,P,272.504822
13567,P,323.103882
13568,P,323.103882
13569,P,271.733948
13570,P,271.733948
13571,P,-335.082703
13572,P,-335.082703
13573,P,-571.10022
13574,P,-571.10022
13575,P,277.331543
13576,P,277.331543
13577,P,-340.709778
13578,P,-340.709778
13579,P,322.590546
13580,P,322.590546
13581,P,271.938293
13582,P,271.938293
13583,P,-358.960999
13584,P,-358.960999
13585,P,-583.333435
13586,P,-583.333435
13587,P,-365.350433
13588,P,-365.350433
13589,P,281.93103
13590,P,281.93103
13591,P,305.73114
13592,P,305.73114
13593,P,265.652435
13594,P,265.652435
13595,P,-312.090881
13596,P,-312.090881
13597,P,-576.929932
13598,P,-576.929932
13599,P,254.433472
13600,P,254.433472
13601,P,-328.884766
13602,P,-328.884766
13603,P,315.322144
13604,P,315.322144
13605,P,261.342041
13606,P,261.342041
13607,P,267.914581
13608,P,267.914581
13609,P,302.784149
13610,P,302.784149
13611,P,255.794571
13612,P,255.794571
13613,P,252.866714
13614,P,252.866714
13615,P,326.183441
13616,P,326.183441
13617,P,295.566193
13618,P,295.566193
13619,P,307.146606
13620,P,307.146606
13621,P,316.100616
13622,P,316.100616
13623,P,276.433105
13624,P,276.433105
13625,P,265.985046
13626,P,265.985046
13627,P,186.202347
13628,P,186.202347
13629,P,155.539719
13630,P,155.539719
13631,P,-545.650269
13632,P,-545.650269
13633,P,-674.325378
13634,P,-674.325378
13635,P,-548.146118
13636,P,-548.146118
13637,P,150.542114
13638,P,150.542114
13639,P,157.874176
13640,P,157.874176
13641,P,-547.720886
13642,P,-547.720886
13643,P,191.703461
13644,P,191.703461
13645,P,-669.055115
13646,P,-669.055115
13647,P,164.10881
13648,P,164.10881
13649,P,-549.298706
13650,P,-549.298706
13651,P,177.793564
13652,P,177.793564
13653,P,-541.302612
13654,P,-541.302612
13655,P,216.645477
13656,P,216.645477
13657,P,-664.670898
13658,P,-664.670898
13659,P,-545.916504
13660,P,-545.916504
13661,P,186.259949
13662,P,186.259949
13663,P,174.667374
13664,P,174.667374
13665,P,-540.873047
13666,P,-540.873047
13667,P,209.254395
13668,P,209.254395
13669,P,-665.988037
13670,P,-665.988037
13671,P,167.507629
13672,P,167.507629
13673,P,-541.439026
13674,P,-541.439026
13675,P,177.321243
13676,P,177.321243
13677,P,147.655258
13678,P,147.655258
13679,P,149.192413
13680,P,149.192413
13681,P,176.197983
13682,P,176.197983
13683,P,150.038528
13684,P,150.038528
13685,P,149.859131
13686,P,149.859131
13687,P,174.454315
13688,P,174.454315
13689,P,154.265625
13690,P,154.265625
13691,P,155.622604
13692,P,155.622604
13693,P,173.797363
13694,P,173.797363
13695,P,152.279755
13696,P,152.279755
13697,P,151.917145
13698,P,151.917145
13699,P,200.376358
13700,P,200.376358
13701,P,173.266632
13702,P,173.266632
13703,P,-572.040833
13704,P,-572.040833
13705,P,-704.554871
13706,P,-704.554871
13707,P,-577.783447
13708,P,-577.783447
13709,P,170.790237
13710,P,170.790237
13711,P,211.626511
13712,P,211.626511
13713,P,176.648132
13714,P,176.648132
13715,P,-570.887085
13716,P,-570.887085
13717,P,-702.833557
13718,P,-702.833557
13719,P,173.218399
13720,P,173.218399
13721,P,-571.329346
13722,P,-571.329346
13723,P,199.54158
13724,P,199.54158
13725,P,183.342499
13726,P,183.342499
13727,P,-573.363525
13728,P,-573.363525
13729,P,-704.103271
13730,P,-704.103271
13731,P,-569.688904
13732,P,-569.688904
13733,P,174.739899
13734,P,174.739899
13735,P,198.350647
13736,P,198.350647
13737,P,182.392014
13738,P,182.392014
13739,P,-577.110657
13740,P,-577.110657
13741,P,-704.265503
13742,P,-704.265503
13743,P,173.310989
13744,P,173.310989
13745,P,-575.770691
13746,P,-575.770691
13747,P,200.192551
13748,P,200.192551
13749,P,170.893463
13750,P,170.893463
13751,P,170.329422
13752,P,170.329422
13753,P,196.272293
13754,P,196.272293
13755,P,169.401978
13756,P,169.401978
13757,P,166.6436
13758,P,166.6436
13759,P,190.386124
13760,P,190.386124
13761,P,163.574158
13762,P,163.574158
13763,P,162.135193
13764,P,162.135193
13765,P,189.962067
13766,P,189.962067
13767,P,163.809006
13768,P,163.809006
13769,P,165.269043
13770,P,165.269043
13771,P,252.328629
13772,P,252.328629
13773,P,208.307556
13774,P,208.307556
13775,P,-538.810974
13776,P,-538.810974
13777,P,-656.641418
13778,P,-656.641418
13779,P,-532.653442
13780,P,-532.653442
13781,P,210.581116
13782,P,210.581116
13783,P,206.712204
13784,P,206.712204
13785,P,-549.273865
13786,P,-549.273865
13787,P,246.975266
13788,P,246.975266
13789,P,-658.564514
13790,P,-658.564514
13791,P,202.210556
13792,P,202.210556
13793,P,-537.533569
13794,P,-537.533569
13795,P,193.525116
13796,P,193.525116
13797,P,-538.943604
13798,P,-538.943604
13799,P,227.529541
13800,P,227.529541
13801,P,-666.23822
13802,P,-666.23822
13803,P,-542.217102
13804,P,-542.217102
13805,P,183.992645
13806,P,183.992645
13807,P,193.830734
13808,P,193.830734
13809,P,-545.520813
13810,P,-545.520813
13811,P,232.259949
13812,P,232.259949
13813,P,-668.173828
13814,P,-668.173828
13815,P,201.477722
13816,P,201.477722
13817,P,-548.146118
13818,P,-548.146118
13819,P,271.612305
13820,P,271.612305
13821,P,225.069809
13822,P,225.069809
13823,P,212.651718
13824,P,212.651718
13825,P,278.286957
13826,P,278.286957
13827,P,233.022385
13828,P,233.022385
13829,P,230.374588
13830,P,230.374588
13831,P,307.711151
13832,P,307.711151
13833,P,302.50412
13834,P,302.50412
13835,P,318.086517
13836,P,318.086517
13837,P,298.819916
13838,P,298.819916
13839,P,283.967712
13840,P,283.967712
13841,P,237.279343
13842,P,237.279343
13843,P,327.732727
13844,P,327.732727
13845,P,285.314697
13846,P,285.314697
13847,P,-350.036896
13848,P,-350.036896
13849,P,-585.894653
13850,P,-585.894653
13851,P,-358.199036
13852,P,-358.199036
13853,P,306.215302
13854,P,306.215302
13855,P,314.950836
13856,P,314.950836
13857,P,279.544403
13858,P,279.544403
13859,P,-371.205292
13860,P,-371.205292
13861,P,-580.205261
13862,P,-580.205261
13863,P,286.678497
13864,P,286.678497
13865,P,-372.80368
13866,P,-372.80368
13867,P,324.741608
13868,P,324.741608
13869,P,284.418701
13870,P,284.418701
13871,P,-343.110809
13872,P,-343.110809
13873,P,-580.810852
13874,P,-580.810852
13875,P,-361.628082
13876,P,-361.628082
13877,P,279.701721
13878,P,279.701721
13879,P,303.624146
13880,P,303.624146
13881,P,274.882996
13882,P,274.882996
13883,P,-363.770966
13884,P,-363.770966
13885,P,-577.333862
13886,P,-577.333862
13887,P,278.853455
13888,P,278.853455
13889,P,-368.797943
13890,P,-368.797943
13891,P,331.936493
13892,P,331.936493
13893,P,289.683777
13894,P,289.683777
13895,P,297.693146
13896,P,297.693146
13897,P,316.502563
13898,P,316.502563
13899,P,278.575531
13900,P,278.575531
13901,P,306.38916
13902,P,306.38916
13903,P,387.238556
13904,P,387.238556
13905,P,383.957733
13906,P,383.957733
13907,P,427.919739
13908,P,427.919739
13909,P,364.117981
13910,P,364.117981
13911,P,350.009216
13912,P,350.009216
13913,P,329.562988
13914,P,329.562988
13915,P,331.852722
13916,P,331.852722
13917,P,307.58844
13918,P,307.58844
13919,P,-354.057678
13920,P,-354.057678
13921,P,-586.764832
13922,P,-586.764832
13923,P,306.834564
13924,P,306.834564
13925,P,-362.734161
13926,P,-362.734161
13927,P,293.359924
13928,P,293.359924
13929,P,-377.467926
13930,P,-377.467926
13931,P,327.826233
13932,P,327.826233
13933,P,-581.57666
13934,P,-581.57666
13935,P,270.174561
13936,P,270.174561
13937,P,-379.23819
13938,P,-379.23819
13939,P,267.683563
13940,P,267.683563
13941,P,-349.295502
13942,P,-349.295502
13943,P,289.466949
13944,P,289.466949
13945,P,-580.079102
13946,P,-580.079102
13947,P,263.319733
13948,P,263.319733
13949,P,-367.923584
13950,P,-367.923584
13951,P,266.273346
13952,P,266.273346
13953,P,-370.608795
13954,P,-370.608795
13955,P,303.765106
13956,P,303.765106
13957,P,-576.865967
13958,P,-576.865967
13959,P,269.370667
13960,P,269.370667
13961,P,-376.409088
13962,P,-376.409088
13963,P,340.620575
13964,P,340.620575
13965,P,319.845642
13966,P,319.845642
13967,P,300.373169
13968,P,300.373169
13969,P,344.77594
13970,P,344.77594
13971,P,327.671967
13972,P,327.671967
13973,P,364.901306
13974,P,364.901306
13975,P,407.605103
13976,P,407.605103
13977,P,434.377075
13978,P,434.377075
13979,P,452.494934
13980,P,452.494934
13981,P,413.662506
13982,P,413.662506
13983,P,424.472565
13984,P,424.472565
13985,P,391.436127
13986,P,391.436127
13987,P,264.998505
13988,P,264.998505
13989,P,216.292496
13990,P,216.292496
13991,P,-538.421631
13992,P,-538.421631
13993,P,-655.739807
13994,P,-655.739807
13995,P,224.259216
13996,P,224.259216
13997,P,-530.683289
13998,P,-530.683289
13999,P,261.249908
14000,P,261.249908
14001,P,215.298111
14002,P,215.298111
14003,P,-544.943298
14004,P,-544.943298
14005,P,-656.030762
14006,P,-656.030762
14007,P,210.487473
14008,P,210.487473
14009,P,-532.538513
14010,P,-532.538513
14011,P,236.267654
14012,P,236.267654
14013,P,200.07106
14014,P,200.07106
14015,P,-534.399719
14016,P,-534.399719
14017,P,-661.498047
14018,P,-661.498047
14019,P,190.836212
14020,P,190.836212
14021,P,-537.70752
14022,P,-537.70752
14023,P,241.959351
14024,P,241.959351
14025,P,202.544144
14026,P,202.544144
14027,P,-540.922607
14028,P,-540.922607
14029,P,-663.017334
14030,P,-663.017334
14031,P,209.984665
14032,P,209.984665
14033,P,-543.782593
14034,P,-543.782593
14035,P,276.370728
14036,P,276.370728
14037,P,225.453201
14038,P,225.453201
14039,P,227.123489
14040,P,227.123489
14041,P,278.773743
14042,P,278.773743
14043,P,229.713043
14044,P,229.713043
14045,P,241.142578
14046,P,241.142578
14047,P,310.827698
14048,P,310.827698
14049,P,290.17099
14050,P,290.17099
14051,P,306.908295
14052,P,306.908295
14053,P,288.584198
14054,P,288.584198
14055,P,276.097839
14056,P,276.097839
14057,P,252.675613
14058,P,252.675613
14059,P,203.790848
14060,P,203.790848
14061,P,176.298111
14062,P,176.298111
14063,P,-573.804626
14064,P,-573.804626
14065,P,-704.536621
14066,P,-704.536621
14067,P,174.174377
14068,P,174.174377
14069,P,-577.938171
14070,P,-577.938171
14071,P,177.012772
14072,P,177.012772
14073,P,-569.888184
14074,P,-569.888184
14075,P,201.582809
14076,P,201.582809
14077,P,-704.372375
14078,P,-704.372375
14079,P,180.197678
14080,P,180.197678
14081,P,-568.10675
14082,P,-568.10675
14083,P,179.802765
14084,P,179.802765
14085,P,-576.317383
14086,P,-576.317383
14087,P,214.935394
14088,P,214.935394
14089,P,-704.036377
14090,P,-704.036377
14091,P,175.8311
14092,P,175.8311
14093,P,-569.566956
14094,P,-569.566956
14095,P,178.798294
14096,P,178.798294
14097,P,-578.195557
14098,P,-578.195557
14099,P,206.024963
14100,P,206.024963
14101,P,-705.030579
14102,P,-705.030579
14103,P,181.083252
14104,P,181.083252
14105,P,-574.395813
14106,P,-574.395813
14107,P,194.532486
14108,P,194.532486
14109,P,170.715973
14110,P,170.715973
14111,P,171.616653
14112,P,171.616653
14113,P,190.560043
14114,P,190.560043
14115,P,168.028748
14116,P,168.028748
14117,P,165.166504
14118,P,165.166504
14119,P,185.921524
14120,P,185.921524
14121,P,158.884094
14122,P,158.884094
14123,P,157.524445
14124,P,157.524445
14125,P,189.266876
14126,P,189.266876
14127,P,161.872528
14128,P,161.872528
14129,P,163.112396
14130,P,163.112396
14131,P,187.82811
14132,P,187.82811
14133,P,160.564514
14134,P,160.564514
14135,P,-550.414673
14136,P,-550.414673
14137,P,-673.485901
14138,P,-673.485901
14139,P,156.838623
14140,P,156.838623
14141,P,-546.978333
14142,P,-546.978333
14143,P,193.618546
14144,P,193.618546
14145,P,163.356552
14146,P,163.356552
14147,P,-546.082764
14148,P,-546.082764
14149,P,-670.947266
14150,P,-670.947266
14151,P,167.875061
14152,P,167.875061
14153,P,-547.424866
14154,P,-547.424866
14155,P,213.354126
14156,P,213.354126
14157,P,177.378998
14158,P,177.378998
14159,P,-539.85498
14160,P,-539.85498
14161,P,-671.202026
14162,P,-671.202026
14163,P,182.675507
14164,P,182.675507
14165,P,-547.422974
14166,P,-547.422974
14167,P,207.935883
14168,P,207.935883
14169,P,176.342422
14170,P,176.342422
14171,P,-537.298645
14172,P,-537.298645
14173,P,-667.902222
14174,P,-667.902222
14175,P,170.901337
14176,P,170.901337
14177,P,-538.660461
14178,P,-538.660461
14179,P,179.494156
14180,P,179.494156
14181,P,153.757736
14182,P,153.757736
14183,P,156.70166
14184,P,156.70166
14185,P,178.985504
14186,P,178.985504
14187,P,153.891678
14188,P,153.891678
14189,P,154.609634
14190,P,154.609634
14191,P,186.756454
14192,P,186.756454
14193,P,160.400528
14194,P,160.400528
14195,P,159.780518
14196,P,159.780518
14197,P,184.755646
14198,P,184.755646
14199,P,157.556427
14200,P,157.556427
14201,P,157.391785
14202,P,157.391785
14203,P,323.3479
14204,P,323.3479
14205,P,292.697388
14206,P,292.697388
14207,P,-302.904053
14208,P,-302.904053
14209,P,-559.961731
14210,P,-559.961731
14211,P,298.898529
14212,P,298.898529
14213,P,-313.612366
14214,P,-313.612366
14215,P,284.319153
14216,P,284.319153
14217,P,-338.445892
14218,P,-338.445892
14219,P,335.800873
14220,P,335.800873
14221,P,-567.413818
14222,P,-567.413818
14223,P,283.761047
14224,P,283.761047
14225,P,-342.434845
14226,P,-342.434845
14227,P,267.364105
14228,P,267.364105
14229,P,-355.24054
14230,P,-355.24054
14231,P,308.722321
14232,P,308.722321
14233,P,-582.152893
14234,P,-582.152893
14235,P,269.455627
14236,P,269.455627
14237,P,-362.817108
14238,P,-362.817108
14239,P,277.063904
14240,P,277.063904
14241,P,-316.967529
14242,P,-316.967529
14243,P,330.77887
14244,P,330.77887
14245,P,-574.699951
14246,P,-574.699951
14247,P,279.498657
14248,P,279.498657
14249,P,-331.011353
14250,P,-331.011353
14251,P,334.573059
14252,P,334.573059
14253,P,286.772003
14254,P,286.772003
14255,P,298.895905
14256,P,298.895905
14257,P,322.294708
14258,P,322.294708
14259,P,280.763428
14260,P,280.763428
14261,P,299.140045
14262,P,299.140045
14263,P,324.696899
14264,P,324.696899
14265,P,292.086914
14266,P,292.086914
14267,P,311.69339
14268,P,311.69339
14269,P,333.649536
14270,P,333.649536
14271,P,291.365967
14272,P,291.365967
14273,P,297.500031
14274,P,297.500031
14275,P,630.95697
14276,P,630.95697
14277,P,710.503845
14278,P,710.503845
14279,P,-332.466675
14280,P,-332.466675
14281,P,-537.281372
14282,P,-537.281372
14283,P,635.089844
14284,P,635.089844
14285,P,-325.535339
14286,P,-325.535339
14287,P,664.962585
14288,P,664.962585
14289,P,736.305176
14290,P,736.305176
14291,P,-316.084961
14292,P,-316.084961
14293,P,-529.834656
14294,P,-529.834656
14295,P,788.165039
14296,P,788.165039
14297,P,-330.796997
14298,P,-330.796997
14299,P,950.060608
14300,P,950.060608
14301,P,1004.13385
14302,P,1004.13385
14303,P,-238.552689
14304,P,-238.552689
14305,P,-429.786011
14306,P,-429.786011
14307,P,1010.91754
14308,P,1010.91754
14309,P,-279.561859
14310,P,-279.561859
14311,P,847.491394
14312,P,847.491394
14313,P,945.9021
14314,P,945.9021
14315,P,-314.361298
14316,P,-314.361298
14317,P,-457.424072
14318,P,-457.424072
14319,P,837.775085
14320,P,837.775085
14321,P,-291.955963
14322,P,-291.955963
14323,P,531.024841
14324,P,531.024841
14325,P,573.525635
14326,P,573.525635
14327,P,622.390381
14328,P,622.390381
14329,P,512.188538
14330,P,512.188538
14331,P,571.159668
14332,P,571.159668
14333,P,521.263428
14334,P,521.263428
14335,P,442.995056
14336,P,442.995056
14337,P,465.45108
14338,P,465.45108
14339,P,445.003387
14340,P,445.003387
14341,P,450.802124
14342,P,450.802124
14343,P,482.189362
14344,P,482.189362
14345,P,519.619507
14346,P,519.619507
14347,P,-220.366821
14348,P,-220.366821
14349,P,1109.41089
14350,P,1109.41089
14351,P,1287.12878
14352,P,1287.12878
14353,P,1180.2937
14354,P,1180.2937
14355,P,-250.086304
14356,P,-250.086304
14357,P,-161.669022
14358,P,-161.669022
14359,P,1358.70471
14360,P,1358.70471
14361,P,1504.75696
14362,P,1504.75696
14363,P,-149.706497
14364,P,-149.706497
14365,P,60.2255173
14366,P,60.2255173
14367,P,1394.94727
14368,P,1394.94727
14369,P,-105.418671
14370,P,-105.418671
14371,P,1879.03284
14372,P,1879.03284
14373,P,199.792343
14374,P,199.792343
14375,P,2764.02222
14376,P,2764.02222
14377,P,2764.02222
14378,P,365.498199
14379,P,365.498199
14380,P,1723.7887
14381,P,1723.7887
14382,P,428.740601
14383,P,428.740601
14384,P,-221.89537
14385,P,-221.89537
14386,P,1093.50183
14387,P,1093.50183
14388,P,1189.92175
14389,P,1189.92175
14390,P,1252.53662
14391,P,1252.53662
14392,P,-260.032349
14393,P,-260.032349
14394,P,-165.492432
14395,P,-165.492432
14396,P,1444.64368
14397,P,1444.64368
14398,P,1332.87292
14399,P,1332.87292
14400,P,-164.044327
14401,P,-164.044327
14402,P,58.8045158
14403,P,58.8045158
14404,P,1310.54858
14405,P,1310.54858
14406,P,-110.993347
14407,P,-110.993347
14408,P,2655.28223
14409,P,2655.28223
14410,P,2655.28223
14411,P,1765.90137
14412,P,1765.90137
14413,P,193.387863
14414,P,193.387863
14415,P,416.564819
14416,P,416.564819
14417,P,1665.93762
14418,P,1665.93762
14419,P,436.399414
14420,P,436.399414
14421,P,1532.66931
14422,P,1532.66931
14423,P,1401.71997
14424,P,1401.71997
14425,P,1630.4115
14426,P,1630.4115
14427,P,918.698059
14428,P,918.698059
14429,P,1292.505
14430,P,1292.505
14431,P,770.994019
14432,P,770.994019
14433,P,1546.48352
14434,P,1546.48352
14435,P,1396.80615
14436,P,1396.80615
14437,P,1274.40466
14438,P,1274.40466
14439,P,996.987061
14440,P,996.987061
14441,P,1613.97913
14442,P,1613.97913
14443,P,843.24115
14444,P,843.24115
14445,P,1256.52441
14446,P,1256.52441
14447,P,1100.7406
14448,P,1100.7406
14449,P,1064.99951
14450,P,1064.99951
14451,P,1346.48596
14452,P,1346.48596
14453,P,1346.48596
14454,P,864.922852
14455,P,864.922852
14456,P,1240.30518
14457,P,1240.30518
14458,P,1261.72095
14459,P,1261.72095
14460,P,1364.06885
14461,P,1364.06885
14462,P,1332.73792
14463,P,1332.73792
14464,P,1520.3114
14465,P,1520.3114
14466,P,1714.5365
14467,P,1714.5365
14468,P,1364.53088
14469,P,1364.53088
14470,P,1396.00916
14471,P,1396.00916
14472,P,2031.31152
14473,P,2031.31152
14474,P,1863.52747
14475,P,1863.52747
14476,P,1680.08606
14477,P,1680.08606
14478,P,1847.51379
14479,P,1847.51379
14480,P,1772.79944
14481,P,1772.79944
14482,P,2171.83423
14483,P,2171.83423
14484,P,1934.12158
14485,P,1934.12158
14486,P,1761.16345
14487,P,1761.16345
14488,P,1955.33948
14489,P,1955.33948
14490,P,1630.16797
14491,P,1630.16797
14492,P,1013.67773
14493,P,1013.67773
14494,P,683.727417
14495,P,683.727417
14496,P,532.874268
14497,P,532.874268
14498,P,532.874268
14499,P,1049.68506
14500,P,1049.68506
14501,P,1104.48206
14502,P,1104.48206
14503,P,133.424774
14504,P,133.424774
14505,P,133.424774
14506,P,1122.35645
14507,P,1122.35645
14508,P,1101.2179
14509,P,1101.2179
14510,P,741.883789
14511,P,741.883789
14512,P,1438.21033
14513,P,1438.21033
14514,P,1438.21033
14515,P,798.679321
14516,P,798.679321
14517,P,685.551086
14518,P,685.551086
14519,P,200.392807
14520,P,200.392807
14521,P,200.392807
14522,P,1430.87085
14523,P,1430.87085
14524,P,1430.87085
14525,P,730.240723
14526,P,730.240723
14527,P,182.490997
14528,P,182.490997
14529,P,182.490997
14530,P,182.490997
14531,P,-73.5995636
14532,P,-73.5995636
*BOUNDARY
MOUNT, 1, 6
*END STEP
