*HEADING
Wing shell from CFD pressure
*NODE
1,0.00213337992,-0.0143742003,-0.374996006
2,0.00213337992,-0.0143742003,0.374996006
3,0.00217478001,-0.0143860998,-0.367184013
4,0.00217478001,-0.0143860998,0.367184013
5,0.0022161901,-0.0143980002,-0.35937199
6,0.0022161901,-0.0143980002,0.35937199
7,0.00225758995,-0.0144100003,-0.351559013
8,0.00225758995,-0.0144100003,0.351559013
9,0.00229899003,-0.0144218998,-0.34374699
10,0.00229899003,-0.0144218998,0.34374699
11,0.00234039011,-0.0144338999,-0.335934997
12,0.00234039011,-0.0144338999,0.335934997
13,0.00238178996,-0.0144458003,-0.32812199
14,0.00238178996,-0.0144458003,0.32812199
15,0.00242319005,-0.0144578004,-0.320309997
16,0.00242319005,-0.0144578004,0.320309997
17,0.0024645899,-0.0144696999,-0.312498003
18,0.0024645899,-0.0144696999,0.312498003
19,0.00250598998,-0.0144816004,-0.30468601
20,0.00250598998,-0.0144816004,0.30468601
21,0.00254740007,-0.0144936005,-0.296873003
22,0.00254740007,-0.0144936005,0.296873003
23,0.00258879992,-0.0145055,-0.28906101
24,0.00258879992,-0.0145055,0.28906101
25,0.0026302,-0.0145175001,-0.281248987
26,0.0026302,-0.0145175001,0.281248987
27,0.00267160009,-0.0145293996,-0.273436993
28,0.00267160009,-0.0145293996,0.273436993
29,0.00271299994,-0.0145413997,-0.265623987
30,0.00271299994,-0.0145413997,0.265623987
31,0.00275440002,-0.0145533001,-0.257811993
32,0.00275440002,-0.0145533001,0.257811993
33,0.0027958001,-0.0145653002,-0.25
34,0.0027958001,-0.0145653002,0.25
35,0.00283719995,-0.0145771997,-0.242188007
36,0.00283719995,-0.0145771997,0.242188007
37,0.00287861005,-0.0145891001,-0.234375
38,0.00287861005,-0.0145891001,0.234375
39,0.00292000989,-0.0146011002,-0.226563007
40,0.00292000989,-0.0146011002,0.226563007
41,0.00296140998,-0.0146129997,-0.218750998
42,0.00296140998,-0.0146129997,0.218750998
43,0.00298084994,-0.0153080998,-0.382813007
44,0.00298084994,-0.0153080998,-0.101562001
45,0.00298084994,-0.0153080998,-0.09375
46,0.00298084994,-0.0153080998,-0.0859375
47,0.00298084994,-0.0153080998,-0.078125
48,0.00298084994,-0.0153080998,-0.0703125
49,0.00298084994,-0.0153080998,-0.0625
50,0.00298084994,-0.0153080998,-0.0546875
51,0.00298084994,-0.0153080998,-0.046875
52,0.00298084994,-0.0153080998,-0.0390625
53,0.00298084994,-0.0153080998,-0.03125
54,0.00298084994,-0.0153080998,-0.0234375
55,0.00298084994,-0.0153080998,-0.015625
56,0.00298084994,-0.0153080998,-0.0078125
57,0.00298084994,-0.0153080998,-0
58,0.00298084994,-0.0153080998,0.0078125
59,0.00298084994,-0.0153080998,0.015625
60,0.00298084994,-0.0153080998,0.0234375
61,0.00298084994,-0.0153080998,0.03125
62,0.00298084994,-0.0153080998,0.0390625
63,0.00298084994,-0.0153080998,0.046875
64,0.00298084994,-0.0153080998,0.0546875
65,0.00298084994,-0.0153080998,0.0625
66,0.00298084994,-0.0153080998,0.0703125
67,0.00298084994,-0.0153080998,0.078125
68,0.00298084994,-0.0153080998,0.0859375
69,0.00298084994,-0.0153080998,0.09375
70,0.00298084994,-0.0153080998,0.101562999
71,0.00298084994,-0.0153080998,0.382813007
72,0.00300281006,-0.0146249998,-0.210939005
73,0.00300281006,-0.0146249998,0.210939005
74,0.00304420991,-0.0146369003,-0.203125998
75,0.00304420991,-0.0146369003,0.203125998
76,0.00308560999,-0.0146489004,-0.195314005
77,0.00308560999,-0.0146489004,0.195314005
78,0.00312701007,-0.0146607999,-0.187501997
79,0.00312701007,-0.0146607999,0.187501997
80,0.00316840992,-0.0146728,-0.179689005
81,0.00316840992,-0.0146728,0.179689005
82,0.00317623001,-0.0152663002,-0.390341014
83,0.00317623001,-0.0152663002,0.390341014
84,0.00320982002,-0.0146847004,-0.171876997
85,0.00320982002,-0.0146847004,0.171876997
86,0.0032512201,-0.0146965999,-0.164065003
87,0.0032512201,-0.0146965999,0.164065003
88,0.00329261995,-0.0147086,-0.156252995
89,0.00329261995,-0.0147086,0.156252995
90,0.00333402003,-0.0147205004,-0.148440003
91,0.00333402003,-0.0147205004,0.148440003
92,0.00337542011,-0.0147324996,-0.140627995
93,0.00337542011,-0.0147324996,0.140627995
94,0.00341681996,-0.0147444,-0.132816002
95,0.00341681996,-0.0147444,0.132816002
96,0.00345822005,-0.0147564001,-0.125003994
97,0.00345822005,-0.0147564001,0.125003994
98,0.0034996199,-0.0147682996,-0.117191002
99,0.0034996199,-0.0147682996,0.117191002
100,0.00354102999,-0.0147802997,-0.109379001
101,0.00354102999,-0.0147802997,0.109379001
102,0.00384610007,-0.0151230004,-0.395981014
103,0.00384713011,-0.0151252002,0.395981014
104,0.00505841011,-0.0196563993,-0.395951986
105,0.00505841011,-0.0196563993,-0.390311003
106,0.00505841011,-0.0196563993,-0.382813007
107,0.00505841011,-0.0196563993,-0.375
108,0.00505841011,-0.0196563993,-0.367188007
109,0.00505841011,-0.0196563993,-0.359375
110,0.00505841011,-0.0196563993,-0.351561993
111,0.00505841011,-0.0196563993,-0.34375
112,0.00505841011,-0.0196563993,-0.335938007
113,0.00505841011,-0.0196563993,-0.328125
114,0.00505841011,-0.0196563993,-0.320311993
115,0.00505841011,-0.0196563993,-0.3125
116,0.00505841011,-0.0196563993,-0.304688007
117,0.00505841011,-0.0196563993,-0.296875
118,0.00505841011,-0.0196563993,-0.289063007
119,0.00505841011,-0.0196563993,-0.28125
120,0.00505841011,-0.0196563993,-0.273438007
121,0.00505841011,-0.0196563993,-0.265625
122,0.00505841011,-0.0196563993,-0.257811993
123,0.00505841011,-0.0196563993,-0.25
124,0.00505841011,-0.0196563993,-0.242188007
125,0.00505841011,-0.0196563993,-0.234375
126,0.00505841011,-0.0196563993,-0.226563007
127,0.00505841011,-0.0196563993,-0.21875
128,0.00505841011,-0.0196563993,-0.210938007
129,0.00505841011,-0.0196563993,-0.203125
130,0.00505841011,-0.0196563993,-0.195311993
131,0.00505841011,-0.0196563993,-0.1875
132,0.00505841011,-0.0196563993,-0.179688007
133,0.00505841011,-0.0196563993,-0.171875
134,0.00505841011,-0.0196563993,-0.164063007
135,0.00505841011,-0.0196563993,-0.15625
136,0.00505841011,-0.0196563993,-0.148438007
137,0.00505841011,-0.0196563993,-0.140625
138,0.00505841011,-0.0196563993,-0.132813007
139,0.00505841011,-0.0196563993,-0.125
140,0.00505841011,-0.0196563993,-0.117187999
141,0.00505841011,-0.0196563993,-0.109375
142,0.00505841011,-0.0196563993,-0.101562999
143,0.00505841011,-0.0196563993,-0.09375
144,0.00505841011,-0.0196563993,-0.0859375
145,0.00505841011,-0.0196563993,-0.078125
146,0.00505841011,-0.0196563993,-0.0703125
147,0.00505841011,-0.0196563993,-0.0625
148,0.00505841011,-0.0196563993,-0.0546875
149,0.00505841011,-0.0196563993,-0.046875
150,0.00505841011,-0.0196563993,-0.0390625
151,0.00505841011,-0.0196563993,-0.03125
152,0.00505841011,-0.0196563993,-0.0234375
153,0.00505841011,-0.0196563993,-0.015625
154,0.00505841011,-0.0196563993,-0.0078125
155,0.00505841011,-0.0196563993,0
156,0.00505841011,-0.0196563993,0.0078125
157,0.00505841011,-0.0196563993,0.015625
158,0.00505841011,-0.0196563993,0.0234375
159,0.00505841011,-0.0196563993,0.03125
160,0.00505841011,-0.0196563993,0.0390625
161,0.00505841011,-0.0196563993,0.046875
162,0.00505841011,-0.0196563993,0.0546875
163,0.00505841011,-0.0196563993,0.0625
164,0.00505841011,-0.0196563993,0.0703125
165,0.00505841011,-0.0196563993,0.078125
166,0.00505841011,-0.0196563993,0.0859375
167,0.00505841011,-0.0196563993,0.09375
168,0.00505841011,-0.0196563993,0.101562001
169,0.00505841011,-0.0196563993,0.109375
170,0.00505841011,-0.0196563993,0.117187001
171,0.00505841011,-0.0196563993,0.125
172,0.00505841011,-0.0196563993,0.132811993
173,0.00505841011,-0.0196563993,0.140625
174,0.00505841011,-0.0196563993,0.148436993
175,0.00505841011,-0.0196563993,0.15625
176,0.00505841011,-0.0196563993,0.164061993
177,0.00505841011,-0.0196563993,0.171875
178,0.00505841011,-0.0196563993,0.179686993
179,0.00505841011,-0.0196563993,0.1875
180,0.00505841011,-0.0196563993,0.195311993
181,0.00505841011,-0.0196563993,0.203125
182,0.00505841011,-0.0196563993,0.210938007
183,0.00505841011,-0.0196563993,0.21875
184,0.00505841011,-0.0196563993,0.226563007
185,0.00505841011,-0.0196563993,0.234375
186,0.00505841011,-0.0196563993,0.242188007
187,0.00505841011,-0.0196563993,0.25
188,0.00505841011,-0.0196563993,0.257813007
189,0.00505841011,-0.0196563993,0.265625
190,0.00505841011,-0.0196563993,0.273438007
191,0.00505841011,-0.0196563993,0.28125
192,0.00505841011,-0.0196563993,0.289061993
193,0.00505841011,-0.0196563993,0.296875
194,0.00505841011,-0.0196563993,0.304688007
195,0.00505841011,-0.0196563993,0.3125
196,0.00505841011,-0.0196563993,0.320311993
197,0.00505841011,-0.0196563993,0.328125
198,0.00505841011,-0.0196563993,0.335938007
199,0.00505841011,-0.0196563993,0.34375
200,0.00505841011,-0.0196563993,0.351561993
201,0.00505841011,-0.0196563993,0.359375
202,0.00505841011,-0.0196563993,0.367188007
203,0.00505841011,-0.0196563993,0.375
204,0.00505841011,-0.0196563993,0.382811993
205,0.00505841011,-0.0196563993,0.390311003
206,0.00505841011,-0.0196563993,0.395951986
207,0.0130110998,-0.0221306998,-0.396366
208,0.0130110998,-0.0221306998,0.396366
209,0.0130289001,-0.0131590003,-0.39664799
210,0.0130326003,-0.0131849004,0.39664799
211,0.0133733004,-0.0222657006,-0.390347004
212,0.0133733004,-0.0222657006,0.390347004
213,0.0133865997,-0.0222676992,-0.382811993
214,0.0133865997,-0.0222676992,-0.375
215,0.0133865997,-0.0222676992,-0.367188007
216,0.0133865997,-0.0222676992,-0.359375
217,0.0133865997,-0.0222676992,-0.351561993
218,0.0133865997,-0.0222676992,-0.34375
219,0.0133865997,-0.0222676992,-0.335938007
220,0.0133865997,-0.0222676992,-0.328125
221,0.0133865997,-0.0222676992,-0.320311993
222,0.0133865997,-0.0222676992,-0.3125
223,0.0133865997,-0.0222676992,-0.304688007
224,0.0133865997,-0.0222676992,-0.296875
225,0.0133865997,-0.0222676992,-0.289063007
226,0.0133865997,-0.0222676992,-0.28125
227,0.0133865997,-0.0222676992,-0.273438007
228,0.0133865997,-0.0222676992,-0.265625
229,0.0133865997,-0.0222676992,-0.257811993
230,0.0133865997,-0.0222676992,-0.25
231,0.0133865997,-0.0222676992,-0.242188007
232,0.0133865997,-0.0222676992,-0.234375
233,0.0133865997,-0.0222676992,-0.226563007
234,0.0133865997,-0.0222676992,-0.21875
235,0.0133865997,-0.0222676992,-0.210936993
236,0.0133865997,-0.0222676992,-0.203125
237,0.0133865997,-0.0222676992,-0.195311993
238,0.0133865997,-0.0222676992,-0.1875
239,0.0133865997,-0.0222676992,-0.179688007
240,0.0133865997,-0.0222676992,-0.171875
241,0.0133865997,-0.0222676992,-0.164061993
242,0.0133865997,-0.0222676992,-0.15625
243,0.0133865997,-0.0222676992,-0.148438007
244,0.0133865997,-0.0222676992,-0.140625
245,0.0133865997,-0.0222676992,-0.132813007
246,0.0133865997,-0.0222676992,-0.125
247,0.0133865997,-0.0222676992,-0.117187999
248,0.0133865997,-0.0222676992,-0.109375
249,0.0133865997,-0.0222676992,-0.101562999
250,0.0133865997,-0.0222676992,-0.09375
251,0.0133865997,-0.0222676992,-0.0859375
252,0.0133865997,-0.0222676992,-0.078125
253,0.0133865997,-0.0222676992,-0.0703125
254,0.0133865997,-0.0222676992,-0.0625
255,0.0133865997,-0.0222676992,-0.0546875
256,0.0133865997,-0.0222676992,-0.046875
257,0.0133865997,-0.0222676992,-0.0390625
258,0.0133865997,-0.0222676992,-0.03125
259,0.0133865997,-0.0222676992,-0.0234375
260,0.0133865997,-0.0222676992,-0.015625
261,0.0133865997,-0.0222676992,-0.0078125
262,0.0133865997,-0.0222676992,0
263,0.0133865997,-0.0222676992,0.0078125
264,0.0133865997,-0.0222676992,0.015625
265,0.0133865997,-0.0222676992,0.0234375
266,0.0133865997,-0.0222676992,0.03125
267,0.0133865997,-0.0222676992,0.0390625
268,0.0133865997,-0.0222676992,0.046875
269,0.0133865997,-0.0222676992,0.0546875
270,0.0133865997,-0.0222676992,0.0625
271,0.0133865997,-0.0222676992,0.0703125
272,0.0133865997,-0.0222676992,0.078125
273,0.0133865997,-0.0222676992,0.0859375
274,0.0133865997,-0.0222676992,0.09375
275,0.0133865997,-0.0222676992,0.101562001
276,0.0133865997,-0.0222676992,0.109375
277,0.0133865997,-0.0222676992,0.117187999
278,0.0133865997,-0.0222676992,0.125
279,0.0133865997,-0.0222676992,0.132811993
280,0.0133865997,-0.0222676992,0.140625
281,0.0133865997,-0.0222676992,0.148438007
282,0.0133865997,-0.0222676992,0.15625
283,0.0133865997,-0.0222676992,0.164061993
284,0.0133865997,-0.0222676992,0.171875
285,0.0133865997,-0.0222676992,0.179688007
286,0.0133865997,-0.0222676992,0.1875
287,0.0133865997,-0.0222676992,0.195313007
288,0.0133865997,-0.0222676992,0.203125
289,0.0133865997,-0.0222676992,0.210938007
290,0.0133865997,-0.0222676992,0.21875
291,0.0133865997,-0.0222676992,0.226563007
292,0.0133865997,-0.0222676992,0.234375
293,0.0133865997,-0.0222676992,0.242188007
294,0.0133865997,-0.0222676992,0.25
295,0.0133865997,-0.0222676992,0.257813007
296,0.0133865997,-0.0222676992,0.265625
297,0.0133865997,-0.0222676992,0.273436993
298,0.0133865997,-0.0222676992,0.28125
299,0.0133865997,-0.0222676992,0.289061993
300,0.0133865997,-0.0222676992,0.296875
301,0.0133865997,-0.0222676992,0.304688007
302,0.0133865997,-0.0222676992,0.3125
303,0.0133865997,-0.0222676992,0.320311993
304,0.0133865997,-0.0222676992,0.328125
305,0.0133865997,-0.0222676992,0.335938007
306,0.0133865997,-0.0222676992,0.34375
307,0.0133865997,-0.0222676992,0.351561993
308,0.0133865997,-0.0222676992,0.359375
309,0.0133865997,-0.0222676992,0.367186993
310,0.0133865997,-0.0222676992,0.375
311,0.0133865997,-0.0222676992,0.382813007
312,0.0146377003,-0.00175507006,-0.34375
313,0.0146377003,-0.00175507006,-0.335938007
314,0.0146377003,-0.00175507006,-0.328125
315,0.0146377003,-0.00175507006,-0.320311993
316,0.0146377003,-0.00175507006,-0.3125
317,0.0146377003,-0.00175507006,-0.304688007
318,0.0146377003,-0.00175507006,-0.296875
319,0.0146377003,-0.00175507006,-0.289063007
320,0.0146377003,-0.00175507006,-0.28125
321,0.0146377003,-0.00175507006,-0.273438007
322,0.0146377003,-0.00175507006,-0.265625
323,0.0146377003,-0.00175507006,-0.257811993
324,0.0146377003,-0.00175507006,-0.25
325,0.0146377003,-0.00175507006,-0.242188007
326,0.0146377003,-0.00175507006,-0.234375
327,0.0146377003,-0.00175507006,-0.226563007
328,0.0146377003,-0.00175507006,-0.21875
329,0.0146377003,-0.00175507006,-0.210938007
330,0.0146377003,-0.00175507006,-0.203125
331,0.0146377003,-0.00175507006,-0.195311993
332,0.0146377003,-0.00175507006,-0.1875
333,0.0146377003,-0.00175507006,-0.179688007
334,0.0146377003,-0.00175507006,-0.171875
335,0.0146377003,-0.00175507006,-0.164063007
336,0.0146377003,-0.00175507006,-0.15625
337,0.0146377003,-0.00175507006,-0.148438007
338,0.0146377003,-0.00175507006,-0.140625
339,0.0146377003,-0.00175507006,-0.132811993
340,0.0146377003,-0.00175507006,-0.125
341,0.0146377003,-0.00175507006,-0.117187001
342,0.0146377003,-0.00175507006,-0.109375
343,0.0146377003,-0.00175507006,-0.101562001
344,0.0146377003,-0.00175507006,-0.09375
345,0.0146377003,-0.00175507006,-0.0859375
346,0.0146377003,-0.00175507006,-0.078125
347,0.0146377003,-0.00175507006,-0.0703125
348,0.0146377003,-0.00175507006,-0.0625
349,0.0146377003,-0.00175507006,-0.0546875
350,0.0146377003,-0.00175507006,-0.046875
351,0.0146377003,-0.00175507006,-0.0390625
352,0.0146377003,-0.00175507006,-0.03125
353,0.0146377003,-0.00175507006,-0.0234375
354,0.0146377003,-0.00175507006,-0.015625
355,0.0146377003,-0.00175507006,-0.0078125
356,0.0146377003,-0.00175507006,0
357,0.0146377003,-0.00175507006,0.0078125
358,0.0146377003,-0.00175507006,0.015625
359,0.0146377003,-0.00175507006,0.0234375
360,0.0146377003,-0.00175507006,0.03125
361,0.0146377003,-0.00175507006,0.0390625
362,0.0146377003,-0.00175507006,0.046875
363,0.0146377003,-0.00175507006,0.0546875
364,0.0146377003,-0.00175507006,0.0625
365,0.0146377003,-0.00175507006,0.0703125
366,0.0146377003,-0.00175507006,0.078125
367,0.0146377003,-0.00175507006,0.0859375
368,0.0146377003,-0.00175507006,0.09375
369,0.0146377003,-0.00175507006,0.101562001
370,0.0146377003,-0.00175507006,0.109375
371,0.0146377003,-0.00175507006,0.117187001
372,0.0146377003,-0.00175507006,0.125
373,0.0146377003,-0.00175507006,0.132813007
374,0.0146377003,-0.00175507006,0.140625
375,0.0146377003,-0.00175507006,0.148436993
376,0.0146377003,-0.00175507006,0.15625
377,0.0146377003,-0.00175507006,0.164061993
378,0.0146377003,-0.00175507006,0.171875
379,0.0146377003,-0.00175507006,0.179686993
380,0.0146377003,-0.00175507006,0.1875
381,0.0146377003,-0.00175507006,0.195311993
382,0.0146377003,-0.00175507006,0.203125
383,0.0146377003,-0.00175507006,0.210936993
384,0.0146377003,-0.00175507006,0.21875
385,0.0146377003,-0.00175507006,0.226561993
386,0.0146377003,-0.00175507006,0.234375
387,0.0146377003,-0.00175507006,0.242188007
388,0.0146377003,-0.00175507006,0.25
389,0.0146377003,-0.00175507006,0.257813007
390,0.0146377003,-0.00175507006,0.265625
391,0.0146377003,-0.00175507006,0.273436993
392,0.0146377003,-0.00175507006,0.28125
393,0.0146377003,-0.00175507006,0.289061993
394,0.0146377003,-0.00175507006,0.296875
395,0.0146377003,-0.00175507006,0.304688007
396,0.0146377003,-0.00175507006,0.3125
397,0.0146377003,-0.00175507006,0.320313007
398,0.0146377003,-0.00175507006,0.328125
399,0.0146377003,-0.00175507006,0.335936993
400,0.0146377003,-0.00175507006,0.34375
401,0.0147748003,-0.00198134012,-0.390341014
402,0.0147748003,-0.00198134012,0.390341014
403,0.0148580996,-0.00217042002,-0.382806987
404,0.0148580996,-0.00217042002,0.382806987
405,0.0148862004,-0.00174529001,-0.396055013
406,0.0148862004,-0.00174529001,0.396055013
407,0.0149582,-0.00235902006,-0.375001013
408,0.0149582,-0.00235902006,0.375001013
409,0.0150584001,-0.00254761009,-0.367193997
410,0.0150584001,-0.00254761009,0.367193997
411,0.0151584996,-0.00273620989,-0.35938701
412,0.0151584996,-0.00273620989,0.35938701
413,0.0152586,-0.00292480993,-0.351581007
414,0.0152586,-0.00292480993,0.351581007
415,0.0230761003,0.00219032005,-0.396398008
416,0.0230761003,0.00219032005,0.396398008
417,0.0240912009,0.0027514901,-0.289061993
418,0.0240912009,0.0027514901,-0.28125
419,0.0240912009,0.0027514901,-0.273438007
420,0.0240912009,0.0027514901,-0.265625
421,0.0240912009,0.0027514901,-0.257811993
422,0.0240912009,0.0027514901,-0.25
423,0.0240912009,0.0027514901,-0.242188007
424,0.0240912009,0.0027514901,-0.234375
425,0.0240912009,0.0027514901,-0.226563007
426,0.0240912009,0.0027514901,-0.21875
427,0.0240912009,0.0027514901,-0.210938007
428,0.0240912009,0.0027514901,-0.203125
429,0.0240912009,0.0027514901,-0.195311993
430,0.0240912009,0.0027514901,-0.1875
431,0.0240912009,0.0027514901,-0.179688007
432,0.0240912009,0.0027514901,-0.171875
433,0.0240912009,0.0027514901,-0.164061993
434,0.0240912009,0.0027514901,-0.15625
435,0.0240912009,0.0027514901,-0.148438007
436,0.0240912009,0.0027514901,-0.140625
437,0.0240912009,0.0027514901,-0.132813007
438,0.0240912009,0.0027514901,-0.125
439,0.0240912009,0.0027514901,-0.117187001
440,0.0240912009,0.0027514901,-0.109375
441,0.0240912009,0.0027514901,-0.101562999
442,0.0240912009,0.0027514901,-0.09375
443,0.0240912009,0.0027514901,-0.0859375
444,0.0240912009,0.0027514901,-0.078125
445,0.0240912009,0.0027514901,-0.0703125
446,0.0240912009,0.0027514901,-0.0625
447,0.0240912009,0.0027514901,-0.0546875
448,0.0240912009,0.0027514901,-0.046875
449,0.0240912009,0.0027514901,-0.0390625
450,0.0240912009,0.0027514901,-0.03125
451,0.0240912009,0.0027514901,-0.0234375
452,0.0240912009,0.0027514901,-0.015625
453,0.0240912009,0.0027514901,-0.0078125
454,0.0240912009,0.0027514901,0
455,0.0240912009,0.0027514901,0.0078125
456,0.0240912009,0.0027514901,0.015625
457,0.0240912009,0.0027514901,0.0234375
458,0.0240912009,0.0027514901,0.03125
459,0.0240912009,0.0027514901,0.0390625
460,0.0240912009,0.0027514901,0.046875
461,0.0240912009,0.0027514901,0.0546875
462,0.0240912009,0.0027514901,0.0625
463,0.0240912009,0.0027514901,0.0703125
464,0.0240912009,0.0027514901,0.078125
465,0.0240912009,0.0027514901,0.0859375
466,0.0240912009,0.0027514901,0.09375
467,0.0240912009,0.0027514901,0.101562001
468,0.0240912009,0.0027514901,0.109375
469,0.0240912009,0.0027514901,0.117187999
470,0.0240912009,0.0027514901,0.125
471,0.0240912009,0.0027514901,0.132813007
472,0.0240912009,0.0027514901,0.140625
473,0.0240912009,0.0027514901,0.148436993
474,0.0240912009,0.0027514901,0.15625
475,0.0240912009,0.0027514901,0.164063007
476,0.0240912009,0.0027514901,0.171875
477,0.0240912009,0.0027514901,0.179686993
478,0.0240912009,0.0027514901,0.1875
479,0.0240912009,0.0027514901,0.195313007
480,0.0240912009,0.0027514901,0.203125
481,0.0240912009,0.0027514901,0.210936993
482,0.0240912009,0.0027514901,0.21875
483,0.0240912009,0.0027514901,0.226563007
484,0.0240912009,0.0027514901,0.234375
485,0.0240912009,0.0027514901,0.242188007
486,0.0240912009,0.0027514901,0.25
487,0.0240912009,0.0027514901,0.257811993
488,0.0240912009,0.0027514901,0.265625
489,0.0240912009,0.0027514901,0.273436993
490,0.0240912009,0.0027514901,0.28125
491,0.0240912009,0.0027514901,0.289061993
492,0.0242352001,0.00246125995,-0.39031899
493,0.0242352001,0.00246125995,0.39031899
494,0.0243151002,0.00222123996,-0.382770002
495,0.0243151002,0.00222123996,0.382770002
496,0.0244165007,0.00198108004,-0.374967009
497,0.0244165007,0.00198108004,0.374967009
498,0.0245178994,0.00174092001,-0.367163002
499,0.0245178994,0.00174092001,0.367163002
500,0.0246192999,0.00150075997,-0.359358996
501,0.0246192999,0.00150075997,0.359358996
502,0.0247207992,0.00126059004,-0.35155499
503,0.0247207992,0.00126059004,0.35155499
504,0.0247661006,-0.0106487004,-0.398330986
505,0.0247823,-0.0107030002,0.398330986
506,0.0248221997,0.00102043,-0.343751013
507,0.0248221997,0.00102043,0.343751013
508,0.0249236003,0.00078026799,-0.33594799
509,0.0249236003,0.00078026799,0.33594799
510,0.0249760002,-0.0231145993,-0.396533996
511,0.0249760002,-0.0231145993,0.396533996
512,0.0250250008,0.000540105975,-0.328144014
513,0.0250250008,0.000540105975,0.328144014
514,0.0250432994,-0.0232173,-0.390372992
515,0.0250432994,-0.0232173,0.390372992
516,0.0250528995,-0.0232174993,-0.382811993
517,0.0250528995,-0.0232174993,-0.375
518,0.0250528995,-0.0232174993,-0.367188007
519,0.0250528995,-0.0232174993,-0.359375
520,0.0250528995,-0.0232174993,-0.351561993
521,0.0250528995,-0.0232174993,-0.34375
522,0.0250528995,-0.0232174993,-0.335938007
523,0.0250528995,-0.0232174993,-0.328125
524,0.0250528995,-0.0232174993,-0.320311993
525,0.0250528995,-0.0232174993,-0.3125
526,0.0250528995,-0.0232174993,-0.304688007
527,0.0250528995,-0.0232174993,-0.296875
528,0.0250528995,-0.0232174993,-0.289063007
529,0.0250528995,-0.0232174993,-0.28125
530,0.0250528995,-0.0232174993,-0.273438007
531,0.0250528995,-0.0232174993,-0.265625
532,0.0250528995,-0.0232174993,-0.257811993
533,0.0250528995,-0.0232174993,-0.25
534,0.0250528995,-0.0232174993,-0.242186993
535,0.0250528995,-0.0232174993,-0.234375
536,0.0250528995,-0.0232174993,-0.226561993
537,0.0250528995,-0.0232174993,-0.21875
538,0.0250528995,-0.0232174993,-0.210936993
539,0.0250528995,-0.0232174993,-0.203125
540,0.0250528995,-0.0232174993,-0.195311993
541,0.0250528995,-0.0232174993,-0.1875
542,0.0250528995,-0.0232174993,-0.179686993
543,0.0250528995,-0.0232174993,-0.171875
544,0.0250528995,-0.0232174993,-0.164063007
545,0.0250528995,-0.0232174993,-0.15625
546,0.0250528995,-0.0232174993,-0.148438007
547,0.0250528995,-0.0232174993,-0.140625
548,0.0250528995,-0.0232174993,-0.132811993
549,0.0250528995,-0.0232174993,-0.125
550,0.0250528995,-0.0232174993,-0.117187001
551,0.0250528995,-0.0232174993,-0.109375
552,0.0250528995,-0.0232174993,-0.101562001
553,0.0250528995,-0.0232174993,-0.09375
554,0.0250528995,-0.0232174993,-0.0859375
555,0.0250528995,-0.0232174993,-0.078125
556,0.0250528995,-0.0232174993,-0.0703125
557,0.0250528995,-0.0232174993,-0.0625
558,0.0250528995,-0.0232174993,-0.0546875
559,0.0250528995,-0.0232174993,-0.046875
560,0.0250528995,-0.0232174993,-0.0390625
561,0.0250528995,-0.0232174993,-0.03125
562,0.0250528995,-0.0232174993,-0.0234375
563,0.0250528995,-0.0232174993,-0.015625
564,0.0250528995,-0.0232174993,-0.0078125
565,0.0250528995,-0.0232174993,1e-12
566,0.0250528995,-0.0232174993,0.0078125
567,0.0250528995,-0.0232174993,0.015625
568,0.0250528995,-0.0232174993,0.0234375
569,0.0250528995,-0.0232174993,0.03125
570,0.0250528995,-0.0232174993,0.0390625
571,0.0250528995,-0.0232174993,0.046875
572,0.0250528995,-0.0232174993,0.0546875
573,0.0250528995,-0.0232174993,0.0625
574,0.0250528995,-0.0232174993,0.0703125
575,0.0250528995,-0.0232174993,0.078125
576,0.0250528995,-0.0232174993,0.0859375
577,0.0250528995,-0.0232174993,0.09375
578,0.0250528995,-0.0232174993,0.101562999
579,0.0250528995,-0.0232174993,0.109375
580,0.0250528995,-0.0232174993,0.117187999
581,0.0250528995,-0.0232174993,0.125
582,0.0250528995,-0.0232174993,0.132811993
583,0.0250528995,-0.0232174993,0.140625
584,0.0250528995,-0.0232174993,0.148438007
585,0.0250528995,-0.0232174993,0.15625
586,0.0250528995,-0.0232174993,0.164061993
587,0.0250528995,-0.0232174993,0.171875
588,0.0250528995,-0.0232174993,0.179686993
589,0.0250528995,-0.0232174993,0.1875
590,0.0250528995,-0.0232174993,0.195311993
591,0.0250528995,-0.0232174993,0.203125
592,0.0250528995,-0.0232174993,0.210936993
593,0.0250528995,-0.0232174993,0.21875
594,0.0250528995,-0.0232174993,0.226563007
595,0.0250528995,-0.0232174993,0.234375
596,0.0250528995,-0.0232174993,0.242188007
597,0.0250528995,-0.0232174993,0.25
598,0.0250528995,-0.0232174993,0.257813007
599,0.0250528995,-0.0232174993,0.265625
600,0.0250528995,-0.0232174993,0.273436993
601,0.0250528995,-0.0232174993,0.28125
602,0.0250528995,-0.0232174993,0.289061993
603,0.0250528995,-0.0232174993,0.296875
604,0.0250528995,-0.0232174993,0.304688007
605,0.0250528995,-0.0232174993,0.3125
606,0.0250528995,-0.0232174993,0.320313007
607,0.0250528995,-0.0232174993,0.328125
608,0.0250528995,-0.0232174993,0.335936993
609,0.0250528995,-0.0232174993,0.34375
610,0.0250528995,-0.0232174993,0.351561993
611,0.0250528995,-0.0232174993,0.359375
612,0.0250528995,-0.0232174993,0.367186993
613,0.0250528995,-0.0232174993,0.375
614,0.0250528995,-0.0232174993,0.382813007
615,0.0251263995,0.000299943,-0.320340008
616,0.0251263995,0.000299943,0.320340008
617,0.0252278,5.9780901e-05,-0.312536001
618,0.0252278,5.9780901e-05,0.312536001
619,0.0253292006,-0.000180381001,-0.304731995
620,0.0253292006,-0.000180381001,0.304731995
621,0.0254305992,-0.000420544005,-0.296929002
622,0.0254305992,-0.000420544005,0.296929002
623,0.0349235013,0.00681817019,-0.396678001
624,0.0349235013,0.00681817019,0.396678001
625,0.036651399,-0.0081066601,-0.398575991
626,0.0366797,-0.00818984955,0.398575991
627,0.0373030007,-0.0229192991,-0.382811993
628,0.0373030007,-0.0229192991,-0.375
629,0.0373030007,-0.0229192991,-0.367188007
630,0.0373030007,-0.0229192991,-0.359375
631,0.0373030007,-0.0229192991,-0.351561993
632,0.0373030007,-0.0229192991,-0.34375
633,0.0373030007,-0.0229192991,-0.335938007
634,0.0373030007,-0.0229192991,-0.328125
635,0.0373030007,-0.0229192991,-0.320311993
636,0.0373030007,-0.0229192991,-0.3125
637,0.0373030007,-0.0229192991,-0.304688007
638,0.0373030007,-0.0229192991,-0.296875
639,0.0373030007,-0.0229192991,-0.289063007
640,0.0373030007,-0.0229192991,-0.28125
641,0.0373030007,-0.0229192991,-0.273438007
642,0.0373030007,-0.0229192991,-0.265625
643,0.0373030007,-0.0229192991,-0.257811993
644,0.0373030007,-0.0229192991,-0.25
645,0.0373030007,-0.0229192991,-0.242188007
646,0.0373030007,-0.0229192991,-0.234375
647,0.0373030007,-0.0229192991,-0.226561993
648,0.0373030007,-0.0229192991,-0.21875
649,0.0373030007,-0.0229192991,-0.210936993
650,0.0373030007,-0.0229192991,-0.203125
651,0.0373030007,-0.0229192991,-0.195311993
652,0.0373030007,-0.0229192991,-0.1875
653,0.0373030007,-0.0229192991,-0.179688007
654,0.0373030007,-0.0229192991,-0.171875
655,0.0373030007,-0.0229192991,-0.164061993
656,0.0373030007,-0.0229192991,-0.15625
657,0.0373030007,-0.0229192991,-0.148438007
658,0.0373030007,-0.0229192991,-0.140625
659,0.0373030007,-0.0229192991,-0.132811993
660,0.0373030007,-0.0229192991,-0.125
661,0.0373030007,-0.0229192991,-0.117187001
662,0.0373030007,-0.0229192991,-0.109375
663,0.0373030007,-0.0229192991,-0.101562001
664,0.0373030007,-0.0229192991,-0.09375
665,0.0373030007,-0.0229192991,-0.0859375
666,0.0373030007,-0.0229192991,-0.078125
667,0.0373030007,-0.0229192991,-0.0703125
668,0.0373030007,-0.0229192991,-0.0625
669,0.0373030007,-0.0229192991,-0.0546875
670,0.0373030007,-0.0229192991,-0.046875
671,0.0373030007,-0.0229192991,-0.0390625
672,0.0373030007,-0.0229192991,-0.03125
673,0.0373030007,-0.0229192991,-0.0234375
674,0.0373030007,-0.0229192991,-0.015625
675,0.0373030007,-0.0229192991,-0.0078125
676,0.0373030007,-0.0229192991,0
677,0.0373030007,-0.0229192991,0.0078125
678,0.0373030007,-0.0229192991,0.015625
679,0.0373030007,-0.0229192991,0.0234375
680,0.0373030007,-0.0229192991,0.03125
681,0.0373030007,-0.0229192991,0.0390625
682,0.0373030007,-0.0229192991,0.046875
683,0.0373030007,-0.0229192991,0.0546875
684,0.0373030007,-0.0229192991,0.0625
685,0.0373030007,-0.0229192991,0.0703125
686,0.0373030007,-0.0229192991,0.078125
687,0.0373030007,-0.0229192991,0.0859375
688,0.0373030007,-0.0229192991,0.09375
689,0.0373030007,-0.0229192991,0.101562001
690,0.0373030007,-0.0229192991,0.109375
691,0.0373030007,-0.0229192991,0.117187001
692,0.0373030007,-0.0229192991,0.125
693,0.0373030007,-0.0229192991,0.132813007
694,0.0373030007,-0.0229192991,0.140625
695,0.0373030007,-0.0229192991,0.148438007
696,0.0373030007,-0.0229192991,0.15625
697,0.0373030007,-0.0229192991,0.164061993
698,0.0373030007,-0.0229192991,0.171875
699,0.0373030007,-0.0229192991,0.179688007
700,0.0373030007,-0.0229192991,0.1875
701,0.0373030007,-0.0229192991,0.195311993
702,0.0373030007,-0.0229192991,0.203125
703,0.0373030007,-0.0229192991,0.210936993
704,0.0373030007,-0.0229192991,0.21875
705,0.0373030007,-0.0229192991,0.226563007
706,0.0373030007,-0.0229192991,0.234375
707,0.0373030007,-0.0229192991,0.242186993
708,0.0373030007,-0.0229192991,0.25
709,0.0373030007,-0.0229192991,0.257811993
710,0.0373030007,-0.0229192991,0.265625
711,0.0373030007,-0.0229192991,0.273436993
712,0.0373030007,-0.0229192991,0.28125
713,0.0373030007,-0.0229192991,0.289061993
714,0.0373030007,-0.0229192991,0.296875
715,0.0373030007,-0.0229192991,0.304686993
716,0.0373030007,-0.0229192991,0.3125
717,0.0373030007,-0.0229192991,0.320311993
718,0.0373030007,-0.0229192991,0.328125
719,0.0373030007,-0.0229192991,0.335936993
720,0.0373030007,-0.0229192991,0.34375
721,0.0373030007,-0.0229192991,0.351561993
722,0.0373030007,-0.0229192991,0.359375
723,0.0373030007,-0.0229192991,0.367188007
724,0.0373030007,-0.0229192991,0.375
725,0.0373030007,-0.0229192991,0.382811993
726,0.0373351984,-0.0229173005,-0.390372992
727,0.0373351984,-0.0229173005,0.390372992
728,0.037542101,-0.0227828007,-0.396602005
729,0.037542101,-0.0227828007,0.396602005
730,0.0403843001,0.00881578959,-0.382813007
731,0.0403843001,0.00881578959,-0.375
732,0.0403843001,0.00881578959,-0.367188007
733,0.0403843001,0.00881578959,-0.359375
734,0.0403843001,0.00881578959,-0.351561993
735,0.0403843001,0.00881578959,-0.34375
736,0.0403843001,0.00881578959,-0.335938007
737,0.0403843001,0.00881578959,-0.328125
738,0.0403843001,0.00881578959,-0.320311993
739,0.0403843001,0.00881578959,-0.3125
740,0.0403843001,0.00881578959,-0.304688007
741,0.0403843001,0.00881578959,-0.296875
742,0.0403843001,0.00881578959,-0.289063007
743,0.0403843001,0.00881578959,-0.28125
744,0.0403843001,0.00881578959,-0.273438007
745,0.0403843001,0.00881578959,-0.265625
746,0.0403843001,0.00881578959,-0.257813007
747,0.0403843001,0.00881578959,-0.25
748,0.0403843001,0.00881578959,-0.242188007
749,0.0403843001,0.00881578959,-0.234375
750,0.0403843001,0.00881578959,-0.226563007
751,0.0403843001,0.00881578959,-0.21875
752,0.0403843001,0.00881578959,-0.210938007
753,0.0403843001,0.00881578959,-0.203125
754,0.0403843001,0.00881578959,-0.195311993
755,0.0403843001,0.00881578959,-0.1875
756,0.0403843001,0.00881578959,-0.179688007
757,0.0403843001,0.00881578959,-0.171875
758,0.0403843001,0.00881578959,-0.164063007
759,0.0403843001,0.00881578959,-0.15625
760,0.0403843001,0.00881578959,-0.148436993
761,0.0403843001,0.00881578959,-0.140625
762,0.0403843001,0.00881578959,-0.132813007
763,0.0403843001,0.00881578959,-0.125
764,0.0403843001,0.00881578959,-0.117187001
765,0.0403843001,0.00881578959,-0.109375
766,0.0403843001,0.00881578959,-0.101562999
767,0.0403843001,0.00881578959,-0.09375
768,0.0403843001,0.00881578959,-0.0859375
769,0.0403843001,0.00881578959,-0.078125
770,0.0403843001,0.00881578959,-0.0703125
771,0.0403843001,0.00881578959,-0.0625
772,0.0403843001,0.00881578959,-0.0546875
773,0.0403843001,0.00881578959,-0.046875
774,0.0403843001,0.00881578959,-0.0390625
775,0.0403843001,0.00881578959,-0.03125
776,0.0403843001,0.00881578959,-0.0234375
777,0.0403843001,0.00881578959,-0.015625
778,0.0403843001,0.00881578959,-0.0078125
779,0.0403843001,0.00881578959,0
780,0.0403843001,0.00881578959,0.0078125
781,0.0403843001,0.00881578959,0.015625
782,0.0403843001,0.00881578959,0.0234375
783,0.0403843001,0.00881578959,0.03125
784,0.0403843001,0.00881578959,0.0390625
785,0.0403843001,0.00881578959,0.046875
786,0.0403843001,0.00881578959,0.0546875
787,0.0403843001,0.00881578959,0.0625
788,0.0403843001,0.00881578959,0.0703125
789,0.0403843001,0.00881578959,0.078125
790,0.0403843001,0.00881578959,0.0859375
791,0.0403843001,0.00881578959,0.09375
792,0.0403843001,0.00881578959,0.101562001
793,0.0403843001,0.00881578959,0.109375
794,0.0403843001,0.00881578959,0.117187001
795,0.0403843001,0.00881578959,0.125
796,0.0403843001,0.00881578959,0.132811993
797,0.0403843001,0.00881578959,0.140625
798,0.0403843001,0.00881578959,0.148436993
799,0.0403843001,0.00881578959,0.15625
800,0.0403843001,0.00881578959,0.164063007
801,0.0403843001,0.00881578959,0.171875
802,0.0403843001,0.00881578959,0.179686993
803,0.0403843001,0.00881578959,0.1875
804,0.0403843001,0.00881578959,0.195313007
805,0.0403843001,0.00881578959,0.203125
806,0.0403843001,0.00881578959,0.210936993
807,0.0403843001,0.00881578959,0.21875
808,0.0403843001,0.00881578959,0.226561993
809,0.0403843001,0.00881578959,0.234375
810,0.0403843001,0.00881578959,0.242188007
811,0.0403843001,0.00881578959,0.25
812,0.0403843001,0.00881578959,0.257813007
813,0.0403843001,0.00881578959,0.265625
814,0.0403843001,0.00881578959,0.273438007
815,0.0403843001,0.00881578959,0.28125
816,0.0403843001,0.00881578959,0.289063007
817,0.0403843001,0.00881578959,0.296875
818,0.0403843001,0.00881578959,0.304688007
819,0.0403843001,0.00881578959,0.3125
820,0.0403843001,0.00881578959,0.320311993
821,0.0403843001,0.00881578959,0.328125
822,0.0403843001,0.00881578959,0.335938007
823,0.0403843001,0.00881578959,0.34375
824,0.0403843001,0.00881578959,0.351563007
825,0.0403843001,0.00881578959,0.359375
826,0.0403843001,0.00881578959,0.367186993
827,0.0403843001,0.00881578959,0.375
828,0.0403843001,0.00881578959,0.382813007
829,0.0404600017,0.00884046964,-0.390363008
830,0.0404600017,0.00884046964,0.390363008
831,0.0408960991,0.00881990977,-0.396117002
832,0.0408960991,0.00881990977,0.396117002
833,0.0485934988,-0.00555247022,-0.39873001
834,0.0486344993,-0.00566458982,0.39873001
835,0.0495222993,-0.0218624007,-0.382811993
836,0.0495222993,-0.0218624007,-0.375
837,0.0495222993,-0.0218624007,-0.367188007
838,0.0495222993,-0.0218624007,-0.359375
839,0.0495222993,-0.0218624007,-0.351561993
840,0.0495222993,-0.0218624007,-0.34375
841,0.0495222993,-0.0218624007,-0.335938007
842,0.0495222993,-0.0218624007,-0.328125
843,0.0495222993,-0.0218624007,-0.320311993
844,0.0495222993,-0.0218624007,-0.3125
845,0.0495222993,-0.0218624007,-0.304688007
846,0.0495222993,-0.0218624007,-0.296875
847,0.0495222993,-0.0218624007,-0.289063007
848,0.0495222993,-0.0218624007,-0.28125
849,0.0495222993,-0.0218624007,-0.273438007
850,0.0495222993,-0.0218624007,-0.265625
851,0.0495222993,-0.0218624007,-0.257811993
852,0.0495222993,-0.0218624007,-0.25
853,0.0495222993,-0.0218624007,-0.242188007
854,0.0495222993,-0.0218624007,-0.234375
855,0.0495222993,-0.0218624007,-0.226561993
856,0.0495222993,-0.0218624007,-0.21875
857,0.0495222993,-0.0218624007,-0.210938007
858,0.0495222993,-0.0218624007,-0.203125
859,0.0495222993,-0.0218624007,-0.195311993
860,0.0495222993,-0.0218624007,-0.1875
861,0.0495222993,-0.0218624007,-0.179686993
862,0.0495222993,-0.0218624007,-0.171875
863,0.0495222993,-0.0218624007,-0.164061993
864,0.0495222993,-0.0218624007,-0.15625
865,0.0495222993,-0.0218624007,-0.148438007
866,0.0495222993,-0.0218624007,-0.140625
867,0.0495222993,-0.0218624007,-0.132813007
868,0.0495222993,-0.0218624007,-0.125
869,0.0495222993,-0.0218624007,-0.117187001
870,0.0495222993,-0.0218624007,-0.109375
871,0.0495222993,-0.0218624007,-0.101562999
872,0.0495222993,-0.0218624007,-0.09375
873,0.0495222993,-0.0218624007,-0.0859375
874,0.0495222993,-0.0218624007,-0.078125
875,0.0495222993,-0.0218624007,-0.0703125
876,0.0495222993,-0.0218624007,-0.0625
877,0.0495222993,-0.0218624007,-0.0546875
878,0.0495222993,-0.0218624007,-0.046875
879,0.0495222993,-0.0218624007,-0.0390625
880,0.0495222993,-0.0218624007,-0.03125
881,0.0495222993,-0.0218624007,-0.0234375
882,0.0495222993,-0.0218624007,-0.015625
883,0.0495222993,-0.0218624007,-0.0078125
884,0.0495222993,-0.0218624007,0
885,0.0495222993,-0.0218624007,0.0078125
886,0.0495222993,-0.0218624007,0.015625
887,0.0495222993,-0.0218624007,0.0234375
888,0.0495222993,-0.0218624007,0.03125
889,0.0495222993,-0.0218624007,0.0390625
890,0.0495222993,-0.0218624007,0.046875
891,0.0495222993,-0.0218624007,0.0546875
892,0.0495222993,-0.0218624007,0.0625
893,0.0495222993,-0.0218624007,0.0703125
894,0.0495222993,-0.0218624007,0.078125
895,0.0495222993,-0.0218624007,0.0859375
896,0.0495222993,-0.0218624007,0.09375
897,0.0495222993,-0.0218624007,0.101562999
898,0.0495222993,-0.0218624007,0.109375
899,0.0495222993,-0.0218624007,0.117187001
900,0.0495222993,-0.0218624007,0.125
901,0.0495222993,-0.0218624007,0.132811993
902,0.0495222993,-0.0218624007,0.140625
903,0.0495222993,-0.0218624007,0.148438007
904,0.0495222993,-0.0218624007,0.15625
905,0.0495222993,-0.0218624007,0.164063007
906,0.0495222993,-0.0218624007,0.171875
907,0.0495222993,-0.0218624007,0.179688007
908,0.0495222993,-0.0218624007,0.1875
909,0.0495222993,-0.0218624007,0.195311993
910,0.0495222993,-0.0218624007,0.203125
911,0.0495222993,-0.0218624007,0.210936993
912,0.0495222993,-0.0218624007,0.21875
913,0.0495222993,-0.0218624007,0.226561993
914,0.0495222993,-0.0218624007,0.234375
915,0.0495222993,-0.0218624007,0.242188007
916,0.0495222993,-0.0218624007,0.25
917,0.0495222993,-0.0218624007,0.257811993
918,0.0495222993,-0.0218624007,0.265625
919,0.0495222993,-0.0218624007,0.273438007
920,0.0495222993,-0.0218624007,0.28125
921,0.0495222993,-0.0218624007,0.289063007
922,0.0495222993,-0.0218624007,0.296875
923,0.0495222993,-0.0218624007,0.304688007
924,0.0495222993,-0.0218624007,0.3125
925,0.0495222993,-0.0218624007,0.320313007
926,0.0495222993,-0.0218624007,0.328125
927,0.0495222993,-0.0218624007,0.335938007
928,0.0495222993,-0.0218624007,0.34375
929,0.0495222993,-0.0218624007,0.351561993
930,0.0495222993,-0.0218624007,0.359375
931,0.0495222993,-0.0218624007,0.367188007
932,0.0495222993,-0.0218624007,0.375
933,0.0495222993,-0.0218624007,0.382811993
934,0.0495804995,-0.0218557995,-0.390372992
935,0.0495804995,-0.0218557995,0.390372992
936,0.0497413985,0.0115719,-0.396434993
937,0.0497413985,0.0115719,0.396434993
938,0.0499673001,-0.0218122005,-0.396625996
939,0.0499673001,-0.0218122005,0.396625996
940,0.0506457984,0.0119917998,-0.390347004
941,0.0506457984,0.0119917998,0.390347004
942,0.0507141985,0.0120118,-0.382811993
943,0.0507141985,0.0120118,-0.375
944,0.0507141985,0.0120118,-0.367188007
945,0.0507141985,0.0120118,-0.359375
946,0.0507141985,0.0120118,-0.351561993
947,0.0507141985,0.0120118,-0.34375
948,0.0507141985,0.0120118,-0.335938007
949,0.0507141985,0.0120118,-0.328125
950,0.0507141985,0.0120118,-0.320311993
951,0.0507141985,0.0120118,-0.3125
952,0.0507141985,0.0120118,-0.304688007
953,0.0507141985,0.0120118,-0.296875
954,0.0507141985,0.0120118,-0.289061993
955,0.0507141985,0.0120118,-0.28125
956,0.0507141985,0.0120118,-0.273438007
957,0.0507141985,0.0120118,-0.265625
958,0.0507141985,0.0120118,-0.257811993
959,0.0507141985,0.0120118,-0.25
960,0.0507141985,0.0120118,-0.242188007
961,0.0507141985,0.0120118,-0.234375
962,0.0507141985,0.0120118,-0.226561993
963,0.0507141985,0.0120118,-0.21875
964,0.0507141985,0.0120118,-0.210938007
965,0.0507141985,0.0120118,-0.203125
966,0.0507141985,0.0120118,-0.195311993
967,0.0507141985,0.0120118,-0.1875
968,0.0507141985,0.0120118,-0.179688007
969,0.0507141985,0.0120118,-0.171875
970,0.0507141985,0.0120118,-0.164063007
971,0.0507141985,0.0120118,-0.15625
972,0.0507141985,0.0120118,-0.148438007
973,0.0507141985,0.0120118,-0.140625
974,0.0507141985,0.0120118,-0.132813007
975,0.0507141985,0.0120118,-0.125
976,0.0507141985,0.0120118,-0.117187999
977,0.0507141985,0.0120118,-0.109375
978,0.0507141985,0.0120118,-0.101562999
979,0.0507141985,0.0120118,-0.09375
980,0.0507141985,0.0120118,-0.0859375
981,0.0507141985,0.0120118,-0.078125
982,0.0507141985,0.0120118,-0.0703125
983,0.0507141985,0.0120118,-0.0625
984,0.0507141985,0.0120118,-0.0546875
985,0.0507141985,0.0120118,-0.046875
986,0.0507141985,0.0120118,-0.0390625
987,0.0507141985,0.0120118,-0.03125
988,0.0507141985,0.0120118,-0.0234375
989,0.0507141985,0.0120118,-0.015625
990,0.0507141985,0.0120118,-0.0078125
991,0.0507141985,0.0120118,0
992,0.0507141985,0.0120118,0.0078125
993,0.0507141985,0.0120118,0.015625
994,0.0507141985,0.0120118,0.0234375
995,0.0507141985,0.0120118,0.03125
996,0.0507141985,0.0120118,0.0390625
997,0.0507141985,0.0120118,0.046875
998,0.0507141985,0.0120118,0.0546875
999,0.0507141985,0.0120118,0.0625
1000,0.0507141985,0.0120118,0.0703125
1001,0.0507141985,0.0120118,0.078125
1002,0.0507141985,0.0120118,0.0859375
1003,0.0507141985,0.0120118,0.09375
1004,0.0507141985,0.0120118,0.101562999
1005,0.0507141985,0.0120118,0.109375
1006,0.0507141985,0.0120118,0.117187999
1007,0.0507141985,0.0120118,0.125
1008,0.0507141985,0.0120118,0.132811993
1009,0.0507141985,0.0120118,0.140625
1010,0.0507141985,0.0120118,0.148436993
1011,0.0507141985,0.0120118,0.15625
1012,0.0507141985,0.0120118,0.164063007
1013,0.0507141985,0.0120118,0.171875
1014,0.0507141985,0.0120118,0.179686993
1015,0.0507141985,0.0120118,0.1875
1016,0.0507141985,0.0120118,0.195313007
1017,0.0507141985,0.0120118,0.203125
1018,0.0507141985,0.0120118,0.210936993
1019,0.0507141985,0.0120118,0.21875
1020,0.0507141985,0.0120118,0.226561993
1021,0.0507141985,0.0120118,0.234375
1022,0.0507141985,0.0120118,0.242188007
1023,0.0507141985,0.0120118,0.25
1024,0.0507141985,0.0120118,0.257811993
1025,0.0507141985,0.0120118,0.265625
1026,0.0507141985,0.0120118,0.273436993
1027,0.0507141985,0.0120118,0.28125
1028,0.0507141985,0.0120118,0.289061993
1029,0.0507141985,0.0120118,0.296875
1030,0.0507141985,0.0120118,0.304686993
1031,0.0507141985,0.0120118,0.3125
1032,0.0507141985,0.0120118,0.320313007
1033,0.0507141985,0.0120118,0.328125
1034,0.0507141985,0.0120118,0.335938007
1035,0.0507141985,0.0120118,0.34375
1036,0.0507141985,0.0120118,0.351563007
1037,0.0507141985,0.0120118,0.359375
1038,0.0507141985,0.0120118,0.367186993
1039,0.0507141985,0.0120118,0.375
1040,0.0507141985,0.0120118,0.382813007
1041,0.0510922,-0.00501804007,-0.398644
1042,0.0511065014,-0.00514242007,0.398644
1043,0.0611352995,0.0147310998,-0.39645201
1044,0.0611352995,0.0147310998,0.39645201
1045,0.0613465011,-0.0203380007,-0.382811993
1046,0.0613465011,-0.0203380007,-0.375
1047,0.0613465011,-0.0203380007,-0.367186993
1048,0.0613465011,-0.0203380007,-0.359375
1049,0.0613465011,-0.0203380007,-0.351563007
1050,0.0613465011,-0.0203380007,-0.34375
1051,0.0613465011,-0.0203380007,-0.335938007
1052,0.0613465011,-0.0203380007,-0.328125
1053,0.0613465011,-0.0203380007,-0.320311993
1054,0.0613465011,-0.0203380007,-0.3125
1055,0.0613465011,-0.0203380007,-0.304686993
1056,0.0613465011,-0.0203380007,-0.296875
1057,0.0613465011,-0.0203380007,-0.289063007
1058,0.0613465011,-0.0203380007,-0.28125
1059,0.0613465011,-0.0203380007,-0.273436993
1060,0.0613465011,-0.0203380007,-0.265625
1061,0.0613465011,-0.0203380007,-0.257813007
1062,0.0613465011,-0.0203380007,-0.25
1063,0.0613465011,-0.0203380007,-0.242188007
1064,0.0613465011,-0.0203380007,-0.234375
1065,0.0613465011,-0.0203380007,-0.226561993
1066,0.0613465011,-0.0203380007,-0.21875
1067,0.0613465011,-0.0203380007,-0.210936993
1068,0.0613465011,-0.0203380007,-0.203125
1069,0.0613465011,-0.0203380007,-0.195313007
1070,0.0613465011,-0.0203380007,-0.1875
1071,0.0613465011,-0.0203380007,-0.179686993
1072,0.0613465011,-0.0203380007,-0.171875
1073,0.0613465011,-0.0203380007,-0.164061993
1074,0.0613465011,-0.0203380007,-0.15625
1075,0.0613465011,-0.0203380007,-0.148436993
1076,0.0613465011,-0.0203380007,-0.140625
1077,0.0613465011,-0.0203380007,-0.132813007
1078,0.0613465011,-0.0203380007,-0.125
1079,0.0613465011,-0.0203380007,-0.117187999
1080,0.0613465011,-0.0203380007,-0.109375
1081,0.0613465011,-0.0203380007,-0.101562999
1082,0.0613465011,-0.0203380007,-0.09375
1083,0.0613465011,-0.0203380007,-0.0859375
1084,0.0613465011,-0.0203380007,-0.078125
1085,0.0613465011,-0.0203380007,-0.0703125
1086,0.0613465011,-0.0203380007,-0.0625
1087,0.0613465011,-0.0203380007,-0.0546875
1088,0.0613465011,-0.0203380007,-0.046875
1089,0.0613465011,-0.0203380007,-0.0390625
1090,0.0613465011,-0.0203380007,-0.03125
1091,0.0613465011,-0.0203380007,-0.0234375
1092,0.0613465011,-0.0203380007,-0.015625
1093,0.0613465011,-0.0203380007,-0.0078125
1094,0.0613465011,-0.0203380007,-0
1095,0.0613465011,-0.0203380007,0.0078125
1096,0.0613465011,-0.0203380007,0.015625
1097,0.0613465011,-0.0203380007,0.0234375
1098,0.0613465011,-0.0203380007,0.03125
1099,0.0613465011,-0.0203380007,0.0390625
1100,0.0613465011,-0.0203380007,0.046875
1101,0.0613465011,-0.0203380007,0.0546875
1102,0.0613465011,-0.0203380007,0.0625
1103,0.0613465011,-0.0203380007,0.0703125
1104,0.0613465011,-0.0203380007,0.078125
1105,0.0613465011,-0.0203380007,0.0859375
1106,0.0613465011,-0.0203380007,0.09375
1107,0.0613465011,-0.0203380007,0.101562001
1108,0.0613465011,-0.0203380007,0.109375
1109,0.0613465011,-0.0203380007,0.117187001
1110,0.0613465011,-0.0203380007,0.125
1111,0.0613465011,-0.0203380007,0.132811993
1112,0.0613465011,-0.0203380007,0.140625
1113,0.0613465011,-0.0203380007,0.148436993
1114,0.0613465011,-0.0203380007,0.15625
1115,0.0613465011,-0.0203380007,0.164061993
1116,0.0613465011,-0.0203380007,0.171875
1117,0.0613465011,-0.0203380007,0.179688007
1118,0.0613465011,-0.0203380007,0.1875
1119,0.0613465011,-0.0203380007,0.195311993
1120,0.0613465011,-0.0203380007,0.203125
1121,0.0613465011,-0.0203380007,0.210938007
1122,0.0613465011,-0.0203380007,0.21875
1123,0.0613465011,-0.0203380007,0.226561993
1124,0.0613465011,-0.0203380007,0.234375
1125,0.0613465011,-0.0203380007,0.242186993
1126,0.0613465011,-0.0203380007,0.25
1127,0.0613465011,-0.0203380007,0.257813007
1128,0.0613465011,-0.0203380007,0.265625
1129,0.0613465011,-0.0203380007,0.273438007
1130,0.0613465011,-0.0203380007,0.28125
1131,0.0613465011,-0.0203380007,0.289061993
1132,0.0613465011,-0.0203380007,0.296875
1133,0.0613465011,-0.0203380007,0.304688007
1134,0.0613465011,-0.0203380007,0.3125
1135,0.0613465011,-0.0203380007,0.320313007
1136,0.0613465011,-0.0203380007,0.328125
1137,0.0613465011,-0.0203380007,0.335938007
1138,0.0613465011,-0.0203380007,0.34375
1139,0.0613465011,-0.0203380007,0.351561993
1140,0.0613465011,-0.0203380007,0.359375
1141,0.0613465011,-0.0203380007,0.367186993
1142,0.0613465011,-0.0203380007,0.375
1143,0.0613465011,-0.0203380007,0.382811993
1144,0.0613587014,-0.0203363001,-0.390347004
1145,0.0613587014,-0.0203363001,0.390347004
1146,0.0616577007,0.0150287002,-0.351561993
1147,0.0616577007,0.0150287002,-0.34375
1148,0.0616577007,0.0150287002,-0.335938007
1149,0.0616577007,0.0150287002,-0.328125
1150,0.0616577007,0.0150287002,-0.320311993
1151,0.0616577007,0.0150287002,-0.3125
1152,0.0616577007,0.0150287002,-0.304688007
1153,0.0616577007,0.0150287002,-0.296875
1154,0.0616577007,0.0150287002,-0.289063007
1155,0.0616577007,0.0150287002,-0.28125
1156,0.0616577007,0.0150287002,-0.273438007
1157,0.0616577007,0.0150287002,-0.265625
1158,0.0616577007,0.0150287002,-0.257811993
1159,0.0616577007,0.0150287002,-0.25
1160,0.0616577007,0.0150287002,-0.242188007
1161,0.0616577007,0.0150287002,-0.234375
1162,0.0616577007,0.0150287002,-0.226561993
1163,0.0616577007,0.0150287002,-0.21875
1164,0.0616577007,0.0150287002,-0.210938007
1165,0.0616577007,0.0150287002,-0.203125
1166,0.0616577007,0.0150287002,-0.195311993
1167,0.0616577007,0.0150287002,-0.1875
1168,0.0616577007,0.0150287002,-0.179688007
1169,0.0616577007,0.0150287002,-0.171875
1170,0.0616577007,0.0150287002,-0.164061993
1171,0.0616577007,0.0150287002,-0.15625
1172,0.0616577007,0.0150287002,-0.148438007
1173,0.0616577007,0.0150287002,-0.140625
1174,0.0616577007,0.0150287002,-0.132813007
1175,0.0616577007,0.0150287002,-0.125
1176,0.0616577007,0.0150287002,-0.117187001
1177,0.0616577007,0.0150287002,-0.109375
1178,0.0616577007,0.0150287002,-0.101562001
1179,0.0616577007,0.0150287002,-0.09375
1180,0.0616577007,0.0150287002,-0.0859375
1181,0.0616577007,0.0150287002,-0.078125
1182,0.0616577007,0.0150287002,-0.0703125
1183,0.0616577007,0.0150287002,-0.0625
1184,0.0616577007,0.0150287002,-0.0546875
1185,0.0616577007,0.0150287002,-0.046875
1186,0.0616577007,0.0150287002,-0.0390625
1187,0.0616577007,0.0150287002,-0.03125
1188,0.0616577007,0.0150287002,-0.0234375
1189,0.0616577007,0.0150287002,-0.015625
1190,0.0616577007,0.0150287002,-0.0078125
1191,0.0616577007,0.0150287002,0
1192,0.0616577007,0.0150287002,0.0078125
1193,0.0616577007,0.0150287002,0.015625
1194,0.0616577007,0.0150287002,0.0234375
1195,0.0616577007,0.0150287002,0.03125
1196,0.0616577007,0.0150287002,0.0390625
1197,0.0616577007,0.0150287002,0.046875
1198,0.0616577007,0.0150287002,0.0546875
1199,0.0616577007,0.0150287002,0.0625
1200,0.0616577007,0.0150287002,0.0703125
1201,0.0616577007,0.0150287002,0.078125
1202,0.0616577007,0.0150287002,0.0859375
1203,0.0616577007,0.0150287002,0.09375
1204,0.0616577007,0.0150287002,0.101562001
1205,0.0616577007,0.0150287002,0.109375
1206,0.0616577007,0.0150287002,0.117187001
1207,0.0616577007,0.0150287002,0.125
1208,0.0616577007,0.0150287002,0.132811993
1209,0.0616577007,0.0150287002,0.140625
1210,0.0616577007,0.0150287002,0.148436993
1211,0.0616577007,0.0150287002,0.15625
1212,0.0616577007,0.0150287002,0.164061993
1213,0.0616577007,0.0150287002,0.171875
1214,0.0616577007,0.0150287002,0.179686993
1215,0.0616577007,0.0150287002,0.1875
1216,0.0616577007,0.0150287002,0.195313007
1217,0.0616577007,0.0150287002,0.203125
1218,0.0616577007,0.0150287002,0.210936993
1219,0.0616577007,0.0150287002,0.21875
1220,0.0616577007,0.0150287002,0.226561993
1221,0.0616577007,0.0150287002,0.234375
1222,0.0616577007,0.0150287002,0.242188007
1223,0.0616577007,0.0150287002,0.25
1224,0.0616577007,0.0150287002,0.257811993
1225,0.0616577007,0.0150287002,0.265625
1226,0.0616577007,0.0150287002,0.273436993
1227,0.0616577007,0.0150287002,0.28125
1228,0.0616577007,0.0150287002,0.289063007
1229,0.0616577007,0.0150287002,0.296875
1230,0.0616577007,0.0150287002,0.304686993
1231,0.0616577007,0.0150287002,0.3125
1232,0.0616577007,0.0150287002,0.320311993
1233,0.0616577007,0.0150287002,0.328125
1234,0.0616577007,0.0150287002,0.335938007
1235,0.0616577007,0.0150287002,0.34375
1236,0.0616577007,0.0150287002,0.351561993
1237,0.0617811009,0.0146235004,-0.390361995
1238,0.0617811009,0.0146235004,0.390361995
1239,0.061846301,0.0142975999,-0.382802993
1240,0.061846301,0.0142975999,0.382802993
1241,0.0618804991,-0.0202585999,-0.396530002
1242,0.0618804991,-0.0202585999,0.396530002
1243,0.0619318001,0.0139661003,-0.375005007
1244,0.0619318001,0.0139661003,0.375005007
1245,0.0620173998,0.0136345997,-0.367208004
1246,0.0620173998,0.0136345997,0.367208004
1247,0.0620350018,0.0132895997,-0.359409988
1248,0.0620350018,0.0132895997,0.359409988
1249,0.0630026981,-0.00247060996,-0.398743004
1250,0.063029401,-0.00262387004,0.398743004
1251,0.0635648966,-0.0199333001,-0.398303986
1252,0.0635648966,-0.0199333001,0.398303986
1253,0.0711781979,-0.0187777001,-0.396117002
1254,0.0711781979,-0.0187777001,0.396117002
1255,0.0717320964,-0.0186823998,-0.390363008
1256,0.0717320964,-0.0186823998,0.390363008
1257,0.0718616024,-0.0186599009,-0.382813007
1258,0.0718616024,-0.0186599009,-0.375
1259,0.0718616024,-0.0186599009,-0.367188007
1260,0.0718616024,-0.0186599009,-0.359375
1261,0.0718616024,-0.0186599009,-0.351561993
1262,0.0718616024,-0.0186599009,-0.34375
1263,0.0718616024,-0.0186599009,-0.335938007
1264,0.0718616024,-0.0186599009,-0.328125
1265,0.0718616024,-0.0186599009,-0.320311993
1266,0.0718616024,-0.0186599009,-0.3125
1267,0.0718616024,-0.0186599009,-0.304688007
1268,0.0718616024,-0.0186599009,-0.296875
1269,0.0718616024,-0.0186599009,-0.289063007
1270,0.0718616024,-0.0186599009,-0.28125
1271,0.0718616024,-0.0186599009,-0.273438007
1272,0.0718616024,-0.0186599009,-0.265625
1273,0.0718616024,-0.0186599009,-0.257811993
1274,0.0718616024,-0.0186599009,-0.25
1275,0.0718616024,-0.0186599009,-0.242188007
1276,0.0718616024,-0.0186599009,-0.234375
1277,0.0718616024,-0.0186599009,-0.226563007
1278,0.0718616024,-0.0186599009,-0.21875
1279,0.0718616024,-0.0186599009,-0.210938007
1280,0.0718616024,-0.0186599009,-0.203125
1281,0.0718616024,-0.0186599009,-0.195311993
1282,0.0718616024,-0.0186599009,-0.1875
1283,0.0718616024,-0.0186599009,-0.179688007
1284,0.0718616024,-0.0186599009,-0.171875
1285,0.0718616024,-0.0186599009,-0.164063007
1286,0.0718616024,-0.0186599009,-0.15625
1287,0.0718616024,-0.0186599009,-0.148436993
1288,0.0718616024,-0.0186599009,-0.140625
1289,0.0718616024,-0.0186599009,-0.132813007
1290,0.0718616024,-0.0186599009,-0.125
1291,0.0718616024,-0.0186599009,-0.117187999
1292,0.0718616024,-0.0186599009,-0.109375
1293,0.0718616024,-0.0186599009,-0.101562999
1294,0.0718616024,-0.0186599009,-0.09375
1295,0.0718616024,-0.0186599009,-0.0859375
1296,0.0718616024,-0.0186599009,-0.078125
1297,0.0718616024,-0.0186599009,-0.0703125
1298,0.0718616024,-0.0186599009,-0.0625
1299,0.0718616024,-0.0186599009,-0.0546875
1300,0.0718616024,-0.0186599009,-0.046875
1301,0.0718616024,-0.0186599009,-0.0390625
1302,0.0718616024,-0.0186599009,-0.03125
1303,0.0718616024,-0.0186599009,-0.0234375
1304,0.0718616024,-0.0186599009,-0.015625
1305,0.0718616024,-0.0186599009,-0.0078125
1306,0.0718616024,-0.0186599009,0
1307,0.0718616024,-0.0186599009,0.0078125
1308,0.0718616024,-0.0186599009,0.015625
1309,0.0718616024,-0.0186599009,0.0234375
1310,0.0718616024,-0.0186599009,0.03125
1311,0.0718616024,-0.0186599009,0.0390625
1312,0.0718616024,-0.0186599009,0.046875
1313,0.0718616024,-0.0186599009,0.0546875
1314,0.0718616024,-0.0186599009,0.0625
1315,0.0718616024,-0.0186599009,0.0703125
1316,0.0718616024,-0.0186599009,0.078125
1317,0.0718616024,-0.0186599009,0.0859375
1318,0.0718616024,-0.0186599009,0.09375
1319,0.0718616024,-0.0186599009,0.101562999
1320,0.0718616024,-0.0186599009,0.109375
1321,0.0718616024,-0.0186599009,0.117187001
1322,0.0718616024,-0.0186599009,0.125
1323,0.0718616024,-0.0186599009,0.132813007
1324,0.0718616024,-0.0186599009,0.140625
1325,0.0718616024,-0.0186599009,0.148436993
1326,0.0718616024,-0.0186599009,0.15625
1327,0.0718616024,-0.0186599009,0.164061993
1328,0.0718616024,-0.0186599009,0.171875
1329,0.0718616024,-0.0186599009,0.179688007
1330,0.0718616024,-0.0186599009,0.1875
1331,0.0718616024,-0.0186599009,0.195311993
1332,0.0718616024,-0.0186599009,0.203125
1333,0.0718616024,-0.0186599009,0.210938007
1334,0.0718616024,-0.0186599009,0.21875
1335,0.0718616024,-0.0186599009,0.226563007
1336,0.0718616024,-0.0186599009,0.234375
1337,0.0718616024,-0.0186599009,0.242188007
1338,0.0718616024,-0.0186599009,0.25
1339,0.0718616024,-0.0186599009,0.257813007
1340,0.0718616024,-0.0186599009,0.265625
1341,0.0718616024,-0.0186599009,0.273438007
1342,0.0718616024,-0.0186599009,0.28125
1343,0.0718616024,-0.0186599009,0.289061993
1344,0.0718616024,-0.0186599009,0.296875
1345,0.0718616024,-0.0186599009,0.304686993
1346,0.0718616024,-0.0186599009,0.3125
1347,0.0718616024,-0.0186599009,0.320313007
1348,0.0718616024,-0.0186599009,0.328125
1349,0.0718616024,-0.0186599009,0.335936993
1350,0.0718616024,-0.0186599009,0.34375
1351,0.0718616024,-0.0186599009,0.351563007
1352,0.0718616024,-0.0186599009,0.359375
1353,0.0718616024,-0.0186599009,0.367188007
1354,0.0718616024,-0.0186599009,0.375
1355,0.0718616024,-0.0186599009,0.382811993
1356,0.0736393034,0.0178360995,-0.396703988
1357,0.0736393034,0.0178360995,0.396703988
1358,0.0749804974,9.1139198e-05,-0.398678988
1359,0.0750193,-9.1188602e-05,0.398678988
1360,0.0760295019,-0.0177775007,-0.396712989
1361,0.0760295019,-0.0177775007,0.396712989
1362,0.0782648027,0.0190520994,-0.382813007
1363,0.0782648027,0.0190520994,-0.375
1364,0.0782648027,0.0190520994,-0.367188007
1365,0.0782648027,0.0190520994,-0.359375
1366,0.0782648027,0.0190520994,-0.351561993
1367,0.0782648027,0.0190520994,-0.34375
1368,0.0782648027,0.0190520994,-0.335938007
1369,0.0782648027,0.0190520994,-0.328125
1370,0.0782648027,0.0190520994,-0.320311993
1371,0.0782648027,0.0190520994,-0.3125
1372,0.0782648027,0.0190520994,-0.304688007
1373,0.0782648027,0.0190520994,-0.296875
1374,0.0782648027,0.0190520994,-0.289061993
1375,0.0782648027,0.0190520994,-0.28125
1376,0.0782648027,0.0190520994,-0.273436993
1377,0.0782648027,0.0190520994,-0.265625
1378,0.0782648027,0.0190520994,-0.257813007
1379,0.0782648027,0.0190520994,-0.25
1380,0.0782648027,0.0190520994,-0.242186993
1381,0.0782648027,0.0190520994,-0.234375
1382,0.0782648027,0.0190520994,-0.226563007
1383,0.0782648027,0.0190520994,-0.21875
1384,0.0782648027,0.0190520994,-0.210936993
1385,0.0782648027,0.0190520994,-0.203125
1386,0.0782648027,0.0190520994,-0.195311993
1387,0.0782648027,0.0190520994,-0.1875
1388,0.0782648027,0.0190520994,-0.179688007
1389,0.0782648027,0.0190520994,-0.171875
1390,0.0782648027,0.0190520994,-0.164061993
1391,0.0782648027,0.0190520994,-0.15625
1392,0.0782648027,0.0190520994,-0.148436993
1393,0.0782648027,0.0190520994,-0.140625
1394,0.0782648027,0.0190520994,-0.132811993
1395,0.0782648027,0.0190520994,-0.125
1396,0.0782648027,0.0190520994,-0.117187001
1397,0.0782648027,0.0190520994,-0.109375
1398,0.0782648027,0.0190520994,-0.101562999
1399,0.0782648027,0.0190520994,-0.09375
1400,0.0782648027,0.0190520994,-0.0859375
1401,0.0782648027,0.0190520994,-0.078125
1402,0.0782648027,0.0190520994,-0.0703125
1403,0.0782648027,0.0190520994,-0.0625
1404,0.0782648027,0.0190520994,-0.0546875
1405,0.0782648027,0.0190520994,-0.046875
1406,0.0782648027,0.0190520994,-0.0390625
1407,0.0782648027,0.0190520994,-0.03125
1408,0.0782648027,0.0190520994,-0.0234375
1409,0.0782648027,0.0190520994,-0.015625
1410,0.0782648027,0.0190520994,-0.0078125
1411,0.0782648027,0.0190520994,0
1412,0.0782648027,0.0190520994,0.0078125
1413,0.0782648027,0.0190520994,0.015625
1414,0.0782648027,0.0190520994,0.0234375
1415,0.0782648027,0.0190520994,0.03125
1416,0.0782648027,0.0190520994,0.0390625
1417,0.0782648027,0.0190520994,0.046875
1418,0.0782648027,0.0190520994,0.0546875
1419,0.0782648027,0.0190520994,0.0625
1420,0.0782648027,0.0190520994,0.0703125
1421,0.0782648027,0.0190520994,0.078125
1422,0.0782648027,0.0190520994,0.0859375
1423,0.0782648027,0.0190520994,0.09375
1424,0.0782648027,0.0190520994,0.101562999
1425,0.0782648027,0.0190520994,0.109375
1426,0.0782648027,0.0190520994,0.117187001
1427,0.0782648027,0.0190520994,0.125
1428,0.0782648027,0.0190520994,0.132813007
1429,0.0782648027,0.0190520994,0.140625
1430,0.0782648027,0.0190520994,0.148436993
1431,0.0782648027,0.0190520994,0.15625
1432,0.0782648027,0.0190520994,0.164061993
1433,0.0782648027,0.0190520994,0.171875
1434,0.0782648027,0.0190520994,0.179688007
1435,0.0782648027,0.0190520994,0.1875
1436,0.0782648027,0.0190520994,0.195313007
1437,0.0782648027,0.0190520994,0.203125
1438,0.0782648027,0.0190520994,0.210936993
1439,0.0782648027,0.0190520994,0.21875
1440,0.0782648027,0.0190520994,0.226561993
1441,0.0782648027,0.0190520994,0.234375
1442,0.0782648027,0.0190520994,0.242188007
1443,0.0782648027,0.0190520994,0.25
1444,0.0782648027,0.0190520994,0.257813007
1445,0.0782648027,0.0190520994,0.265625
1446,0.0782648027,0.0190520994,0.273436993
1447,0.0782648027,0.0190520994,0.28125
1448,0.0782648027,0.0190520994,0.289063007
1449,0.0782648027,0.0190520994,0.296875
1450,0.0782648027,0.0190520994,0.304688007
1451,0.0782648027,0.0190520994,0.3125
1452,0.0782648027,0.0190520994,0.320311993
1453,0.0782648027,0.0190520994,0.328125
1454,0.0782648027,0.0190520994,0.335936993
1455,0.0782648027,0.0190520994,0.34375
1456,0.0782648027,0.0190520994,0.351563007
1457,0.0782648027,0.0190520994,0.359375
1458,0.0782648027,0.0190520994,0.367188007
1459,0.0782648027,0.0190520994,0.375
1460,0.0782648027,0.0190520994,0.382811993
1461,0.0783749968,0.0190772004,-0.390363008
1462,0.0783749968,0.0190772004,0.390363008
1463,0.0788701996,0.0191885997,-0.396117002
1464,0.0788701996,0.0191885997,0.396117002
1465,0.0857153982,0.0205485001,-0.398030996
1466,0.0857153982,0.0205485001,0.398030996
1467,0.0866542011,0.00257673999,-0.398494989
1468,0.0867044032,0.00236695004,0.398494989
1469,0.0877961963,-0.0127274003,-0.335999995
1470,0.0877961963,-0.0127274003,0.335999995
1471,0.0878724977,-0.0130695999,-0.343796998
1472,0.0878724977,-0.0130695999,0.343796998
1473,0.0879487023,-0.0134116998,-0.351592988
1474,0.0879487023,-0.0134116998,0.351592988
1475,0.0879784971,-0.0144796995,-0.375025004
1476,0.0879784971,-0.0144796995,0.375025004
1477,0.087980397,-0.0141220996,-0.367226005
1478,0.087980397,-0.0141220996,0.367226005
1479,0.0880142972,-0.0137569997,-0.359407991
1480,0.0880142972,-0.0137569997,0.359407991
1481,0.0880305991,0.0211736001,-0.396467
1482,0.0880305991,0.0211736001,0.396467
1483,0.0881571025,-0.0147976,-0.382753015
1484,0.0881571025,-0.0147976,0.382753015
1485,0.0882067978,-0.0151273999,-0.390181988
1486,0.0882067978,-0.0151273999,0.390181988
1487,0.0883819014,-0.0153628997,-0.396234989
1488,0.0883819014,-0.0153628997,0.396234989
1489,0.0883930996,-0.0155400001,-0.328125
1490,0.0883930996,-0.0155400001,-0.320311993
1491,0.0883930996,-0.0155400001,-0.3125
1492,0.0883930996,-0.0155400001,-0.304688007
1493,0.0883930996,-0.0155400001,-0.296875
1494,0.0883930996,-0.0155400001,-0.289063007
1495,0.0883930996,-0.0155400001,-0.28125
1496,0.0883930996,-0.0155400001,-0.273438007
1497,0.0883930996,-0.0155400001,-0.265625
1498,0.0883930996,-0.0155400001,-0.257811993
1499,0.0883930996,-0.0155400001,-0.25
1500,0.0883930996,-0.0155400001,-0.242188007
1501,0.0883930996,-0.0155400001,-0.234375
1502,0.0883930996,-0.0155400001,-0.226563007
1503,0.0883930996,-0.0155400001,-0.21875
1504,0.0883930996,-0.0155400001,-0.210938007
1505,0.0883930996,-0.0155400001,-0.203125
1506,0.0883930996,-0.0155400001,-0.195313007
1507,0.0883930996,-0.0155400001,-0.1875
1508,0.0883930996,-0.0155400001,-0.179686993
1509,0.0883930996,-0.0155400001,-0.171875
1510,0.0883930996,-0.0155400001,-0.164061993
1511,0.0883930996,-0.0155400001,-0.15625
1512,0.0883930996,-0.0155400001,-0.148438007
1513,0.0883930996,-0.0155400001,-0.140625
1514,0.0883930996,-0.0155400001,-0.132811993
1515,0.0883930996,-0.0155400001,-0.125
1516,0.0883930996,-0.0155400001,-0.117187999
1517,0.0883930996,-0.0155400001,-0.109375
1518,0.0883930996,-0.0155400001,-0.101562001
1519,0.0883930996,-0.0155400001,-0.09375
1520,0.0883930996,-0.0155400001,-0.0859375
1521,0.0883930996,-0.0155400001,-0.078125
1522,0.0883930996,-0.0155400001,-0.0703125
1523,0.0883930996,-0.0155400001,-0.0625
1524,0.0883930996,-0.0155400001,-0.0546875
1525,0.0883930996,-0.0155400001,-0.046875
1526,0.0883930996,-0.0155400001,-0.0390625
1527,0.0883930996,-0.0155400001,-0.03125
1528,0.0883930996,-0.0155400001,-0.0234375
1529,0.0883930996,-0.0155400001,-0.015625
1530,0.0883930996,-0.0155400001,-0.0078125
1531,0.0883930996,-0.0155400001,0
1532,0.0883930996,-0.0155400001,0.0078125
1533,0.0883930996,-0.0155400001,0.015625
1534,0.0883930996,-0.0155400001,0.0234375
1535,0.0883930996,-0.0155400001,0.03125
1536,0.0883930996,-0.0155400001,0.0390625
1537,0.0883930996,-0.0155400001,0.046875
1538,0.0883930996,-0.0155400001,0.0546875
1539,0.0883930996,-0.0155400001,0.0625
1540,0.0883930996,-0.0155400001,0.0703125
1541,0.0883930996,-0.0155400001,0.078125
1542,0.0883930996,-0.0155400001,0.0859375
1543,0.0883930996,-0.0155400001,0.09375
1544,0.0883930996,-0.0155400001,0.101562001
1545,0.0883930996,-0.0155400001,0.109375
1546,0.0883930996,-0.0155400001,0.117187001
1547,0.0883930996,-0.0155400001,0.125
1548,0.0883930996,-0.0155400001,0.132813007
1549,0.0883930996,-0.0155400001,0.140625
1550,0.0883930996,-0.0155400001,0.148438007
1551,0.0883930996,-0.0155400001,0.15625
1552,0.0883930996,-0.0155400001,0.164061993
1553,0.0883930996,-0.0155400001,0.171875
1554,0.0883930996,-0.0155400001,0.179686993
1555,0.0883930996,-0.0155400001,0.1875
1556,0.0883930996,-0.0155400001,0.195313007
1557,0.0883930996,-0.0155400001,0.203125
1558,0.0883930996,-0.0155400001,0.210936993
1559,0.0883930996,-0.0155400001,0.21875
1560,0.0883930996,-0.0155400001,0.226561993
1561,0.0883930996,-0.0155400001,0.234375
1562,0.0883930996,-0.0155400001,0.242186993
1563,0.0883930996,-0.0155400001,0.25
1564,0.0883930996,-0.0155400001,0.257811993
1565,0.0883930996,-0.0155400001,0.265625
1566,0.0883930996,-0.0155400001,0.273436993
1567,0.0883930996,-0.0155400001,0.28125
1568,0.0883930996,-0.0155400001,0.289063007
1569,0.0883930996,-0.0155400001,0.296875
1570,0.0883930996,-0.0155400001,0.304688007
1571,0.0883930996,-0.0155400001,0.3125
1572,0.0883930996,-0.0155400001,0.320313007
1573,0.0883930996,-0.0155400001,0.328125
1574,0.0887444019,0.0213222001,-0.390347004
1575,0.0887444019,0.0213222001,0.390347004
1576,0.0887819007,0.0213294998,-0.382811993
1577,0.0887819007,0.0213294998,-0.375
1578,0.0887819007,0.0213294998,-0.367188007
1579,0.0887819007,0.0213294998,-0.359375
1580,0.0887819007,0.0213294998,-0.351561993
1581,0.0887819007,0.0213294998,-0.34375
1582,0.0887819007,0.0213294998,-0.335938007
1583,0.0887819007,0.0213294998,-0.328125
1584,0.0887819007,0.0213294998,-0.320311993
1585,0.0887819007,0.0213294998,-0.3125
1586,0.0887819007,0.0213294998,-0.304688007
1587,0.0887819007,0.0213294998,-0.296875
1588,0.0887819007,0.0213294998,-0.289063007
1589,0.0887819007,0.0213294998,-0.28125
1590,0.0887819007,0.0213294998,-0.273438007
1591,0.0887819007,0.0213294998,-0.265625
1592,0.0887819007,0.0213294998,-0.257811993
1593,0.0887819007,0.0213294998,-0.25
1594,0.0887819007,0.0213294998,-0.242188007
1595,0.0887819007,0.0213294998,-0.234375
1596,0.0887819007,0.0213294998,-0.226561993
1597,0.0887819007,0.0213294998,-0.21875
1598,0.0887819007,0.0213294998,-0.210938007
1599,0.0887819007,0.0213294998,-0.203125
1600,0.0887819007,0.0213294998,-0.195311993
1601,0.0887819007,0.0213294998,-0.1875
1602,0.0887819007,0.0213294998,-0.179686993
1603,0.0887819007,0.0213294998,-0.171875
1604,0.0887819007,0.0213294998,-0.164061993
1605,0.0887819007,0.0213294998,-0.15625
1606,0.0887819007,0.0213294998,-0.148436993
1607,0.0887819007,0.0213294998,-0.140625
1608,0.0887819007,0.0213294998,-0.132813007
1609,0.0887819007,0.0213294998,-0.125
1610,0.0887819007,0.0213294998,-0.117187999
1611,0.0887819007,0.0213294998,-0.109375
1612,0.0887819007,0.0213294998,-0.101562999
1613,0.0887819007,0.0213294998,-0.09375
1614,0.0887819007,0.0213294998,-0.0859375
1615,0.0887819007,0.0213294998,-0.078125
1616,0.0887819007,0.0213294998,-0.0703125
1617,0.0887819007,0.0213294998,-0.0625
1618,0.0887819007,0.0213294998,-0.0546875
1619,0.0887819007,0.0213294998,-0.046875
1620,0.0887819007,0.0213294998,-0.0390625
1621,0.0887819007,0.0213294998,-0.03125
1622,0.0887819007,0.0213294998,-0.0234375
1623,0.0887819007,0.0213294998,-0.015625
1624,0.0887819007,0.0213294998,-0.0078125
1625,0.0887819007,0.0213294998,0
1626,0.0887819007,0.0213294998,0.0078125
1627,0.0887819007,0.0213294998,0.015625
1628,0.0887819007,0.0213294998,0.0234375
1629,0.0887819007,0.0213294998,0.03125
1630,0.0887819007,0.0213294998,0.0390625
1631,0.0887819007,0.0213294998,0.046875
1632,0.0887819007,0.0213294998,0.0546875
1633,0.0887819007,0.0213294998,0.0625
1634,0.0887819007,0.0213294998,0.0703125
1635,0.0887819007,0.0213294998,0.078125
1636,0.0887819007,0.0213294998,0.0859375
1637,0.0887819007,0.0213294998,0.09375
1638,0.0887819007,0.0213294998,0.101562001
1639,0.0887819007,0.0213294998,0.109375
1640,0.0887819007,0.0213294998,0.117187001
1641,0.0887819007,0.0213294998,0.125
1642,0.0887819007,0.0213294998,0.132811993
1643,0.0887819007,0.0213294998,0.140625
1644,0.0887819007,0.0213294998,0.148436993
1645,0.0887819007,0.0213294998,0.15625
1646,0.0887819007,0.0213294998,0.164061993
1647,0.0887819007,0.0213294998,0.171875
1648,0.0887819007,0.0213294998,0.179688007
1649,0.0887819007,0.0213294998,0.1875
1650,0.0887819007,0.0213294998,0.195313007
1651,0.0887819007,0.0213294998,0.203125
1652,0.0887819007,0.0213294998,0.210936993
1653,0.0887819007,0.0213294998,0.21875
1654,0.0887819007,0.0213294998,0.226563007
1655,0.0887819007,0.0213294998,0.234375
1656,0.0887819007,0.0213294998,0.242188007
1657,0.0887819007,0.0213294998,0.25
1658,0.0887819007,0.0213294998,0.257813007
1659,0.0887819007,0.0213294998,0.265625
1660,0.0887819007,0.0213294998,0.273438007
1661,0.0887819007,0.0213294998,0.28125
1662,0.0887819007,0.0213294998,0.289063007
1663,0.0887819007,0.0213294998,0.296875
1664,0.0887819007,0.0213294998,0.304688007
1665,0.0887819007,0.0213294998,0.3125
1666,0.0887819007,0.0213294998,0.320313007
1667,0.0887819007,0.0213294998,0.328125
1668,0.0887819007,0.0213294998,0.335936993
1669,0.0887819007,0.0213294998,0.34375
1670,0.0887819007,0.0213294998,0.351561993
1671,0.0887819007,0.0213294998,0.359375
1672,0.0887819007,0.0213294998,0.367186993
1673,0.0887819007,0.0213294998,0.375
1674,0.0887819007,0.0213294998,0.382811993
1675,0.0964531004,0.00452694017,-0.396508992
1676,0.0965121016,0.00430059992,0.396508992
1677,0.0975008011,-0.0133560998,-0.395693988
1678,0.0975008011,-0.0133560998,0.395693988
1679,0.0991642997,-0.0132441996,-0.375
1680,0.0991642997,-0.0132441996,0.375
1681,0.0993411988,-0.0132045001,-0.367188007
1682,0.0993411988,-0.0132045001,0.367188007
1683,0.0993707031,-0.0132018998,-0.382580996
1684,0.0993707031,-0.0132018998,0.382580996
1685,0.0997435004,0.0233433004,-0.396367013
1686,0.0997435004,0.0233433004,0.396367013
1687,0.0997624993,-0.0131109003,-0.359376013
1688,0.0997624993,-0.0131109003,0.359376013
1689,0.0998853967,-0.0130836004,-0.351561993
1690,0.0998853967,-0.0130836004,-0.34375
1691,0.0998853967,-0.0130836004,-0.335938007
1692,0.0998853967,-0.0130836004,-0.328125
1693,0.0998853967,-0.0130836004,-0.320311993
1694,0.0998853967,-0.0130836004,-0.3125
1695,0.0998853967,-0.0130836004,-0.304688007
1696,0.0998853967,-0.0130836004,-0.296875
1697,0.0998853967,-0.0130836004,-0.289063007
1698,0.0998853967,-0.0130836004,-0.28125
1699,0.0998853967,-0.0130836004,-0.273438007
1700,0.0998853967,-0.0130836004,-0.265625
1701,0.0998853967,-0.0130836004,-0.257811993
1702,0.0998853967,-0.0130836004,-0.25
1703,0.0998853967,-0.0130836004,-0.242188007
1704,0.0998853967,-0.0130836004,-0.234375
1705,0.0998853967,-0.0130836004,-0.226561993
1706,0.0998853967,-0.0130836004,-0.21875
1707,0.0998853967,-0.0130836004,-0.210938007
1708,0.0998853967,-0.0130836004,-0.203125
1709,0.0998853967,-0.0130836004,-0.195313007
1710,0.0998853967,-0.0130836004,-0.1875
1711,0.0998853967,-0.0130836004,-0.179688007
1712,0.0998853967,-0.0130836004,-0.171875
1713,0.0998853967,-0.0130836004,-0.164061993
1714,0.0998853967,-0.0130836004,-0.15625
1715,0.0998853967,-0.0130836004,-0.148438007
1716,0.0998853967,-0.0130836004,-0.140625
1717,0.0998853967,-0.0130836004,-0.132813007
1718,0.0998853967,-0.0130836004,-0.125
1719,0.0998853967,-0.0130836004,-0.117187001
1720,0.0998853967,-0.0130836004,-0.109375
1721,0.0998853967,-0.0130836004,-0.101562001
1722,0.0998853967,-0.0130836004,-0.09375
1723,0.0998853967,-0.0130836004,-0.0859375
1724,0.0998853967,-0.0130836004,-0.078125
1725,0.0998853967,-0.0130836004,-0.0703125
1726,0.0998853967,-0.0130836004,-0.0625
1727,0.0998853967,-0.0130836004,-0.0546875
1728,0.0998853967,-0.0130836004,-0.046875
1729,0.0998853967,-0.0130836004,-0.0390625
1730,0.0998853967,-0.0130836004,-0.03125
1731,0.0998853967,-0.0130836004,-0.0234375
1732,0.0998853967,-0.0130836004,-0.015625
1733,0.0998853967,-0.0130836004,-0.0078125
1734,0.0998853967,-0.0130836004,0
1735,0.0998853967,-0.0130836004,0.0078125
1736,0.0998853967,-0.0130836004,0.015625
1737,0.0998853967,-0.0130836004,0.0234375
1738,0.0998853967,-0.0130836004,0.03125
1739,0.0998853967,-0.0130836004,0.0390625
1740,0.0998853967,-0.0130836004,0.046875
1741,0.0998853967,-0.0130836004,0.0546875
1742,0.0998853967,-0.0130836004,0.0625
1743,0.0998853967,-0.0130836004,0.0703125
1744,0.0998853967,-0.0130836004,0.078125
1745,0.0998853967,-0.0130836004,0.0859375
1746,0.0998853967,-0.0130836004,0.09375
1747,0.0998853967,-0.0130836004,0.101562001
1748,0.0998853967,-0.0130836004,0.109375
1749,0.0998853967,-0.0130836004,0.117187001
1750,0.0998853967,-0.0130836004,0.125
1751,0.0998853967,-0.0130836004,0.132813007
1752,0.0998853967,-0.0130836004,0.140625
1753,0.0998853967,-0.0130836004,0.148438007
1754,0.0998853967,-0.0130836004,0.15625
1755,0.0998853967,-0.0130836004,0.164061993
1756,0.0998853967,-0.0130836004,0.171875
1757,0.0998853967,-0.0130836004,0.179688007
1758,0.0998853967,-0.0130836004,0.1875
1759,0.0998853967,-0.0130836004,0.195311993
1760,0.0998853967,-0.0130836004,0.203125
1761,0.0998853967,-0.0130836004,0.210936993
1762,0.0998853967,-0.0130836004,0.21875
1763,0.0998853967,-0.0130836004,0.226561993
1764,0.0998853967,-0.0130836004,0.234375
1765,0.0998853967,-0.0130836004,0.242186993
1766,0.0998853967,-0.0130836004,0.25
1767,0.0998853967,-0.0130836004,0.257811993
1768,0.0998853967,-0.0130836004,0.265625
1769,0.0998853967,-0.0130836004,0.273438007
1770,0.0998853967,-0.0130836004,0.28125
1771,0.0998853967,-0.0130836004,0.289061993
1772,0.0998853967,-0.0130836004,0.296875
1773,0.0998853967,-0.0130836004,0.304688007
1774,0.0998853967,-0.0130836004,0.3125
1775,0.0998853967,-0.0130836004,0.320313007
1776,0.0998853967,-0.0130836004,0.328125
1777,0.0998853967,-0.0130836004,0.335936993
1778,0.0998853967,-0.0130836004,0.34375
1779,0.0998853967,-0.0130836004,0.351563007
1780,0.100088,0.00535228988,-0.390289009
1781,0.100152001,0.00511388993,0.390289009
1782,0.100372002,0.0236466993,-0.390372992
1783,0.100372002,0.0236466993,0.390372992
1784,0.100469999,0.0236616004,-0.375
1785,0.100469999,0.0236616004,-0.367188007
1786,0.100469999,0.0236616004,-0.359375
1787,0.100469999,0.0236616004,-0.351561993
1788,0.100469999,0.0236616004,-0.34375
1789,0.100469999,0.0236616004,-0.335938007
1790,0.100469999,0.0236616004,-0.328125
1791,0.100469999,0.0236616004,-0.320313007
1792,0.100469999,0.0236616004,-0.3125
1793,0.100469999,0.0236616004,-0.304688007
1794,0.100469999,0.0236616004,-0.296875
1795,0.100469999,0.0236616004,-0.289063007
1796,0.100469999,0.0236616004,-0.28125
1797,0.100469999,0.0236616004,-0.273438007
1798,0.100469999,0.0236616004,-0.265625
1799,0.100469999,0.0236616004,-0.257813007
1800,0.100469999,0.0236616004,-0.25
1801,0.100469999,0.0236616004,-0.242186993
1802,0.100469999,0.0236616004,-0.234375
1803,0.100469999,0.0236616004,-0.226563007
1804,0.100469999,0.0236616004,-0.21875
1805,0.100469999,0.0236616004,-0.210936993
1806,0.100469999,0.0236616004,-0.203125
1807,0.100469999,0.0236616004,-0.195313007
1808,0.100469999,0.0236616004,-0.1875
1809,0.100469999,0.0236616004,-0.179688007
1810,0.100469999,0.0236616004,-0.171875
1811,0.100469999,0.0236616004,-0.164061993
1812,0.100469999,0.0236616004,-0.15625
1813,0.100469999,0.0236616004,-0.148438007
1814,0.100469999,0.0236616004,-0.140625
1815,0.100469999,0.0236616004,-0.132813007
1816,0.100469999,0.0236616004,-0.125
1817,0.100469999,0.0236616004,-0.117187999
1818,0.100469999,0.0236616004,-0.109375
1819,0.100469999,0.0236616004,-0.101562999
1820,0.100469999,0.0236616004,-0.09375
1821,0.100469999,0.0236616004,-0.0859375
1822,0.100469999,0.0236616004,-0.078125
1823,0.100469999,0.0236616004,-0.0703125
1824,0.100469999,0.0236616004,-0.0625
1825,0.100469999,0.0236616004,-0.0546875
1826,0.100469999,0.0236616004,-0.046875
1827,0.100469999,0.0236616004,-0.0390625
1828,0.100469999,0.0236616004,-0.03125
1829,0.100469999,0.0236616004,-0.0234375
1830,0.100469999,0.0236616004,-0.015625
1831,0.100469999,0.0236616004,-0.0078125
1832,0.100469999,0.0236616004,-0
1833,0.100469999,0.0236616004,0.0078125
1834,0.100469999,0.0236616004,0.015625
1835,0.100469999,0.0236616004,0.0234375
1836,0.100469999,0.0236616004,0.03125
1837,0.100469999,0.0236616004,0.0390625
1838,0.100469999,0.0236616004,0.046875
1839,0.100469999,0.0236616004,0.0546875
1840,0.100469999,0.0236616004,0.0625
1841,0.100469999,0.0236616004,0.0703125
1842,0.100469999,0.0236616004,0.078125
1843,0.100469999,0.0236616004,0.0859375
1844,0.100469999,0.0236616004,0.09375
1845,0.100469999,0.0236616004,0.101562999
1846,0.100469999,0.0236616004,0.109375
1847,0.100469999,0.0236616004,0.117187999
1848,0.100469999,0.0236616004,0.125
1849,0.100469999,0.0236616004,0.132813007
1850,0.100469999,0.0236616004,0.140625
1851,0.100469999,0.0236616004,0.148438007
1852,0.100469999,0.0236616004,0.15625
1853,0.100469999,0.0236616004,0.164061993
1854,0.100469999,0.0236616004,0.171875
1855,0.100469999,0.0236616004,0.179688007
1856,0.100469999,0.0236616004,0.1875
1857,0.100469999,0.0236616004,0.195313007
1858,0.100469999,0.0236616004,0.203125
1859,0.100469999,0.0236616004,0.210938007
1860,0.100469999,0.0236616004,0.21875
1861,0.100469999,0.0236616004,0.226563007
1862,0.100469999,0.0236616004,0.234375
1863,0.100469999,0.0236616004,0.242188007
1864,0.100469999,0.0236616004,0.25
1865,0.100469999,0.0236616004,0.257813007
1866,0.100469999,0.0236616004,0.265625
1867,0.100469999,0.0236616004,0.273436993
1868,0.100469999,0.0236616004,0.28125
1869,0.100469999,0.0236616004,0.289063007
1870,0.100469999,0.0236616004,0.296875
1871,0.100469999,0.0236616004,0.304688007
1872,0.100469999,0.0236616004,0.3125
1873,0.100469999,0.0236616004,0.320311993
1874,0.100469999,0.0236616004,0.328125
1875,0.100469999,0.0236616004,0.335938007
1876,0.100469999,0.0236616004,0.34375
1877,0.100469999,0.0236616004,0.351561993
1878,0.100469999,0.0236616004,0.359375
1879,0.100469999,0.0236616004,0.367188007
1880,0.100469999,0.0236616004,0.375
1881,0.100469999,0.0236620009,-0.382811993
1882,0.100469999,0.0236620009,0.382811993
1883,0.100814,-0.0123528996,-0.388850987
1884,0.100814,-0.0123528996,0.388850987
1885,0.101168998,0.00567089021,-0.382789999
1886,0.101235002,0.00542595005,0.382789999
1887,0.101455003,0.00602609012,-0.396798015
1888,0.101490997,0.00578371994,0.396798015
1889,0.101710998,0.00580667006,-0.375497997
1890,0.101777002,0.00555943977,0.375497997
1891,0.106349997,-0.0107968999,-0.382445991
1892,0.106349997,-0.0107968999,0.382445991
1893,0.107125998,-0.0103049995,-0.375423998
1894,0.107125998,-0.0103049995,0.375423998
1895,0.110661,0.00772080012,-0.369305998
1896,0.110737003,0.00745191984,0.369305998
1897,0.111286998,-0.0104707005,-0.375
1898,0.111286998,-0.0104707005,0.375
1899,0.111309998,-0.0104496004,-0.367220998
1900,0.111309998,-0.0104496004,0.367220998
1901,0.111313999,-0.0105434004,-0.382333994
1902,0.111313999,-0.0105434004,0.382333994
1903,0.111447997,-0.0104158996,-0.359407991
1904,0.111447997,-0.0104158996,0.359407991
1905,0.11146,-0.0104130004,-0.351561993
1906,0.11146,-0.0104130004,-0.34375
1907,0.11146,-0.0104130004,-0.335938007
1908,0.11146,-0.0104130004,-0.328125
1909,0.11146,-0.0104130004,-0.320311993
1910,0.11146,-0.0104130004,-0.3125
1911,0.11146,-0.0104130004,-0.304688007
1912,0.11146,-0.0104130004,-0.296875
1913,0.11146,-0.0104130004,-0.289063007
1914,0.11146,-0.0104130004,-0.28125
1915,0.11146,-0.0104130004,-0.273438007
1916,0.11146,-0.0104130004,-0.265625
1917,0.11146,-0.0104130004,-0.257811993
1918,0.11146,-0.0104130004,-0.25
1919,0.11146,-0.0104130004,-0.242188007
1920,0.11146,-0.0104130004,-0.234375
1921,0.11146,-0.0104130004,-0.226561993
1922,0.11146,-0.0104130004,-0.21875
1923,0.11146,-0.0104130004,-0.210938007
1924,0.11146,-0.0104130004,-0.203125
1925,0.11146,-0.0104130004,-0.195311993
1926,0.11146,-0.0104130004,-0.1875
1927,0.11146,-0.0104130004,-0.179688007
1928,0.11146,-0.0104130004,-0.171875
1929,0.11146,-0.0104130004,-0.164061993
1930,0.11146,-0.0104130004,-0.15625
1931,0.11146,-0.0104130004,-0.148436993
1932,0.11146,-0.0104130004,-0.140625
1933,0.11146,-0.0104130004,-0.132813007
1934,0.11146,-0.0104130004,-0.125
1935,0.11146,-0.0104130004,-0.117187999
1936,0.11146,-0.0104130004,-0.109375
1937,0.11146,-0.0104130004,-0.101562999
1938,0.11146,-0.0104130004,-0.09375
1939,0.11146,-0.0104130004,-0.0859375
1940,0.11146,-0.0104130004,-0.078125
1941,0.11146,-0.0104130004,-0.0703125
1942,0.11146,-0.0104130004,-0.0625
1943,0.11146,-0.0104130004,-0.0546875
1944,0.11146,-0.0104130004,-0.046875
1945,0.11146,-0.0104130004,-0.0390625
1946,0.11146,-0.0104130004,-0.03125
1947,0.11146,-0.0104130004,-0.0234375
1948,0.11146,-0.0104130004,-0.015625
1949,0.11146,-0.0104130004,-0.0078125
1950,0.11146,-0.0104130004,0
1951,0.11146,-0.0104130004,0.0078125
1952,0.11146,-0.0104130004,0.015625
1953,0.11146,-0.0104130004,0.0234375
1954,0.11146,-0.0104130004,0.03125
1955,0.11146,-0.0104130004,0.0390625
1956,0.11146,-0.0104130004,0.046875
1957,0.11146,-0.0104130004,0.0546875
1958,0.11146,-0.0104130004,0.0625
1959,0.11146,-0.0104130004,0.0703125
1960,0.11146,-0.0104130004,0.078125
1961,0.11146,-0.0104130004,0.0859375
1962,0.11146,-0.0104130004,0.09375
1963,0.11146,-0.0104130004,0.101562001
1964,0.11146,-0.0104130004,0.109375
1965,0.11146,-0.0104130004,0.117187001
1966,0.11146,-0.0104130004,0.125
1967,0.11146,-0.0104130004,0.132811993
1968,0.11146,-0.0104130004,0.140625
1969,0.11146,-0.0104130004,0.148438007
1970,0.11146,-0.0104130004,0.15625
1971,0.11146,-0.0104130004,0.164061993
1972,0.11146,-0.0104130004,0.171875
1973,0.11146,-0.0104130004,0.179686993
1974,0.11146,-0.0104130004,0.1875
1975,0.11146,-0.0104130004,0.195313007
1976,0.11146,-0.0104130004,0.203125
1977,0.11146,-0.0104130004,0.210936993
1978,0.11146,-0.0104130004,0.21875
1979,0.11146,-0.0104130004,0.226561993
1980,0.11146,-0.0104130004,0.234375
1981,0.11146,-0.0104130004,0.242186993
1982,0.11146,-0.0104130004,0.25
1983,0.11146,-0.0104130004,0.257813007
1984,0.11146,-0.0104130004,0.265625
1985,0.11146,-0.0104130004,0.273436993
1986,0.11146,-0.0104130004,0.28125
1987,0.11146,-0.0104130004,0.289063007
1988,0.11146,-0.0104130004,0.296875
1989,0.11146,-0.0104130004,0.304688007
1990,0.11146,-0.0104130004,0.3125
1991,0.11146,-0.0104130004,0.320311993
1992,0.11146,-0.0104130004,0.328125
1993,0.11146,-0.0104130004,0.335936993
1994,0.11146,-0.0104130004,0.34375
1995,0.11146,-0.0104130004,0.351563007
1996,0.111922003,-0.0103925001,-0.386875987
1997,0.111922003,-0.0103925001,0.386875987
1998,0.111943997,0.0254030004,-0.396210015
1999,0.111943997,0.0254030004,0.396210015
2000,0.112521999,0.0254539009,-0.390377998
2001,0.112521999,0.0254539009,0.390377998
2002,0.112539001,0.0258825999,-0.375
2003,0.112539001,0.0258825999,-0.367188007
2004,0.112539001,0.0258825999,-0.359375
2005,0.112539001,0.0258825999,-0.351561993
2006,0.112539001,0.0258825999,-0.34375
2007,0.112539001,0.0258825999,-0.335936993
2008,0.112539001,0.0258825999,-0.328125
2009,0.112539001,0.0258825999,-0.320311993
2010,0.112539001,0.0258825999,-0.3125
2011,0.112539001,0.0258825999,-0.304688007
2012,0.112539001,0.0258825999,-0.296875
2013,0.112539001,0.0258825999,-0.289061993
2014,0.112539001,0.0258825999,-0.28125
2015,0.112539001,0.0258825999,-0.273438007
2016,0.112539001,0.0258825999,-0.265625
2017,0.112539001,0.0258825999,-0.257813007
2018,0.112539001,0.0258825999,-0.25
2019,0.112539001,0.0258825999,-0.242186993
2020,0.112539001,0.0258825999,-0.234375
2021,0.112539001,0.0258825999,-0.226563007
2022,0.112539001,0.0258825999,-0.21875
2023,0.112539001,0.0258825999,-0.210938007
2024,0.112539001,0.0258825999,-0.203125
2025,0.112539001,0.0258825999,-0.195313007
2026,0.112539001,0.0258825999,-0.1875
2027,0.112539001,0.0258825999,-0.179688007
2028,0.112539001,0.0258825999,-0.171875
2029,0.112539001,0.0258825999,-0.164063007
2030,0.112539001,0.0258825999,-0.15625
2031,0.112539001,0.0258825999,-0.148436993
2032,0.112539001,0.0258825999,-0.140625
2033,0.112539001,0.0258825999,-0.132811993
2034,0.112539001,0.0258825999,-0.125
2035,0.112539001,0.0258825999,-0.117187999
2036,0.112539001,0.0258825999,-0.109375
2037,0.112539001,0.0258825999,-0.101562999
2038,0.112539001,0.0258825999,-0.09375
2039,0.112539001,0.0258825999,-0.0859375
2040,0.112539001,0.0258825999,-0.078125
2041,0.112539001,0.0258825999,-0.0703125
2042,0.112539001,0.0258825999,-0.0625
2043,0.112539001,0.0258825999,-0.0546875
2044,0.112539001,0.0258825999,-0.046875
2045,0.112539001,0.0258825999,-0.0390625
2046,0.112539001,0.0258825999,-0.03125
2047,0.112539001,0.0258825999,-0.0234375
2048,0.112539001,0.0258825999,-0.015625
2049,0.112539001,0.0258825999,-0.0078125
2050,0.112539001,0.0258825999,-0
2051,0.112539001,0.0258825999,0.0078125
2052,0.112539001,0.0258825999,0.015625
2053,0.112539001,0.0258825999,0.0234375
2054,0.112539001,0.0258825999,0.03125
2055,0.112539001,0.0258825999,0.0390625
2056,0.112539001,0.0258825999,0.046875
2057,0.112539001,0.0258825999,0.0546875
2058,0.112539001,0.0258825999,0.0625
2059,0.112539001,0.0258825999,0.0703125
2060,0.112539001,0.0258825999,0.078125
2061,0.112539001,0.0258825999,0.0859375
2062,0.112539001,0.0258825999,0.09375
2063,0.112539001,0.0258825999,0.101562999
2064,0.112539001,0.0258825999,0.109375
2065,0.112539001,0.0258825999,0.117187999
2066,0.112539001,0.0258825999,0.125
2067,0.112539001,0.0258825999,0.132811993
2068,0.112539001,0.0258825999,0.140625
2069,0.112539001,0.0258825999,0.148436993
2070,0.112539001,0.0258825999,0.15625
2071,0.112539001,0.0258825999,0.164061993
2072,0.112539001,0.0258825999,0.171875
2073,0.112539001,0.0258825999,0.179686993
2074,0.112539001,0.0258825999,0.1875
2075,0.112539001,0.0258825999,0.195311993
2076,0.112539001,0.0258825999,0.203125
2077,0.112539001,0.0258825999,0.210936993
2078,0.112539001,0.0258825999,0.21875
2079,0.112539001,0.0258825999,0.226561993
2080,0.112539001,0.0258825999,0.234375
2081,0.112539001,0.0258825999,0.242186993
2082,0.112539001,0.0258825999,0.25
2083,0.112539001,0.0258825999,0.257813007
2084,0.112539001,0.0258825999,0.265625
2085,0.112539001,0.0258825999,0.273436993
2086,0.112539001,0.0258825999,0.28125
2087,0.112539001,0.0258825999,0.289061993
2088,0.112539001,0.0258825999,0.296875
2089,0.112539001,0.0258825999,0.304686993
2090,0.112539001,0.0258825999,0.3125
2091,0.112539001,0.0258825999,0.320313007
2092,0.112539001,0.0258825999,0.328125
2093,0.112539001,0.0258825999,0.335938007
2094,0.112539001,0.0258825999,0.34375
2095,0.112539001,0.0258825999,0.351561993
2096,0.112539001,0.0258825999,0.359375
2097,0.112539001,0.0258825999,0.367188007
2098,0.112539001,0.0258825999,0.375
2099,0.112539001,0.0258828998,-0.382811993
2100,0.112539001,0.0258828998,0.382813007
2101,0.112657003,-0.00929464027,-0.382389009
2102,0.112657003,-0.00929464027,0.382389009
2103,0.112884,0.00820490997,-0.375456989
2104,0.112938002,0.00792642962,0.375456989
2105,0.112938002,0.00827793963,-0.382813007
2106,0.112953998,-0.0089389598,-0.375598013
2107,0.112953998,-0.0089389598,0.375598013
2108,0.112989001,0.00800639018,0.382811993
2109,0.113027997,0.00856698956,-0.39044401
2110,0.113073997,0.00831966009,0.39044401
2111,0.113127999,-0.00868949015,-0.37095499
2112,0.113127999,-0.00868949015,0.37095499
2113,0.113459997,0.00988802034,-0.396411985
2114,0.113493003,0.00967507996,0.396411985
2115,0.118156001,-0.00749464007,-0.371508002
2116,0.118156001,-0.00749464007,0.371508002
2117,0.118556999,-0.00756321009,-0.375631988
2118,0.118556999,-0.00756321009,0.375631988
2119,0.118905,0.00946507044,-0.375555992
2120,0.118969999,0.0091756396,0.375555992
2121,0.119420998,0.00946694985,-0.382768005
2122,0.119483002,0.00919414032,0.382768005
2123,0.120201997,-0.00695199007,-0.370678991
2124,0.120201997,-0.00695199007,0.370678991
2125,0.120661996,0.00949428044,-0.390280992
2126,0.120711997,0.00927138981,0.390280992
2127,0.121739,-0.00671313982,-0.375321001
2128,0.121739,-0.00671313982,0.375321001
2129,0.121826001,-0.00835170969,-0.386871994
2130,0.121826001,-0.00835170969,0.386871994
2131,0.121973,-0.00783856027,-0.351561993
2132,0.121973,-0.00783856027,-0.34375
2133,0.121973,-0.00783856027,-0.335938007
2134,0.121973,-0.00783856027,-0.328125
2135,0.121973,-0.00783856027,-0.320311993
2136,0.121973,-0.00783856027,-0.3125
2137,0.121973,-0.00783856027,-0.304688007
2138,0.121973,-0.00783856027,-0.296875
2139,0.121973,-0.00783856027,-0.289061993
2140,0.121973,-0.00783856027,-0.28125
2141,0.121973,-0.00783856027,-0.273438007
2142,0.121973,-0.00783856027,-0.265625
2143,0.121973,-0.00783856027,-0.257811993
2144,0.121973,-0.00783856027,-0.25
2145,0.121973,-0.00783856027,-0.242188007
2146,0.121973,-0.00783856027,-0.234375
2147,0.121973,-0.00783856027,-0.226563007
2148,0.121973,-0.00783856027,-0.21875
2149,0.121973,-0.00783856027,-0.210938007
2150,0.121973,-0.00783856027,-0.203125
2151,0.121973,-0.00783856027,-0.195311993
2152,0.121973,-0.00783856027,-0.1875
2153,0.121973,-0.00783856027,-0.179688007
2154,0.121973,-0.00783856027,-0.171875
2155,0.121973,-0.00783856027,-0.164063007
2156,0.121973,-0.00783856027,-0.15625
2157,0.121973,-0.00783856027,-0.148436993
2158,0.121973,-0.00783856027,-0.140625
2159,0.121973,-0.00783856027,-0.132811993
2160,0.121973,-0.00783856027,-0.125
2161,0.121973,-0.00783856027,-0.117187001
2162,0.121973,-0.00783856027,-0.109375
2163,0.121973,-0.00783856027,-0.101562001
2164,0.121973,-0.00783856027,-0.09375
2165,0.121973,-0.00783856027,-0.0859375
2166,0.121973,-0.00783856027,-0.078125
2167,0.121973,-0.00783856027,-0.0703125
2168,0.121973,-0.00783856027,-0.0625
2169,0.121973,-0.00783856027,-0.0546875
2170,0.121973,-0.00783856027,-0.046875
2171,0.121973,-0.00783856027,-0.0390625
2172,0.121973,-0.00783856027,-0.03125
2173,0.121973,-0.00783856027,-0.0234375
2174,0.121973,-0.00783856027,-0.015625
2175,0.121973,-0.00783856027,-0.0078125
2176,0.121973,-0.00783856027,-1e-12
2177,0.121973,-0.00783856027,0.0078125
2178,0.121973,-0.00783856027,0.015625
2179,0.121973,-0.00783856027,0.0234375
2180,0.121973,-0.00783856027,0.03125
2181,0.121973,-0.00783856027,0.0390625
2182,0.121973,-0.00783856027,0.046875
2183,0.121973,-0.00783856027,0.0546875
2184,0.121973,-0.00783856027,0.0625
2185,0.121973,-0.00783856027,0.0703125
2186,0.121973,-0.00783856027,0.078125
2187,0.121973,-0.00783856027,0.0859375
2188,0.121973,-0.00783856027,0.09375
2189,0.121973,-0.00783856027,0.101562999
2190,0.121973,-0.00783856027,0.109375
2191,0.121973,-0.00783856027,0.117187999
2192,0.121973,-0.00783856027,0.125
2193,0.121973,-0.00783856027,0.132813007
2194,0.121973,-0.00783856027,0.140625
2195,0.121973,-0.00783856027,0.148438007
2196,0.121973,-0.00783856027,0.15625
2197,0.121973,-0.00783856027,0.164063007
2198,0.121973,-0.00783856027,0.171875
2199,0.121973,-0.00783856027,0.179688007
2200,0.121973,-0.00783856027,0.1875
2201,0.121973,-0.00783856027,0.195311993
2202,0.121973,-0.00783856027,0.203125
2203,0.121973,-0.00783856027,0.210938007
2204,0.121973,-0.00783856027,0.21875
2205,0.121973,-0.00783856027,0.226563007
2206,0.121973,-0.00783856027,0.234375
2207,0.121973,-0.00783856027,0.242188007
2208,0.121973,-0.00783856027,0.25
2209,0.121973,-0.00783856027,0.257813007
2210,0.121973,-0.00783856027,0.265625
2211,0.121973,-0.00783856027,0.273436993
2212,0.121973,-0.00783856027,0.28125
2213,0.121973,-0.00783856027,0.289063007
2214,0.121973,-0.00783856027,0.296875
2215,0.121973,-0.00783856027,0.304688007
2216,0.121973,-0.00783856027,0.3125
2217,0.121973,-0.00783856027,0.320313007
2218,0.121973,-0.00783856027,0.328125
2219,0.121973,-0.00783856027,0.335936993
2220,0.121973,-0.00783856027,0.34375
2221,0.121973,-0.00783856027,0.351563007
2222,0.122285001,-0.00776046002,-0.359411001
2223,0.122285001,-0.00776046002,0.359411001
2224,0.122612998,-0.00638255011,-0.382337987
2225,0.122612998,-0.00638255011,0.382337987
2226,0.123230003,-0.00752842985,-0.367222995
2227,0.123230003,-0.00752842985,0.367222995
2228,0.123301998,-0.00790094025,-0.382360995
2229,0.123301998,-0.00790094025,0.382360995
2230,0.123565003,-0.00751578016,-0.375
2231,0.123565003,-0.00751578016,0.375
2232,0.124173,0.0273678992,-0.396196991
2233,0.124173,0.0273678992,0.396196991
2234,0.124679998,0.0275129993,-0.390289009
2235,0.124679998,0.0275129993,0.390289009
2236,0.124692999,0.0279568005,-0.304688007
2237,0.124692999,0.0279568005,-0.296875
2238,0.124692999,0.0279568005,-0.289061993
2239,0.124692999,0.0279568005,-0.28125
2240,0.124692999,0.0279568005,-0.273438007
2241,0.124692999,0.0279568005,-0.265625
2242,0.124692999,0.0279568005,-0.257811993
2243,0.124692999,0.0279568005,-0.25
2244,0.124692999,0.0279568005,-0.242188007
2245,0.124692999,0.0279568005,-0.234375
2246,0.124692999,0.0279568005,-0.226561993
2247,0.124692999,0.0279568005,-0.21875
2248,0.124692999,0.0279568005,-0.210938007
2249,0.124692999,0.0279568005,-0.203125
2250,0.124692999,0.0279568005,-0.195313007
2251,0.124692999,0.0279568005,-0.1875
2252,0.124692999,0.0279568005,-0.179686993
2253,0.124692999,0.0279568005,-0.171875
2254,0.124692999,0.0279568005,-0.164063007
2255,0.124692999,0.0279568005,-0.15625
2256,0.124692999,0.0279568005,-0.148436993
2257,0.124692999,0.0279568005,-0.140625
2258,0.124692999,0.0279568005,-0.132811993
2259,0.124692999,0.0279568005,-0.125
2260,0.124692999,0.0279568005,-0.117187001
2261,0.124692999,0.0279568005,-0.109375
2262,0.124692999,0.0279568005,-0.101562001
2263,0.124692999,0.0279568005,-0.09375
2264,0.124692999,0.0279568005,-0.0859375
2265,0.124692999,0.0279568005,-0.078125
2266,0.124692999,0.0279568005,-0.0703125
2267,0.124692999,0.0279568005,-0.0625
2268,0.124692999,0.0279568005,-0.0546875
2269,0.124692999,0.0279568005,-0.046875
2270,0.124692999,0.0279568005,-0.0390625
2271,0.124692999,0.0279568005,-0.03125
2272,0.124692999,0.0279568005,-0.0234375
2273,0.124692999,0.0279568005,-0.015625
2274,0.124692999,0.0279568005,-0.0078125
2275,0.124692999,0.0279568005,-1e-12
2276,0.124692999,0.0279568005,0.0078125
2277,0.124692999,0.0279568005,0.015625
2278,0.124692999,0.0279568005,0.0234375
2279,0.124692999,0.0279568005,0.03125
2280,0.124692999,0.0279568005,0.0390625
2281,0.124692999,0.0279568005,0.046875
2282,0.124692999,0.0279568005,0.0546875
2283,0.124692999,0.0279568005,0.0625
2284,0.124692999,0.0279568005,0.0703125
2285,0.124692999,0.0279568005,0.078125
2286,0.124692999,0.0279568005,0.0859375
2287,0.124692999,0.0279568005,0.09375
2288,0.124692999,0.0279568005,0.101562999
2289,0.124692999,0.0279568005,0.109375
2290,0.124692999,0.0279568005,0.117187999
2291,0.124692999,0.0279568005,0.125
2292,0.124692999,0.0279568005,0.132813007
2293,0.124692999,0.0279568005,0.140625
2294,0.124692999,0.0279568005,0.148436993
2295,0.124692999,0.0279568005,0.15625
2296,0.124692999,0.0279568005,0.164061993
2297,0.124692999,0.0279568005,0.171875
2298,0.124692999,0.0279568005,0.179688007
2299,0.124692999,0.0279568005,0.1875
2300,0.124692999,0.0279568005,0.195311993
2301,0.124692999,0.0279568005,0.203125
2302,0.124692999,0.0279568005,0.210936993
2303,0.124692999,0.0279568005,0.21875
2304,0.124692999,0.0279568005,0.226563007
2305,0.124692999,0.0279568005,0.234375
2306,0.124692999,0.0279568005,0.242186993
2307,0.124692999,0.0279568005,0.25
2308,0.124692999,0.0279568005,0.257813007
2309,0.124692999,0.0279568005,0.265625
2310,0.124692999,0.0279568005,0.273436993
2311,0.124692999,0.0279568005,0.28125
2312,0.124692999,0.0279568005,0.289061993
2313,0.124692999,0.0279568005,0.296875
2314,0.124692999,0.0279568005,0.304686993
2315,0.124812998,0.0272339992,-0.382764012
2316,0.124812998,0.0272339992,0.382764012
2317,0.124866001,0.0269089006,-0.374965012
2318,0.124866001,0.0269089006,0.374965012
2319,0.124920003,0.0265825,-0.367166996
2320,0.124920003,0.0265825,0.367166996
2321,0.124973997,0.0262560993,-0.359367996
2322,0.124973997,0.0262560993,0.359367996
2323,0.125027999,0.0259297006,-0.35157001
2324,0.125027999,0.0259297006,0.35157001
2325,0.125082001,0.0256033,-0.343771011
2326,0.125082001,0.0256033,0.343771011
2327,0.125136003,0.0252768006,-0.335972995
2328,0.125136003,0.0252768006,0.335972995
2329,0.125173002,0.0112001998,-0.396643996
2330,0.125190005,0.0249504,-0.328173995
2331,0.125190005,0.0249504,0.328173995
2332,0.125219002,0.0109673999,0.396643996
2333,0.125244007,0.0246239994,-0.320376009
2334,0.125244007,0.0246239994,0.320376009
2335,0.125297993,0.0242976006,-0.312577009
2336,0.125297993,0.0242976006,0.312577009
2337,0.127040997,0.00919859018,-0.395956993
2338,0.127104998,0.00896677002,0.395956993
2339,0.127514005,-0.00448699994,-0.388779998
2340,0.127514005,-0.00448699994,0.388779998
2341,0.136342004,0.0292751007,-0.396322995
2342,0.136342004,0.0292751007,0.396322995
2343,0.136401996,0.0298222005,-0.234375
2344,0.136401996,0.0298222005,-0.226561993
2345,0.136401996,0.0298222005,-0.21875
2346,0.136401996,0.0298222005,-0.210936993
2347,0.136401996,0.0298222005,-0.203125
2348,0.136401996,0.0298222005,-0.195311993
2349,0.136401996,0.0298222005,-0.1875
2350,0.136401996,0.0298222005,-0.179688007
2351,0.136401996,0.0298222005,-0.171875
2352,0.136401996,0.0298222005,-0.164061993
2353,0.136401996,0.0298222005,-0.15625
2354,0.136401996,0.0298222005,-0.148436993
2355,0.136401996,0.0298222005,-0.140625
2356,0.136401996,0.0298222005,-0.132813007
2357,0.136401996,0.0298222005,-0.125
2358,0.136401996,0.0298222005,-0.117187999
2359,0.136401996,0.0298222005,-0.109375
2360,0.136401996,0.0298222005,-0.101562999
2361,0.136401996,0.0298222005,-0.09375
2362,0.136401996,0.0298222005,-0.0859375
2363,0.136401996,0.0298222005,-0.078125
2364,0.136401996,0.0298222005,-0.0703125
2365,0.136401996,0.0298222005,-0.0625
2366,0.136401996,0.0298222005,-0.0546875
2367,0.136401996,0.0298222005,-0.046875
2368,0.136401996,0.0298222005,-0.0390625
2369,0.136401996,0.0298222005,-0.03125
2370,0.136401996,0.0298222005,-0.0234375
2371,0.136401996,0.0298222005,-0.015625
2372,0.136401996,0.0298222005,-0.0078125
2373,0.136401996,0.0298222005,0
2374,0.136401996,0.0298222005,0.0078125
2375,0.136401996,0.0298222005,0.015625
2376,0.136401996,0.0298222005,0.0234375
2377,0.136401996,0.0298222005,0.03125
2378,0.136401996,0.0298222005,0.0390625
2379,0.136401996,0.0298222005,0.046875
2380,0.136401996,0.0298222005,0.0546875
2381,0.136401996,0.0298222005,0.0625
2382,0.136401996,0.0298222005,0.0703125
2383,0.136401996,0.0298222005,0.078125
2384,0.136401996,0.0298222005,0.0859375
2385,0.136401996,0.0298222005,0.09375
2386,0.136401996,0.0298222005,0.101562001
2387,0.136401996,0.0298222005,0.109375
2388,0.136401996,0.0298222005,0.117187999
2389,0.136401996,0.0298222005,0.125
2390,0.136401996,0.0298222005,0.132813007
2391,0.136401996,0.0298222005,0.140625
2392,0.136401996,0.0298222005,0.148438007
2393,0.136401996,0.0298222005,0.15625
2394,0.136401996,0.0298222005,0.164063007
2395,0.136401996,0.0298222005,0.171875
2396,0.136401996,0.0298222005,0.179686993
2397,0.136401996,0.0298222005,0.1875
2398,0.136401996,0.0298222005,0.195311993
2399,0.136401996,0.0298222005,0.203125
2400,0.136401996,0.0298222005,0.210936993
2401,0.136401996,0.0298222005,0.21875
2402,0.136401996,0.0298222005,0.226561993
2403,0.136401996,0.0298222005,0.234375
2404,0.13651,0.0291229002,-0.382708013
2405,0.13651,0.0291229002,0.382708013
2406,0.136540994,0.0294089001,-0.390271991
2407,0.136540994,0.0294089001,0.390271991
2408,0.136557996,0.0288111009,-0.374908
2409,0.136557996,0.0288111009,0.374908
2410,0.136607006,0.0284968,-0.367107987
2411,0.136607006,0.0284968,0.367107987
2412,0.136655003,0.0281825997,-0.359308988
2413,0.136655003,0.0281825997,0.359308988
2414,0.136703998,0.0278683007,-0.351509005
2415,0.136703998,0.0278683007,0.351509005
2416,0.136751994,0.0275539998,-0.343710005
2417,0.136751994,0.0275539998,0.343710005
2418,0.136800006,0.0272397008,-0.335909992
2419,0.136800006,0.0272397008,0.335909992
2420,0.136849001,0.0269255005,-0.328110993
2421,0.136849001,0.0269255005,0.328110993
2422,0.136896998,0.0266111996,-0.32031101
2423,0.136896998,0.0266111996,0.32031101
2424,0.136945993,0.0262969006,-0.31251201
2425,0.136945993,0.0262969006,0.31251201
2426,0.136994004,0.0259825997,-0.304711998
2427,0.136994004,0.0259825997,0.304711998
2428,0.137042999,0.0256683007,-0.296912998
2429,0.137042999,0.0256683007,0.296912998
2430,0.137090996,0.0253541004,-0.289112985
2431,0.137090996,0.0253541004,0.289112985
2432,0.137140006,0.0250397995,-0.281313986
2433,0.137140006,0.0250397995,0.281313986
2434,0.137188002,0.0247255005,-0.273514003
2435,0.137188002,0.0247255005,0.273514003
2436,0.137236997,0.0244111996,-0.265715003
2437,0.137236997,0.0244111996,0.265715003
2438,0.137284994,0.0240969993,-0.25791499
2439,0.137284994,0.0240969993,0.25791499
2440,0.137334004,0.0237827003,-0.250115007
2441,0.137334004,0.0237827003,0.250115007
2442,0.137382001,0.0234683994,-0.242315993
2443,0.137382001,0.0234683994,0.242315993
2444,0.137522995,0.0132592004,-0.398330986
2445,0.137577996,0.0130040003,0.398330986
2446,0.137585998,0.000330546987,-0.304769993
2447,0.137585998,0.000330546987,0.304769993
2448,0.137669995,1.5666999e-05,-0.312568992
2449,0.137669995,1.5666999e-05,0.312568992
2450,0.137753993,-0.000299212988,-0.320367992
2451,0.137753993,-0.000299212988,0.320367992
2452,0.137839004,-0.000614094024,-0.328166991
2453,0.137839004,-0.000614094024,0.328166991
2454,0.137923002,-0.000928974012,-0.335965991
2455,0.137923002,-0.000928974012,0.335965991
2456,0.138007998,-0.00124384998,-0.343764991
2457,0.138007998,-0.00124384998,0.343764991
2458,0.138091996,-0.00155873003,-0.351563007
2459,0.138091996,-0.00155873003,0.351563007
2460,0.138247997,-0.00185401004,-0.359351009
2461,0.138247997,-0.00185401004,0.359351009
2462,0.138524994,-0.00211787992,-0.367163986
2463,0.138524994,-0.00211787992,0.367163986
2464,0.138547003,-0.00283076009,-0.390159994
2465,0.138547003,-0.00283076009,0.390159994
2466,0.138615996,-0.00351435994,-0.296875
2467,0.138615996,-0.00351435994,-0.289061993
2468,0.138615996,-0.00351435994,-0.28125
2469,0.138615996,-0.00351435994,-0.273438007
2470,0.138615996,-0.00351435994,-0.265625
2471,0.138615996,-0.00351435994,-0.257811993
2472,0.138615996,-0.00351435994,-0.25
2473,0.138615996,-0.00351435994,-0.242188007
2474,0.138615996,-0.00351435994,-0.234375
2475,0.138615996,-0.00351435994,-0.226561993
2476,0.138615996,-0.00351435994,-0.21875
2477,0.138615996,-0.00351435994,-0.210936993
2478,0.138615996,-0.00351435994,-0.203125
2479,0.138615996,-0.00351435994,-0.195311993
2480,0.138615996,-0.00351435994,-0.1875
2481,0.138615996,-0.00351435994,-0.179688007
2482,0.138615996,-0.00351435994,-0.171875
2483,0.138615996,-0.00351435994,-0.164061993
2484,0.138615996,-0.00351435994,-0.15625
2485,0.138615996,-0.00351435994,-0.148438007
2486,0.138615996,-0.00351435994,-0.140625
2487,0.138615996,-0.00351435994,-0.132811993
2488,0.138615996,-0.00351435994,-0.125
2489,0.138615996,-0.00351435994,-0.117187999
2490,0.138615996,-0.00351435994,-0.109375
2491,0.138615996,-0.00351435994,-0.101562001
2492,0.138615996,-0.00351435994,-0.09375
2493,0.138615996,-0.00351435994,-0.0859375
2494,0.138615996,-0.00351435994,-0.078125
2495,0.138615996,-0.00351435994,-0.0703125
2496,0.138615996,-0.00351435994,-0.0625
2497,0.138615996,-0.00351435994,-0.0546875
2498,0.138615996,-0.00351435994,-0.046875
2499,0.138615996,-0.00351435994,-0.0390625
2500,0.138615996,-0.00351435994,-0.03125
2501,0.138615996,-0.00351435994,-0.0234375
2502,0.138615996,-0.00351435994,-0.015625
2503,0.138615996,-0.00351435994,-0.0078125
2504,0.138615996,-0.00351435994,-1e-12
2505,0.138615996,-0.00351435994,0.0078125
2506,0.138615996,-0.00351435994,0.015625
2507,0.138615996,-0.00351435994,0.0234375
2508,0.138615996,-0.00351435994,0.03125
2509,0.138615996,-0.00351435994,0.0390625
2510,0.138615996,-0.00351435994,0.046875
2511,0.138615996,-0.00351435994,0.0546875
2512,0.138615996,-0.00351435994,0.0625
2513,0.138615996,-0.00351435994,0.0703125
2514,0.138615996,-0.00351435994,0.078125
2515,0.138615996,-0.00351435994,0.0859375
2516,0.138615996,-0.00351435994,0.09375
2517,0.138615996,-0.00351435994,0.101562999
2518,0.138615996,-0.00351435994,0.109375
2519,0.138615996,-0.00351435994,0.117187999
2520,0.138615996,-0.00351435994,0.125
2521,0.138615996,-0.00351435994,0.132811993
2522,0.138615996,-0.00351435994,0.140625
2523,0.138615996,-0.00351435994,0.148436993
2524,0.138615996,-0.00351435994,0.15625
2525,0.138615996,-0.00351435994,0.164061993
2526,0.138615996,-0.00351435994,0.171875
2527,0.138615996,-0.00351435994,0.179686993
2528,0.138615996,-0.00351435994,0.1875
2529,0.138615996,-0.00351435994,0.195311993
2530,0.138615996,-0.00351435994,0.203125
2531,0.138615996,-0.00351435994,0.210938007
2532,0.138615996,-0.00351435994,0.21875
2533,0.138615996,-0.00351435994,0.226563007
2534,0.138615996,-0.00351435994,0.234375
2535,0.138615996,-0.00351435994,0.242188007
2536,0.138615996,-0.00351435994,0.25
2537,0.138615996,-0.00351435994,0.257813007
2538,0.138615996,-0.00351435994,0.265625
2539,0.138615996,-0.00351435994,0.273436993
2540,0.138615996,-0.00351435994,0.28125
2541,0.138615996,-0.00351435994,0.289061993
2542,0.138615996,-0.00351435994,0.296875
2543,0.138633996,-0.00273396005,-0.382752001
2544,0.138633996,-0.00273396005,0.382752001
2545,0.138706997,-0.0024061799,-0.374987006
2546,0.138706997,-0.0024061799,0.374987006
2547,0.139043003,-0.00159581006,-0.396279991
2548,0.139043003,-0.00159581006,0.396279991
2549,0.148980007,0.0315016992,-0.396696001
2550,0.148980007,0.0315016992,0.396696001
2551,0.149378002,0.0158344992,-0.398575991
2552,0.149460003,0.0154841999,0.398575991
2553,0.14982,-0.000454925001,-0.375
2554,0.14982,-0.000454925001,0.375
2555,0.14982,-0.000454702007,-0.367188007
2556,0.14982,-0.000454702007,-0.359375
2557,0.14982,-0.000454702007,-0.351561993
2558,0.14982,-0.000454702007,-0.34375
2559,0.14982,-0.000454702007,-0.335938007
2560,0.14982,-0.000454702007,-0.328125
2561,0.14982,-0.000454702007,-0.320311993
2562,0.14982,-0.000454702007,-0.3125
2563,0.14982,-0.000454702007,-0.304688007
2564,0.14982,-0.000454702007,-0.296875
2565,0.14982,-0.000454702007,-0.289063007
2566,0.14982,-0.000454702007,-0.28125
2567,0.14982,-0.000454702007,-0.273438007
2568,0.14982,-0.000454702007,-0.265625
2569,0.14982,-0.000454702007,-0.257811993
2570,0.14982,-0.000454702007,-0.25
2571,0.14982,-0.000454702007,-0.242188007
2572,0.14982,-0.000454702007,-0.234375
2573,0.14982,-0.000454702007,-0.226561993
2574,0.14982,-0.000454702007,-0.21875
2575,0.14982,-0.000454702007,-0.210936993
2576,0.14982,-0.000454702007,-0.203125
2577,0.14982,-0.000454702007,-0.195311993
2578,0.14982,-0.000454702007,-0.1875
2579,0.14982,-0.000454702007,-0.179688007
2580,0.14982,-0.000454702007,-0.171875
2581,0.14982,-0.000454702007,-0.164063007
2582,0.14982,-0.000454702007,-0.15625
2583,0.14982,-0.000454702007,-0.148438007
2584,0.14982,-0.000454702007,-0.140625
2585,0.14982,-0.000454702007,-0.132813007
2586,0.14982,-0.000454702007,-0.125
2587,0.14982,-0.000454702007,-0.117187999
2588,0.14982,-0.000454702007,-0.109375
2589,0.14982,-0.000454702007,-0.101562001
2590,0.14982,-0.000454702007,-0.09375
2591,0.14982,-0.000454702007,-0.0859375
2592,0.14982,-0.000454702007,-0.078125
2593,0.14982,-0.000454702007,-0.0703125
2594,0.14982,-0.000454702007,-0.0625
2595,0.14982,-0.000454702007,-0.0546875
2596,0.14982,-0.000454702007,-0.046875
2597,0.14982,-0.000454702007,-0.0390625
2598,0.14982,-0.000454702007,-0.03125
2599,0.14982,-0.000454702007,-0.0234375
2600,0.14982,-0.000454702007,-0.015625
2601,0.14982,-0.000454702007,-0.0078125
2602,0.14982,-0.000454702007,0
2603,0.14982,-0.000454702007,0.0078125
2604,0.14982,-0.000454702007,0.015625
2605,0.14982,-0.000454702007,0.0234375
2606,0.14982,-0.000454702007,0.03125
2607,0.14982,-0.000454702007,0.0390625
2608,0.14982,-0.000454702007,0.046875
2609,0.14982,-0.000454702007,0.0546875
2610,0.14982,-0.000454702007,0.0625
2611,0.14982,-0.000454702007,0.0703125
2612,0.14982,-0.000454702007,0.078125
2613,0.14982,-0.000454702007,0.0859375
2614,0.14982,-0.000454702007,0.09375
2615,0.14982,-0.000454702007,0.101562001
2616,0.14982,-0.000454702007,0.109375
2617,0.14982,-0.000454702007,0.117187001
2618,0.14982,-0.000454702007,0.125
2619,0.14982,-0.000454702007,0.132811993
2620,0.14982,-0.000454702007,0.140625
2621,0.14982,-0.000454702007,0.148436993
2622,0.14982,-0.000454702007,0.15625
2623,0.14982,-0.000454702007,0.164063007
2624,0.14982,-0.000454702007,0.171875
2625,0.14982,-0.000454702007,0.179686993
2626,0.14982,-0.000454702007,0.1875
2627,0.14982,-0.000454702007,0.195311993
2628,0.14982,-0.000454702007,0.203125
2629,0.14982,-0.000454702007,0.210938007
2630,0.14982,-0.000454702007,0.21875
2631,0.14982,-0.000454702007,0.226563007
2632,0.14982,-0.000454702007,0.234375
2633,0.14982,-0.000454702007,0.242188007
2634,0.14982,-0.000454702007,0.25
2635,0.14982,-0.000454702007,0.257813007
2636,0.14982,-0.000454702007,0.265625
2637,0.14982,-0.000454702007,0.273436993
2638,0.14982,-0.000454702007,0.28125
2639,0.14982,-0.000454702007,0.289063007
2640,0.14982,-0.000454702007,0.296875
2641,0.14982,-0.000454702007,0.304686993
2642,0.14982,-0.000454702007,0.3125
2643,0.14982,-0.000454702007,0.320313007
2644,0.14982,-0.000454702007,0.328125
2645,0.14982,-0.000454702007,0.335936993
2646,0.14982,-0.000454702007,0.34375
2647,0.14982,-0.000454702007,0.351561993
2648,0.14982,-0.000454702007,0.359375
2649,0.14982,-0.000454702007,0.367188007
2650,0.149820998,-0.000457515009,-0.382811993
2651,0.149820998,-0.000457515009,0.382811993
2652,0.149956003,-0.000420421013,-0.390372992
2653,0.149956003,-0.000420421013,0.390372992
2654,0.150778994,9.8055403e-05,-0.396510005
2655,0.150778994,9.8055403e-05,0.396510005
2656,0.152854994,0.0322556011,-0.382813007
2657,0.152854994,0.0322556011,-0.375
2658,0.152854994,0.0322556011,-0.367188007
2659,0.152854994,0.0322556011,-0.359375
2660,0.152854994,0.0322556011,-0.351561993
2661,0.152854994,0.0322556011,-0.34375
2662,0.152854994,0.0322556011,-0.335938007
2663,0.152854994,0.0322556011,-0.328125
2664,0.152854994,0.0322556011,-0.320311993
2665,0.152854994,0.0322556011,-0.3125
2666,0.152854994,0.0322556011,-0.304688007
2667,0.152854994,0.0322556011,-0.296875
2668,0.152854994,0.0322556011,-0.289063007
2669,0.152854994,0.0322556011,-0.28125
2670,0.152854994,0.0322556011,-0.273438007
2671,0.152854994,0.0322556011,-0.265625
2672,0.152854994,0.0322556011,-0.257811993
2673,0.152854994,0.0322556011,-0.25
2674,0.152854994,0.0322556011,-0.242186993
2675,0.152854994,0.0322556011,-0.234375
2676,0.152854994,0.0322556011,-0.226561993
2677,0.152854994,0.0322556011,-0.21875
2678,0.152854994,0.0322556011,-0.210936993
2679,0.152854994,0.0322556011,-0.203125
2680,0.152854994,0.0322556011,-0.195311993
2681,0.152854994,0.0322556011,-0.1875
2682,0.152854994,0.0322556011,-0.179688007
2683,0.152854994,0.0322556011,-0.171875
2684,0.152854994,0.0322556011,-0.164061993
2685,0.152854994,0.0322556011,-0.15625
2686,0.152854994,0.0322556011,-0.148438007
2687,0.152854994,0.0322556011,-0.140625
2688,0.152854994,0.0322556011,-0.132811993
2689,0.152854994,0.0322556011,-0.125
2690,0.152854994,0.0322556011,-0.117187999
2691,0.152854994,0.0322556011,-0.109375
2692,0.152854994,0.0322556011,-0.101562001
2693,0.152854994,0.0322556011,-0.09375
2694,0.152854994,0.0322556011,-0.0859375
2695,0.152854994,0.0322556011,-0.078125
2696,0.152854994,0.0322556011,-0.0703125
2697,0.152854994,0.0322556011,-0.0625
2698,0.152854994,0.0322556011,-0.0546875
2699,0.152854994,0.0322556011,-0.046875
2700,0.152854994,0.0322556011,-0.0390625
2701,0.152854994,0.0322556011,-0.03125
2702,0.152854994,0.0322556011,-0.0234375
2703,0.152854994,0.0322556011,-0.015625
2704,0.152854994,0.0322556011,-0.0078125
2705,0.152854994,0.0322556011,-0
2706,0.152854994,0.0322556011,0.0078125
2707,0.152854994,0.0322556011,0.015625
2708,0.152854994,0.0322556011,0.0234375
2709,0.152854994,0.0322556011,0.03125
2710,0.152854994,0.0322556011,0.0390625
2711,0.152854994,0.0322556011,0.046875
2712,0.152854994,0.0322556011,0.0546875
2713,0.152854994,0.0322556011,0.0625
2714,0.152854994,0.0322556011,0.0703125
2715,0.152854994,0.0322556011,0.078125
2716,0.152854994,0.0322556011,0.0859375
2717,0.152854994,0.0322556011,0.09375
2718,0.152854994,0.0322556011,0.101562999
2719,0.152854994,0.0322556011,0.109375
2720,0.152854994,0.0322556011,0.117187001
2721,0.152854994,0.0322556011,0.125
2722,0.152854994,0.0322556011,0.132811993
2723,0.152854994,0.0322556011,0.140625
2724,0.152854994,0.0322556011,0.148436993
2725,0.152854994,0.0322556011,0.15625
2726,0.152854994,0.0322556011,0.164061993
2727,0.152854994,0.0322556011,0.171875
2728,0.152854994,0.0322556011,0.179688007
2729,0.152854994,0.0322556011,0.1875
2730,0.152854994,0.0322556011,0.195313007
2731,0.152854994,0.0322556011,0.203125
2732,0.152854994,0.0322556011,0.210938007
2733,0.152854994,0.0322556011,0.21875
2734,0.152854994,0.0322556011,0.226563007
2735,0.152854994,0.0322556011,0.234375
2736,0.152854994,0.0322556011,0.242188007
2737,0.152854994,0.0322556011,0.25
2738,0.152854994,0.0322556011,0.257811993
2739,0.152854994,0.0322556011,0.265625
2740,0.152854994,0.0322556011,0.273438007
2741,0.152854994,0.0322556011,0.28125
2742,0.152854994,0.0322556011,0.289061993
2743,0.152854994,0.0322556011,0.296875
2744,0.152854994,0.0322556011,0.304686993
2745,0.152854994,0.0322556011,0.3125
2746,0.152854994,0.0322556011,0.320311993
2747,0.152854994,0.0322556011,0.328125
2748,0.152854994,0.0322556011,0.335936993
2749,0.152854994,0.0322556011,0.34375
2750,0.152854994,0.0322556011,0.351561993
2751,0.152854994,0.0322556011,0.359375
2752,0.152854994,0.0322556011,0.367186993
2753,0.152854994,0.0322556011,0.375
2754,0.152854994,0.0322556011,0.382811993
2755,0.152996004,0.0322760008,-0.390363008
2756,0.152996004,0.0322760008,0.390363008
2757,0.153601006,0.0323624983,-0.396117002
2758,0.153601006,0.0323624983,0.396117002
2759,0.161146998,0.00274295011,-0.382811993
2760,0.161146998,0.00274295011,0.382811993
2761,0.161146998,0.00274368003,-0.375
2762,0.161146998,0.00274368003,-0.367188007
2763,0.161146998,0.00274368003,-0.359375
2764,0.161146998,0.00274368003,-0.351561993
2765,0.161146998,0.00274368003,-0.34375
2766,0.161146998,0.00274368003,-0.335938007
2767,0.161146998,0.00274368003,-0.328125
2768,0.161146998,0.00274368003,-0.320311993
2769,0.161146998,0.00274368003,-0.3125
2770,0.161146998,0.00274368003,-0.304688007
2771,0.161146998,0.00274368003,-0.296875
2772,0.161146998,0.00274368003,-0.289063007
2773,0.161146998,0.00274368003,-0.28125
2774,0.161146998,0.00274368003,-0.273436993
2775,0.161146998,0.00274368003,-0.265625
2776,0.161146998,0.00274368003,-0.257813007
2777,0.161146998,0.00274368003,-0.25
2778,0.161146998,0.00274368003,-0.242186993
2779,0.161146998,0.00274368003,-0.234375
2780,0.161146998,0.00274368003,-0.226563007
2781,0.161146998,0.00274368003,-0.21875
2782,0.161146998,0.00274368003,-0.210938007
2783,0.161146998,0.00274368003,-0.203125
2784,0.161146998,0.00274368003,-0.195313007
2785,0.161146998,0.00274368003,-0.1875
2786,0.161146998,0.00274368003,-0.179688007
2787,0.161146998,0.00274368003,-0.171875
2788,0.161146998,0.00274368003,-0.164061993
2789,0.161146998,0.00274368003,-0.15625
2790,0.161146998,0.00274368003,-0.148438007
2791,0.161146998,0.00274368003,-0.140625
2792,0.161146998,0.00274368003,-0.132813007
2793,0.161146998,0.00274368003,-0.125
2794,0.161146998,0.00274368003,-0.117187999
2795,0.161146998,0.00274368003,-0.109375
2796,0.161146998,0.00274368003,-0.101562999
2797,0.161146998,0.00274368003,-0.09375
2798,0.161146998,0.00274368003,-0.0859375
2799,0.161146998,0.00274368003,-0.078125
2800,0.161146998,0.00274368003,-0.0703125
2801,0.161146998,0.00274368003,-0.0625
2802,0.161146998,0.00274368003,-0.0546875
2803,0.161146998,0.00274368003,-0.046875
2804,0.161146998,0.00274368003,-0.0390625
2805,0.161146998,0.00274368003,-0.03125
2806,0.161146998,0.00274368003,-0.0234375
2807,0.161146998,0.00274368003,-0.015625
2808,0.161146998,0.00274368003,-0.0078125
2809,0.161146998,0.00274368003,-0
2810,0.161146998,0.00274368003,0.0078125
2811,0.161146998,0.00274368003,0.015625
2812,0.161146998,0.00274368003,0.0234375
2813,0.161146998,0.00274368003,0.03125
2814,0.161146998,0.00274368003,0.0390625
2815,0.161146998,0.00274368003,0.046875
2816,0.161146998,0.00274368003,0.0546875
2817,0.161146998,0.00274368003,0.0625
2818,0.161146998,0.00274368003,0.0703125
2819,0.161146998,0.00274368003,0.078125
2820,0.161146998,0.00274368003,0.0859375
2821,0.161146998,0.00274368003,0.09375
2822,0.161146998,0.00274368003,0.101562001
2823,0.161146998,0.00274368003,0.109375
2824,0.161146998,0.00274368003,0.117187001
2825,0.161146998,0.00274368003,0.125
2826,0.161146998,0.00274368003,0.132813007
2827,0.161146998,0.00274368003,0.140625
2828,0.161146998,0.00274368003,0.148438007
2829,0.161146998,0.00274368003,0.15625
2830,0.161146998,0.00274368003,0.164063007
2831,0.161146998,0.00274368003,0.171875
2832,0.161146998,0.00274368003,0.179686993
2833,0.161146998,0.00274368003,0.1875
2834,0.161146998,0.00274368003,0.195311993
2835,0.161146998,0.00274368003,0.203125
2836,0.161146998,0.00274368003,0.210936993
2837,0.161146998,0.00274368003,0.21875
2838,0.161146998,0.00274368003,0.226561993
2839,0.161146998,0.00274368003,0.234375
2840,0.161146998,0.00274368003,0.242186993
2841,0.161146998,0.00274368003,0.25
2842,0.161146998,0.00274368003,0.257811993
2843,0.161146998,0.00274368003,0.265625
2844,0.161146998,0.00274368003,0.273438007
2845,0.161146998,0.00274368003,0.28125
2846,0.161146998,0.00274368003,0.289063007
2847,0.161146998,0.00274368003,0.296875
2848,0.161146998,0.00274368003,0.304688007
2849,0.161146998,0.00274368003,0.3125
2850,0.161146998,0.00274368003,0.320311993
2851,0.161146998,0.00274368003,0.328125
2852,0.161146998,0.00274368003,0.335936993
2853,0.161146998,0.00274368003,0.34375
2854,0.161146998,0.00274368003,0.351561993
2855,0.161146998,0.00274368003,0.359375
2856,0.161146998,0.00274368003,0.367188007
2857,0.161146998,0.00274368003,0.375
2858,0.161192,0.0184931997,-0.398575991
2859,0.161215007,0.00275738002,-0.390347004
2860,0.161215007,0.00275738002,0.390347004
2861,0.161290005,0.0180980004,0.398575991
2862,0.162109002,0.0031570401,-0.396531999
2863,0.162109002,0.0031570401,0.396531999
2864,0.162974,0.0336568989,-0.396530002
2865,0.162974,0.0336568989,0.396530002
2866,0.163480997,0.0337252989,-0.390347004
2867,0.163480997,0.0337252989,0.390347004
2868,0.163489997,0.0337264985,-0.382811993
2869,0.163489997,0.0337264985,-0.375
2870,0.163489997,0.0337264985,-0.367188007
2871,0.163489997,0.0337264985,-0.359375
2872,0.163489997,0.0337264985,-0.351561993
2873,0.163489997,0.0337264985,-0.34375
2874,0.163489997,0.0337264985,-0.335938007
2875,0.163489997,0.0337264985,-0.328125
2876,0.163489997,0.0337264985,-0.320311993
2877,0.163489997,0.0337264985,-0.3125
2878,0.163489997,0.0337264985,-0.304688007
2879,0.163489997,0.0337264985,-0.296875
2880,0.163489997,0.0337264985,-0.289063007
2881,0.163489997,0.0337264985,-0.28125
2882,0.163489997,0.0337264985,-0.273438007
2883,0.163489997,0.0337264985,-0.265625
2884,0.163489997,0.0337264985,-0.257811993
2885,0.163489997,0.0337264985,-0.25
2886,0.163489997,0.0337264985,-0.242186993
2887,0.163489997,0.0337264985,-0.234375
2888,0.163489997,0.0337264985,-0.226561993
2889,0.163489997,0.0337264985,-0.21875
2890,0.163489997,0.0337264985,-0.210936993
2891,0.163489997,0.0337264985,-0.203125
2892,0.163489997,0.0337264985,-0.195311993
2893,0.163489997,0.0337264985,-0.1875
2894,0.163489997,0.0337264985,-0.179688007
2895,0.163489997,0.0337264985,-0.171875
2896,0.163489997,0.0337264985,-0.164061993
2897,0.163489997,0.0337264985,-0.15625
2898,0.163489997,0.0337264985,-0.148436993
2899,0.163489997,0.0337264985,-0.140625
2900,0.163489997,0.0337264985,-0.132813007
2901,0.163489997,0.0337264985,-0.125
2902,0.163489997,0.0337264985,-0.117187001
2903,0.163489997,0.0337264985,-0.109375
2904,0.163489997,0.0337264985,-0.101562001
2905,0.163489997,0.0337264985,-0.09375
2906,0.163489997,0.0337264985,-0.0859375
2907,0.163489997,0.0337264985,-0.078125
2908,0.163489997,0.0337264985,-0.0703125
2909,0.163489997,0.0337264985,-0.0625
2910,0.163489997,0.0337264985,-0.0546875
2911,0.163489997,0.0337264985,-0.046875
2912,0.163489997,0.0337264985,-0.0390625
2913,0.163489997,0.0337264985,-0.03125
2914,0.163489997,0.0337264985,-0.0234375
2915,0.163489997,0.0337264985,-0.015625
2916,0.163489997,0.0337264985,-0.0078125
2917,0.163489997,0.0337264985,0
2918,0.163489997,0.0337264985,0.0078125
2919,0.163489997,0.0337264985,0.015625
2920,0.163489997,0.0337264985,0.0234375
2921,0.163489997,0.0337264985,0.03125
2922,0.163489997,0.0337264985,0.0390625
2923,0.163489997,0.0337264985,0.046875
2924,0.163489997,0.0337264985,0.0546875
2925,0.163489997,0.0337264985,0.0625
2926,0.163489997,0.0337264985,0.0703125
2927,0.163489997,0.0337264985,0.078125
2928,0.163489997,0.0337264985,0.0859375
2929,0.163489997,0.0337264985,0.09375
2930,0.163489997,0.0337264985,0.101562999
2931,0.163489997,0.0337264985,0.109375
2932,0.163489997,0.0337264985,0.117187001
2933,0.163489997,0.0337264985,0.125
2934,0.163489997,0.0337264985,0.132811993
2935,0.163489997,0.0337264985,0.140625
2936,0.163489997,0.0337264985,0.148438007
2937,0.163489997,0.0337264985,0.15625
2938,0.163489997,0.0337264985,0.164063007
2939,0.163489997,0.0337264985,0.171875
2940,0.163489997,0.0337264985,0.179688007
2941,0.163489997,0.0337264985,0.1875
2942,0.163489997,0.0337264985,0.195313007
2943,0.163489997,0.0337264985,0.203125
2944,0.163489997,0.0337264985,0.210938007
2945,0.163489997,0.0337264985,0.21875
2946,0.163489997,0.0337264985,0.226561993
2947,0.163489997,0.0337264985,0.234375
2948,0.163489997,0.0337264985,0.242188007
2949,0.163489997,0.0337264985,0.25
2950,0.163489997,0.0337264985,0.257813007
2951,0.163489997,0.0337264985,0.265625
2952,0.163489997,0.0337264985,0.273438007
2953,0.163489997,0.0337264985,0.28125
2954,0.163489997,0.0337264985,0.289061993
2955,0.163489997,0.0337264985,0.296875
2956,0.163489997,0.0337264985,0.304686993
2957,0.163489997,0.0337264985,0.3125
2958,0.163489997,0.0337264985,0.320311993
2959,0.163489997,0.0337264985,0.328125
2960,0.163489997,0.0337264985,0.335936993
2961,0.163489997,0.0337264985,0.34375
2962,0.163489997,0.0337264985,0.351563007
2963,0.163489997,0.0337264985,0.359375
2964,0.163489997,0.0337264985,0.367188007
2965,0.163489997,0.0337264985,0.375
2966,0.163489997,0.0337264985,0.382813007
2967,0.163789004,0.0190920997,-0.398575991
2968,0.163862005,0.0186822992,0.398575991
2969,0.171035007,0.00561361015,-0.396117002
2970,0.171035007,0.00561361015,0.396117002
2971,0.171459004,0.00573913008,-0.390363008
2972,0.171459004,0.00573913008,0.390363008
2973,0.171545997,0.0057648099,-0.382811993
2974,0.171545997,0.0057648099,-0.375
2975,0.171545997,0.0057648099,-0.367188007
2976,0.171545997,0.0057648099,-0.359375
2977,0.171545997,0.0057648099,-0.351561993
2978,0.171545997,0.0057648099,-0.34375
2979,0.171545997,0.0057648099,-0.335938007
2980,0.171545997,0.0057648099,-0.328125
2981,0.171545997,0.0057648099,-0.320311993
2982,0.171545997,0.0057648099,-0.3125
2983,0.171545997,0.0057648099,-0.304688007
2984,0.171545997,0.0057648099,-0.296875
2985,0.171545997,0.0057648099,-0.289063007
2986,0.171545997,0.0057648099,-0.28125
2987,0.171545997,0.0057648099,-0.273438007
2988,0.171545997,0.0057648099,-0.265625
2989,0.171545997,0.0057648099,-0.257811993
2990,0.171545997,0.0057648099,-0.25
2991,0.171545997,0.0057648099,-0.242188007
2992,0.171545997,0.0057648099,-0.234375
2993,0.171545997,0.0057648099,-0.226563007
2994,0.171545997,0.0057648099,-0.21875
2995,0.171545997,0.0057648099,-0.210938007
2996,0.171545997,0.0057648099,-0.203125
2997,0.171545997,0.0057648099,-0.195311993
2998,0.171545997,0.0057648099,-0.1875
2999,0.171545997,0.0057648099,-0.179688007
3000,0.171545997,0.0057648099,-0.171875
3001,0.171545997,0.0057648099,-0.164063007
3002,0.171545997,0.0057648099,-0.15625
3003,0.171545997,0.0057648099,-0.148438007
3004,0.171545997,0.0057648099,-0.140625
3005,0.171545997,0.0057648099,-0.132813007
3006,0.171545997,0.0057648099,-0.125
3007,0.171545997,0.0057648099,-0.117187999
3008,0.171545997,0.0057648099,-0.109375
3009,0.171545997,0.0057648099,-0.101562999
3010,0.171545997,0.0057648099,-0.09375
3011,0.171545997,0.0057648099,-0.0859375
3012,0.171545997,0.0057648099,-0.078125
3013,0.171545997,0.0057648099,-0.0703125
3014,0.171545997,0.0057648099,-0.0625
3015,0.171545997,0.0057648099,-0.0546875
3016,0.171545997,0.0057648099,-0.046875
3017,0.171545997,0.0057648099,-0.0390625
3018,0.171545997,0.0057648099,-0.03125
3019,0.171545997,0.0057648099,-0.0234375
3020,0.171545997,0.0057648099,-0.015625
3021,0.171545997,0.0057648099,-0.0078125
3022,0.171545997,0.0057648099,0
3023,0.171545997,0.0057648099,0.0078125
3024,0.171545997,0.0057648099,0.015625
3025,0.171545997,0.0057648099,0.0234375
3026,0.171545997,0.0057648099,0.03125
3027,0.171545997,0.0057648099,0.0390625
3028,0.171545997,0.0057648099,0.046875
3029,0.171545997,0.0057648099,0.0546875
3030,0.171545997,0.0057648099,0.0625
3031,0.171545997,0.0057648099,0.0703125
3032,0.171545997,0.0057648099,0.078125
3033,0.171545997,0.0057648099,0.0859375
3034,0.171545997,0.0057648099,0.09375
3035,0.171545997,0.0057648099,0.101562001
3036,0.171545997,0.0057648099,0.109375
3037,0.171545997,0.0057648099,0.117187001
3038,0.171545997,0.0057648099,0.125
3039,0.171545997,0.0057648099,0.132811993
3040,0.171545997,0.0057648099,0.140625
3041,0.171545997,0.0057648099,0.148436993
3042,0.171545997,0.0057648099,0.15625
3043,0.171545997,0.0057648099,0.164063007
3044,0.171545997,0.0057648099,0.171875
3045,0.171545997,0.0057648099,0.179688007
3046,0.171545997,0.0057648099,0.1875
3047,0.171545997,0.0057648099,0.195313007
3048,0.171545997,0.0057648099,0.203125
3049,0.171545997,0.0057648099,0.210938007
3050,0.171545997,0.0057648099,0.21875
3051,0.171545997,0.0057648099,0.226561993
3052,0.171545997,0.0057648099,0.234375
3053,0.171545997,0.0057648099,0.242188007
3054,0.171545997,0.0057648099,0.25
3055,0.171545997,0.0057648099,0.257813007
3056,0.171545997,0.0057648099,0.265625
3057,0.171545997,0.0057648099,0.273438007
3058,0.171545997,0.0057648099,0.28125
3059,0.171545997,0.0057648099,0.289061993
3060,0.171545997,0.0057648099,0.296875
3061,0.171545997,0.0057648099,0.304688007
3062,0.171545997,0.0057648099,0.3125
3063,0.171545997,0.0057648099,0.320313007
3064,0.171545997,0.0057648099,0.328125
3065,0.171545997,0.0057648099,0.335938007
3066,0.171545997,0.0057648099,0.34375
3067,0.171545997,0.0057648099,0.351561993
3068,0.171545997,0.0057648099,0.359375
3069,0.171545997,0.0057648099,0.367188007
3070,0.171545997,0.0057648099,0.375
3071,0.171545997,0.0057648099,0.382811993
3072,0.174934,0.0351164006,-0.396609008
3073,0.174934,0.0351164006,0.396609008
3074,0.175356001,0.0352849998,-0.390372992
3075,0.175356001,0.0352849998,0.390372992
3076,0.175421,0.0352932997,-0.382811993
3077,0.175421,0.0352932997,-0.375
3078,0.175421,0.0352932997,-0.367188007
3079,0.175421,0.0352932997,-0.359375
3080,0.175421,0.0352932997,-0.351561993
3081,0.175421,0.0352932997,-0.34375
3082,0.175421,0.0352932997,-0.335938007
3083,0.175421,0.0352932997,-0.328125
3084,0.175421,0.0352932997,-0.320311993
3085,0.175421,0.0352932997,-0.3125
3086,0.175421,0.0352932997,-0.304686993
3087,0.175421,0.0352932997,-0.296875
3088,0.175421,0.0352932997,-0.289063007
3089,0.175421,0.0352932997,-0.28125
3090,0.175421,0.0352932997,-0.273438007
3091,0.175421,0.0352932997,-0.265625
3092,0.175421,0.0352932997,-0.257811993
3093,0.175421,0.0352932997,-0.25
3094,0.175421,0.0352932997,-0.242188007
3095,0.175421,0.0352932997,-0.234375
3096,0.175421,0.0352932997,-0.226561993
3097,0.175421,0.0352932997,-0.21875
3098,0.175421,0.0352932997,-0.210936993
3099,0.175421,0.0352932997,-0.203125
3100,0.175421,0.0352932997,-0.195311993
3101,0.175421,0.0352932997,-0.1875
3102,0.175421,0.0352932997,-0.179688007
3103,0.175421,0.0352932997,-0.171875
3104,0.175421,0.0352932997,-0.164061993
3105,0.175421,0.0352932997,-0.15625
3106,0.175421,0.0352932997,-0.148438007
3107,0.175421,0.0352932997,-0.140625
3108,0.175421,0.0352932997,-0.132813007
3109,0.175421,0.0352932997,-0.125
3110,0.175421,0.0352932997,-0.117187999
3111,0.175421,0.0352932997,-0.109375
3112,0.175421,0.0352932997,-0.101562001
3113,0.175421,0.0352932997,-0.09375
3114,0.175421,0.0352932997,-0.0859375
3115,0.175421,0.0352932997,-0.078125
3116,0.175421,0.0352932997,-0.0703125
3117,0.175421,0.0352932997,-0.0625
3118,0.175421,0.0352932997,-0.0546875
3119,0.175421,0.0352932997,-0.046875
3120,0.175421,0.0352932997,-0.0390625
3121,0.175421,0.0352932997,-0.03125
3122,0.175421,0.0352932997,-0.0234375
3123,0.175421,0.0352932997,-0.015625
3124,0.175421,0.0352932997,-0.0078125
3125,0.175421,0.0352932997,0
3126,0.175421,0.0352932997,0.0078125
3127,0.175421,0.0352932997,0.015625
3128,0.175421,0.0352932997,0.0234375
3129,0.175421,0.0352932997,0.03125
3130,0.175421,0.0352932997,0.0390625
3131,0.175421,0.0352932997,0.046875
3132,0.175421,0.0352932997,0.0546875
3133,0.175421,0.0352932997,0.0625
3134,0.175421,0.0352932997,0.0703125
3135,0.175421,0.0352932997,0.078125
3136,0.175421,0.0352932997,0.0859375
3137,0.175421,0.0352932997,0.09375
3138,0.175421,0.0352932997,0.101562001
3139,0.175421,0.0352932997,0.109375
3140,0.175421,0.0352932997,0.117187001
3141,0.175421,0.0352932997,0.125
3142,0.175421,0.0352932997,0.132811993
3143,0.175421,0.0352932997,0.140625
3144,0.175421,0.0352932997,0.148438007
3145,0.175421,0.0352932997,0.15625
3146,0.175421,0.0352932997,0.164063007
3147,0.175421,0.0352932997,0.171875
3148,0.175421,0.0352932997,0.179688007
3149,0.175421,0.0352932997,0.1875
3150,0.175421,0.0352932997,0.195311993
3151,0.175421,0.0352932997,0.203125
3152,0.175421,0.0352932997,0.210938007
3153,0.175421,0.0352932997,0.21875
3154,0.175421,0.0352932997,0.226561993
3155,0.175421,0.0352932997,0.234375
3156,0.175421,0.0352932997,0.242186993
3157,0.175421,0.0352932997,0.25
3158,0.175421,0.0352932997,0.257813007
3159,0.175421,0.0352932997,0.265625
3160,0.175421,0.0352932997,0.273436993
3161,0.175421,0.0352932997,0.28125
3162,0.175421,0.0352932997,0.289063007
3163,0.175421,0.0352932997,0.296875
3164,0.175421,0.0352932997,0.304686993
3165,0.175421,0.0352932997,0.3125
3166,0.175421,0.0352932997,0.320311993
3167,0.175421,0.0352932997,0.328125
3168,0.175421,0.0352932997,0.335938007
3169,0.175421,0.0352932997,0.34375
3170,0.175421,0.0352932997,0.351563007
3171,0.175421,0.0352932997,0.359375
3172,0.175421,0.0352932997,0.367188007
3173,0.175421,0.0352932997,0.375
3174,0.175421,0.0352932997,0.382811993
3175,0.175632,0.0216186997,-0.398575991
3176,0.175716996,0.0211797003,0.398575991
3177,0.176632002,0.00738993986,-0.39676401
3178,0.176632002,0.00738993986,0.39676401
3179,0.187249005,0.0366587006,-0.396560997
3180,0.187249005,0.0366587006,0.396560997
3181,0.187620997,0.0241826996,-0.398485005
3182,0.187652007,0.0368165001,-0.390372992
3183,0.187652007,0.0368165001,0.390372992
3184,0.187714994,0.0368239991,-0.382811993
3185,0.187714994,0.0368239991,-0.375
3186,0.187714994,0.0368239991,-0.367188007
3187,0.187714994,0.0368239991,-0.359375
3188,0.187714994,0.0368239991,-0.351561993
3189,0.187714994,0.0368239991,-0.34375
3190,0.187714994,0.0368239991,-0.335938007
3191,0.187714994,0.0368239991,-0.328125
3192,0.187714994,0.0368239991,-0.320311993
3193,0.187714994,0.0368239991,-0.3125
3194,0.187714994,0.0368239991,-0.304688007
3195,0.187714994,0.0368239991,-0.296875
3196,0.187714994,0.0368239991,-0.289061993
3197,0.187714994,0.0368239991,-0.28125
3198,0.187714994,0.0368239991,-0.273438007
3199,0.187714994,0.0368239991,-0.265625
3200,0.187714994,0.0368239991,-0.257811993
3201,0.187714994,0.0368239991,-0.25
3202,0.187714994,0.0368239991,-0.242188007
3203,0.187714994,0.0368239991,-0.234375
3204,0.187714994,0.0368239991,-0.226561993
3205,0.187714994,0.0368239991,-0.21875
3206,0.187714994,0.0368239991,-0.210936993
3207,0.187714994,0.0368239991,-0.203125
3208,0.187714994,0.0368239991,-0.195311993
3209,0.187714994,0.0368239991,-0.1875
3210,0.187714994,0.0368239991,-0.179688007
3211,0.187714994,0.0368239991,-0.171875
3212,0.187714994,0.0368239991,-0.164061993
3213,0.187714994,0.0368239991,-0.15625
3214,0.187714994,0.0368239991,-0.148438007
3215,0.187714994,0.0368239991,-0.140625
3216,0.187714994,0.0368239991,-0.132811993
3217,0.187714994,0.0368239991,-0.125
3218,0.187714994,0.0368239991,-0.117187001
3219,0.187714994,0.0368239991,-0.109375
3220,0.187714994,0.0368239991,-0.101562001
3221,0.187714994,0.0368239991,-0.09375
3222,0.187714994,0.0368239991,-0.0859375
3223,0.187714994,0.0368239991,-0.078125
3224,0.187714994,0.0368239991,-0.0703125
3225,0.187714994,0.0368239991,-0.0625
3226,0.187714994,0.0368239991,-0.0546875
3227,0.187714994,0.0368239991,-0.046875
3228,0.187714994,0.0368239991,-0.0390625
3229,0.187714994,0.0368239991,-0.03125
3230,0.187714994,0.0368239991,-0.0234375
3231,0.187714994,0.0368239991,-0.015625
3232,0.187714994,0.0368239991,-0.0078125
3233,0.187714994,0.0368239991,0
3234,0.187714994,0.0368239991,0.0078125
3235,0.187714994,0.0368239991,0.015625
3236,0.187714994,0.0368239991,0.0234375
3237,0.187714994,0.0368239991,0.03125
3238,0.187714994,0.0368239991,0.0390625
3239,0.187714994,0.0368239991,0.046875
3240,0.187714994,0.0368239991,0.0546875
3241,0.187714994,0.0368239991,0.0625
3242,0.187714994,0.0368239991,0.0703125
3243,0.187714994,0.0368239991,0.078125
3244,0.187714994,0.0368239991,0.0859375
3245,0.187714994,0.0368239991,0.09375
3246,0.187714994,0.0368239991,0.101562001
3247,0.187714994,0.0368239991,0.109375
3248,0.187714994,0.0368239991,0.117187001
3249,0.187714994,0.0368239991,0.125
3250,0.187714994,0.0368239991,0.132813007
3251,0.187714994,0.0368239991,0.140625
3252,0.187714994,0.0368239991,0.148438007
3253,0.187714994,0.0368239991,0.15625
3254,0.187714994,0.0368239991,0.164063007
3255,0.187714994,0.0368239991,0.171875
3256,0.187714994,0.0368239991,0.179688007
3257,0.187714994,0.0368239991,0.1875
3258,0.187714994,0.0368239991,0.195311993
3259,0.187714994,0.0368239991,0.203125
3260,0.187714994,0.0368239991,0.210936993
3261,0.187714994,0.0368239991,0.21875
3262,0.187714994,0.0368239991,0.226561993
3263,0.187714994,0.0368239991,0.234375
3264,0.187714994,0.0368239991,0.242188007
3265,0.187714994,0.0368239991,0.25
3266,0.187714994,0.0368239991,0.257813007
3267,0.187714994,0.0368239991,0.265625
3268,0.187714994,0.0368239991,0.273436993
3269,0.187714994,0.0368239991,0.28125
3270,0.187714994,0.0368239991,0.289063007
3271,0.187714994,0.0368239991,0.296875
3272,0.187714994,0.0368239991,0.304688007
3273,0.187714994,0.0368239991,0.3125
3274,0.187714994,0.0368239991,0.320313007
3275,0.187714994,0.0368239991,0.328125
3276,0.187714994,0.0368239991,0.335936993
3277,0.187714994,0.0368239991,0.34375
3278,0.187714994,0.0368239991,0.351563007
3279,0.187714994,0.0368239991,0.359375
3280,0.187714994,0.0368239991,0.367188007
3281,0.187714994,0.0368239991,0.375
3282,0.187714994,0.0368239991,0.382813007
3283,0.187718004,0.0237146001,0.398485005
3284,0.188068002,0.0110382996,-0.390397012
3285,0.188068002,0.0110382996,0.390397012
3286,0.188152999,0.0107378,-0.382811993
3287,0.188152999,0.0107378,-0.375
3288,0.188152999,0.0107378,-0.367188007
3289,0.188152999,0.0107378,-0.359375
3290,0.188152999,0.0107378,-0.351561993
3291,0.188152999,0.0107378,-0.34375
3292,0.188152999,0.0107378,-0.335938007
3293,0.188152999,0.0107378,-0.328125
3294,0.188152999,0.0107378,-0.320311993
3295,0.188152999,0.0107378,-0.3125
3296,0.188152999,0.0107378,-0.304688007
3297,0.188152999,0.0107378,-0.296875
3298,0.188152999,0.0107378,-0.289061993
3299,0.188152999,0.0107378,-0.28125
3300,0.188152999,0.0107378,-0.273438007
3301,0.188152999,0.0107378,-0.265625
3302,0.188152999,0.0107378,-0.257811993
3303,0.188152999,0.0107378,-0.25
3304,0.188152999,0.0107378,-0.242188007
3305,0.188152999,0.0107378,-0.234375
3306,0.188152999,0.0107378,-0.226561993
3307,0.188152999,0.0107378,-0.21875
3308,0.188152999,0.0107378,-0.210936993
3309,0.188152999,0.0107378,-0.203125
3310,0.188152999,0.0107378,-0.195311993
3311,0.188152999,0.0107378,-0.1875
3312,0.188152999,0.0107378,-0.179688007
3313,0.188152999,0.0107378,-0.171875
3314,0.188152999,0.0107378,-0.164061993
3315,0.188152999,0.0107378,-0.15625
3316,0.188152999,0.0107378,-0.148436993
3317,0.188152999,0.0107378,-0.140625
3318,0.188152999,0.0107378,-0.132811993
3319,0.188152999,0.0107378,-0.125
3320,0.188152999,0.0107378,-0.117187001
3321,0.188152999,0.0107378,-0.109375
3322,0.188152999,0.0107378,-0.101562001
3323,0.188152999,0.0107378,-0.09375
3324,0.188152999,0.0107378,-0.0859375
3325,0.188152999,0.0107378,-0.078125
3326,0.188152999,0.0107378,-0.0703125
3327,0.188152999,0.0107378,-0.0625
3328,0.188152999,0.0107378,-0.0546875
3329,0.188152999,0.0107378,-0.046875
3330,0.188152999,0.0107378,-0.0390625
3331,0.188152999,0.0107378,-0.03125
3332,0.188152999,0.0107378,-0.0234375
3333,0.188152999,0.0107378,-0.015625
3334,0.188152999,0.0107378,-0.0078125
3335,0.188152999,0.0107378,0
3336,0.188152999,0.0107378,0.0078125
3337,0.188152999,0.0107378,0.015625
3338,0.188152999,0.0107378,0.0234375
3339,0.188152999,0.0107378,0.03125
3340,0.188152999,0.0107378,0.0390625
3341,0.188152999,0.0107378,0.046875
3342,0.188152999,0.0107378,0.0546875
3343,0.188152999,0.0107378,0.0625
3344,0.188152999,0.0107378,0.0703125
3345,0.188152999,0.0107378,0.078125
3346,0.188152999,0.0107378,0.0859375
3347,0.188152999,0.0107378,0.09375
3348,0.188152999,0.0107378,0.101562999
3349,0.188152999,0.0107378,0.109375
3350,0.188152999,0.0107378,0.117187001
3351,0.188152999,0.0107378,0.125
3352,0.188152999,0.0107378,0.132813007
3353,0.188152999,0.0107378,0.140625
3354,0.188152999,0.0107378,0.148438007
3355,0.188152999,0.0107378,0.15625
3356,0.188152999,0.0107378,0.164063007
3357,0.188152999,0.0107378,0.171875
3358,0.188152999,0.0107378,0.179686993
3359,0.188152999,0.0107378,0.1875
3360,0.188152999,0.0107378,0.195313007
3361,0.188152999,0.0107378,0.203125
3362,0.188152999,0.0107378,0.210938007
3363,0.188152999,0.0107378,0.21875
3364,0.188152999,0.0107378,0.226561993
3365,0.188152999,0.0107378,0.234375
3366,0.188152999,0.0107378,0.242188007
3367,0.188152999,0.0107378,0.25
3368,0.188152999,0.0107378,0.257813007
3369,0.188152999,0.0107378,0.265625
3370,0.188152999,0.0107378,0.273436993
3371,0.188152999,0.0107378,0.28125
3372,0.188152999,0.0107378,0.289063007
3373,0.188152999,0.0107378,0.296875
3374,0.188152999,0.0107378,0.304686993
3375,0.188152999,0.0107378,0.3125
3376,0.188152999,0.0107378,0.320313007
3377,0.188152999,0.0107378,0.328125
3378,0.188152999,0.0107378,0.335936993
3379,0.188152999,0.0107378,0.34375
3380,0.188152999,0.0107378,0.351561993
3381,0.188152999,0.0107378,0.359375
3382,0.188152999,0.0107378,0.367186993
3383,0.188152999,0.0107378,0.375
3384,0.188152999,0.0107378,0.382813007
3385,0.188821003,0.0110595003,-0.396531999
3386,0.188821003,0.0110595003,0.396531999
3387,0.198934004,0.0140551999,-0.382811993
3388,0.198934004,0.0140551999,-0.375
3389,0.198934004,0.0140551999,-0.367188007
3390,0.198934004,0.0140551999,-0.359375
3391,0.198934004,0.0140551999,-0.351561993
3392,0.198934004,0.0140551999,-0.34375
3393,0.198934004,0.0140551999,-0.335938007
3394,0.198934004,0.0140551999,-0.328125
3395,0.198934004,0.0140551999,-0.320311993
3396,0.198934004,0.0140551999,-0.3125
3397,0.198934004,0.0140551999,-0.304688007
3398,0.198934004,0.0140551999,-0.296875
3399,0.198934004,0.0140551999,-0.289061993
3400,0.198934004,0.0140551999,-0.28125
3401,0.198934004,0.0140551999,-0.273436993
3402,0.198934004,0.0140551999,-0.265625
3403,0.198934004,0.0140551999,-0.257811993
3404,0.198934004,0.0140551999,-0.25
3405,0.198934004,0.0140551999,-0.242188007
3406,0.198934004,0.0140551999,-0.234375
3407,0.198934004,0.0140551999,-0.226561993
3408,0.198934004,0.0140551999,-0.21875
3409,0.198934004,0.0140551999,-0.210938007
3410,0.198934004,0.0140551999,-0.203125
3411,0.198934004,0.0140551999,-0.195311993
3412,0.198934004,0.0140551999,-0.1875
3413,0.198934004,0.0140551999,-0.179688007
3414,0.198934004,0.0140551999,-0.171875
3415,0.198934004,0.0140551999,-0.164061993
3416,0.198934004,0.0140551999,-0.15625
3417,0.198934004,0.0140551999,-0.148438007
3418,0.198934004,0.0140551999,-0.140625
3419,0.198934004,0.0140551999,-0.132813007
3420,0.198934004,0.0140551999,-0.125
3421,0.198934004,0.0140551999,-0.117187999
3422,0.198934004,0.0140551999,-0.109375
3423,0.198934004,0.0140551999,-0.101562001
3424,0.198934004,0.0140551999,-0.09375
3425,0.198934004,0.0140551999,-0.0859375
3426,0.198934004,0.0140551999,-0.078125
3427,0.198934004,0.0140551999,-0.0703125
3428,0.198934004,0.0140551999,-0.0625
3429,0.198934004,0.0140551999,-0.0546875
3430,0.198934004,0.0140551999,-0.046875
3431,0.198934004,0.0140551999,-0.0390625
3432,0.198934004,0.0140551999,-0.03125
3433,0.198934004,0.0140551999,-0.0234375
3434,0.198934004,0.0140551999,-0.015625
3435,0.198934004,0.0140551999,-0.0078125
3436,0.198934004,0.0140551999,-1e-12
3437,0.198934004,0.0140551999,0.0078125
3438,0.198934004,0.0140551999,0.015625
3439,0.198934004,0.0140551999,0.0234375
3440,0.198934004,0.0140551999,0.03125
3441,0.198934004,0.0140551999,0.0390625
3442,0.198934004,0.0140551999,0.046875
3443,0.198934004,0.0140551999,0.0546875
3444,0.198934004,0.0140551999,0.0625
3445,0.198934004,0.0140551999,0.0703125
3446,0.198934004,0.0140551999,0.078125
3447,0.198934004,0.0140551999,0.0859375
3448,0.198934004,0.0140551999,0.09375
3449,0.198934004,0.0140551999,0.101562999
3450,0.198934004,0.0140551999,0.109375
3451,0.198934004,0.0140551999,0.117187999
3452,0.198934004,0.0140551999,0.125
3453,0.198934004,0.0140551999,0.132811993
3454,0.198934004,0.0140551999,0.140625
3455,0.198934004,0.0140551999,0.148436993
3456,0.198934004,0.0140551999,0.15625
3457,0.198934004,0.0140551999,0.164063007
3458,0.198934004,0.0140551999,0.171875
3459,0.198934004,0.0140551999,0.179688007
3460,0.198934004,0.0140551999,0.1875
3461,0.198934004,0.0140551999,0.195313007
3462,0.198934004,0.0140551999,0.203125
3463,0.198934004,0.0140551999,0.210936993
3464,0.198934004,0.0140551999,0.21875
3465,0.198934004,0.0140551999,0.226561993
3466,0.198934004,0.0140551999,0.234375
3467,0.198934004,0.0140551999,0.242188007
3468,0.198934004,0.0140551999,0.25
3469,0.198934004,0.0140551999,0.257811993
3470,0.198934004,0.0140551999,0.265625
3471,0.198934004,0.0140551999,0.273436993
3472,0.198934004,0.0140551999,0.28125
3473,0.198934004,0.0140551999,0.289061993
3474,0.198934004,0.0140551999,0.296875
3475,0.198934004,0.0140551999,0.304688007
3476,0.198934004,0.0140551999,0.3125
3477,0.198934004,0.0140551999,0.320313007
3478,0.198934004,0.0140551999,0.328125
3479,0.198934004,0.0140551999,0.335938007
3480,0.198934004,0.0140551999,0.34375
3481,0.198934004,0.0140551999,0.351563007
3482,0.198934004,0.0140551999,0.359375
3483,0.198934004,0.0140551999,0.367186993
3484,0.198934004,0.0140551999,0.375
3485,0.198934004,0.0140551999,0.382811993
3486,0.199009001,0.0140784997,-0.390347004
3487,0.199009001,0.0140784997,0.390347004
3488,0.199522004,0.0267280992,-0.398317993
3489,0.199596003,0.0381277986,-0.396461993
3490,0.199597001,0.0381202996,0.396461993
3491,0.199631006,0.0262311008,0.398317993
3492,0.199973002,0.0144870998,-0.396495014
3493,0.199973002,0.0144870998,0.396495014
3494,0.200008005,0.0380061008,-0.390374988
3495,0.200008005,0.0380063988,0.390374988
3496,0.200036004,0.0382815003,0.351561993
3497,0.200036004,0.0382822007,0.382811993
3498,0.200036004,0.0382830016,0.359375
3499,0.200036004,0.0382834002,0.375
3500,0.200036004,0.0382838994,0.367188007
3501,0.200037003,0.0382803008,-0.382811993
3502,0.200037003,0.0382803008,-0.375
3503,0.200037003,0.0382803008,-0.367188007
3504,0.200037003,0.0382803008,-0.359375
3505,0.200037003,0.0382803008,-0.351561993
3506,0.200037003,0.0382803008,-0.34375
3507,0.200037003,0.0382803008,-0.335938007
3508,0.200037003,0.0382803008,-0.328125
3509,0.200037003,0.0382803008,-0.320311993
3510,0.200037003,0.0382803008,-0.3125
3511,0.200037003,0.0382803008,-0.304688007
3512,0.200037003,0.0382803008,-0.296875
3513,0.200037003,0.0382803008,-0.289063007
3514,0.200037003,0.0382803008,-0.28125
3515,0.200037003,0.0382803008,-0.273438007
3516,0.200037003,0.0382803008,-0.265625
3517,0.200037003,0.0382803008,-0.257813007
3518,0.200037003,0.0382803008,-0.25
3519,0.200037003,0.0382803008,-0.242188007
3520,0.200037003,0.0382803008,-0.234375
3521,0.200037003,0.0382803008,-0.226563007
3522,0.200037003,0.0382803008,-0.21875
3523,0.200037003,0.0382803008,-0.210938007
3524,0.200037003,0.0382803008,-0.203125
3525,0.200037003,0.0382803008,-0.195313007
3526,0.200037003,0.0382803008,-0.1875
3527,0.200037003,0.0382803008,-0.179688007
3528,0.200037003,0.0382803008,-0.171875
3529,0.200037003,0.0382803008,-0.164063007
3530,0.200037003,0.0382803008,-0.15625
3531,0.200037003,0.0382803008,-0.148436993
3532,0.200037003,0.0382803008,-0.140625
3533,0.200037003,0.0382803008,-0.132811993
3534,0.200037003,0.0382803008,-0.125
3535,0.200037003,0.0382803008,-0.117187999
3536,0.200037003,0.0382803008,-0.109375
3537,0.200037003,0.0382803008,-0.101562001
3538,0.200037003,0.0382803008,-0.09375
3539,0.200037003,0.0382803008,-0.0859375
3540,0.200037003,0.0382803008,-0.078125
3541,0.200037003,0.0382803008,-0.0703125
3542,0.200037003,0.0382803008,-0.0625
3543,0.200037003,0.0382803008,-0.0546875
3544,0.200037003,0.0382803008,-0.046875
3545,0.200037003,0.0382803008,-0.0390625
3546,0.200037003,0.0382803008,-0.03125
3547,0.200037003,0.0382803008,-0.0234375
3548,0.200037003,0.0382803008,-0.015625
3549,0.200037003,0.0382803008,-0.0078125
3550,0.200037003,0.0382803008,0
3551,0.200037003,0.0382803008,0.0078125
3552,0.200037003,0.0382803008,0.015625
3553,0.200037003,0.0382803008,0.0234375
3554,0.200037003,0.0382803008,0.03125
3555,0.200037003,0.0382803008,0.0390625
3556,0.200037003,0.0382803008,0.046875
3557,0.200037003,0.0382803008,0.0546875
3558,0.200037003,0.0382803008,0.0625
3559,0.200037003,0.0382803008,0.0703125
3560,0.200037003,0.0382803008,0.078125
3561,0.200037003,0.0382803008,0.0859375
3562,0.200037003,0.0382803008,0.09375
3563,0.200037003,0.0382803008,0.101562999
3564,0.200037003,0.0382803008,0.109375
3565,0.200037003,0.0382803008,0.117187001
3566,0.200037003,0.0382803008,0.125
3567,0.200037003,0.0382803008,0.132811993
3568,0.200037003,0.0382803008,0.140625
3569,0.200037003,0.0382803008,0.148436993
3570,0.200037003,0.0382803008,0.15625
3571,0.200037003,0.0382803008,0.164061993
3572,0.200037003,0.0382803008,0.171875
3573,0.200037003,0.0382803008,0.179688007
3574,0.200037003,0.0382803008,0.1875
3575,0.200037003,0.0382803008,0.195311993
3576,0.200037003,0.0382803008,0.203125
3577,0.200037003,0.0382803008,0.210938007
3578,0.200037003,0.0382803008,0.21875
3579,0.200037003,0.0382803008,0.226563007
3580,0.200037003,0.0382803008,0.234375
3581,0.200037003,0.0382803008,0.242186993
3582,0.200037003,0.0382803008,0.25
3583,0.200037003,0.0382803008,0.257813007
3584,0.200037003,0.0382803008,0.265625
3585,0.200037003,0.0382803008,0.273436993
3586,0.200037003,0.0382803008,0.28125
3587,0.200037003,0.0382803008,0.289061993
3588,0.200037003,0.0382803008,0.296875
3589,0.200037003,0.0382803008,0.304688007
3590,0.200037003,0.0382803008,0.3125
3591,0.200037003,0.0382803008,0.320311993
3592,0.200037003,0.0382803008,0.328125
3593,0.200037003,0.0382804014,0.335936993
3594,0.200037003,0.0382806994,0.34375
3595,0.208799005,0.0171470009,0.396117002
3596,0.208799005,0.0171470996,-0.396117002
3597,0.209198996,0.0172734,0.390363008
3598,0.209198996,0.0172735006,-0.390363008
3599,0.209278002,0.0172984991,-0.382813007
3600,0.209278002,0.0172984991,-0.375
3601,0.209278002,0.0172984991,-0.367188007
3602,0.209278002,0.0172984991,-0.359375
3603,0.209278002,0.0172984991,-0.351561993
3604,0.209278002,0.0172984991,-0.34375
3605,0.209278002,0.0172984991,-0.335938007
3606,0.209278002,0.0172984991,-0.328125
3607,0.209278002,0.0172984991,-0.320311993
3608,0.209278002,0.0172984991,-0.3125
3609,0.209278002,0.0172984991,-0.304686993
3610,0.209278002,0.0172984991,-0.296875
3611,0.209278002,0.0172984991,-0.289063007
3612,0.209278002,0.0172984991,-0.28125
3613,0.209278002,0.0172984991,-0.273436993
3614,0.209278002,0.0172984991,-0.265625
3615,0.209278002,0.0172984991,-0.257811993
3616,0.209278002,0.0172984991,-0.25
3617,0.209278002,0.0172984991,-0.242188007
3618,0.209278002,0.0172984991,-0.234375
3619,0.209278002,0.0172984991,-0.226561993
3620,0.209278002,0.0172984991,-0.21875
3621,0.209278002,0.0172984991,-0.210938007
3622,0.209278002,0.0172984991,-0.203125
3623,0.209278002,0.0172984991,-0.195311993
3624,0.209278002,0.0172984991,-0.1875
3625,0.209278002,0.0172984991,-0.179686993
3626,0.209278002,0.0172984991,-0.171875
3627,0.209278002,0.0172984991,-0.164063007
3628,0.209278002,0.0172984991,-0.15625
3629,0.209278002,0.0172984991,-0.148436993
3630,0.209278002,0.0172984991,-0.140625
3631,0.209278002,0.0172984991,-0.132813007
3632,0.209278002,0.0172984991,-0.125
3633,0.209278002,0.0172984991,-0.117187001
3634,0.209278002,0.0172984991,-0.109375
3635,0.209278002,0.0172984991,-0.101562001
3636,0.209278002,0.0172984991,-0.09375
3637,0.209278002,0.0172984991,-0.0859375
3638,0.209278002,0.0172984991,-0.078125
3639,0.209278002,0.0172984991,-0.0703125
3640,0.209278002,0.0172984991,-0.0625
3641,0.209278002,0.0172984991,-0.0546875
3642,0.209278002,0.0172984991,-0.046875
3643,0.209278002,0.0172984991,-0.0390625
3644,0.209278002,0.0172984991,-0.03125
3645,0.209278002,0.0172984991,-0.0234375
3646,0.209278002,0.0172984991,-0.015625
3647,0.209278002,0.0172984991,-0.0078125
3648,0.209278002,0.0172984991,0
3649,0.209278002,0.0172984991,0.0078125
3650,0.209278002,0.0172984991,0.015625
3651,0.209278002,0.0172984991,0.0234375
3652,0.209278002,0.0172984991,0.03125
3653,0.209278002,0.0172984991,0.0390625
3654,0.209278002,0.0172984991,0.046875
3655,0.209278002,0.0172984991,0.0546875
3656,0.209278002,0.0172984991,0.0625
3657,0.209278002,0.0172984991,0.0703125
3658,0.209278002,0.0172984991,0.078125
3659,0.209278002,0.0172984991,0.0859375
3660,0.209278002,0.0172984991,0.09375
3661,0.209278002,0.0172984991,0.101562001
3662,0.209278002,0.0172984991,0.109375
3663,0.209278002,0.0172984991,0.117187999
3664,0.209278002,0.0172984991,0.125
3665,0.209278002,0.0172984991,0.132813007
3666,0.209278002,0.0172984991,0.140625
3667,0.209278002,0.0172984991,0.148436993
3668,0.209278002,0.0172984991,0.15625
3669,0.209278002,0.0172984991,0.164063007
3670,0.209278002,0.0172984991,0.171875
3671,0.209278002,0.0172984991,0.179686993
3672,0.209278002,0.0172984991,0.1875
3673,0.209278002,0.0172984991,0.195313007
3674,0.209278002,0.0172984991,0.203125
3675,0.209278002,0.0172984991,0.210938007
3676,0.209278002,0.0172984991,0.21875
3677,0.209278002,0.0172984991,0.226563007
3678,0.209278002,0.0172984991,0.234375
3679,0.209278002,0.0172984991,0.242188007
3680,0.209278002,0.0172984991,0.25
3681,0.209278002,0.0172984991,0.257811993
3682,0.209278002,0.0172984991,0.265625
3683,0.209278002,0.0172984991,0.273436993
3684,0.209278002,0.0172984991,0.28125
3685,0.209278002,0.0172984991,0.289063007
3686,0.209278002,0.0172984991,0.296875
3687,0.209278002,0.0172984991,0.304686993
3688,0.209278002,0.0172984991,0.3125
3689,0.209278002,0.0172984991,0.320311993
3690,0.209278002,0.0172984991,0.328125
3691,0.209278002,0.0172984991,0.335936993
3692,0.209278002,0.0172984991,0.34375
3693,0.209278002,0.0172984991,0.351563007
3694,0.209278002,0.0172984991,0.359375
3695,0.209278002,0.0172984991,0.367188007
3696,0.209278002,0.0172984991,0.375
3697,0.209278002,0.0172984991,0.382813007
3698,0.211593002,0.0293097999,-0.396699011
3699,0.211715996,0.0287801996,0.396699011
3700,0.211934999,0.0395223014,-0.396295995
3701,0.211942002,0.0394629985,0.396297991
3702,0.212307006,0.0394104011,-0.390338004
3703,0.212310001,0.0393853001,0.390338987
3704,0.212347001,0.0392213985,-0.38279599
3705,0.212350994,0.0392026007,0.382797003
3706,0.212384,0.0396666005,-0.3125
3707,0.212384,0.0396666005,-0.304688007
3708,0.212384,0.0396666005,-0.296875
3709,0.212384,0.0396666005,-0.289063007
3710,0.212384,0.0396666005,-0.28125
3711,0.212384,0.0396666005,-0.273438007
3712,0.212384,0.0396666005,-0.265625
3713,0.212384,0.0396666005,-0.257811993
3714,0.212384,0.0396666005,-0.25
3715,0.212384,0.0396666005,-0.242188007
3716,0.212384,0.0396666005,-0.234375
3717,0.212384,0.0396666005,-0.226563007
3718,0.212384,0.0396666005,-0.21875
3719,0.212384,0.0396666005,-0.210938007
3720,0.212384,0.0396666005,-0.203125
3721,0.212384,0.0396666005,-0.195311993
3722,0.212384,0.0396666005,-0.1875
3723,0.212384,0.0396666005,-0.179688007
3724,0.212384,0.0396666005,-0.171875
3725,0.212384,0.0396666005,-0.164063007
3726,0.212384,0.0396666005,-0.15625
3727,0.212384,0.0396666005,-0.148438007
3728,0.212384,0.0396666005,-0.140625
3729,0.212384,0.0396666005,-0.132813007
3730,0.212384,0.0396666005,-0.125
3731,0.212384,0.0396666005,-0.117187001
3732,0.212384,0.0396666005,-0.109375
3733,0.212384,0.0396666005,-0.101562999
3734,0.212384,0.0396666005,-0.09375
3735,0.212384,0.0396666005,-0.0859375
3736,0.212384,0.0396666005,-0.078125
3737,0.212384,0.0396666005,-0.0703125
3738,0.212384,0.0396666005,-0.0625
3739,0.212384,0.0396666005,-0.0546875
3740,0.212384,0.0396666005,-0.046875
3741,0.212384,0.0396666005,-0.0390625
3742,0.212384,0.0396666005,-0.03125
3743,0.212384,0.0396666005,-0.0234375
3744,0.212384,0.0396666005,-0.015625
3745,0.212384,0.0396666005,-0.0078125
3746,0.212384,0.0396666005,0
3747,0.212384,0.0396666005,0.0078125
3748,0.212384,0.0396666005,0.015625
3749,0.212384,0.0396666005,0.0234375
3750,0.212384,0.0396666005,0.03125
3751,0.212384,0.0396666005,0.0390625
3752,0.212384,0.0396666005,0.046875
3753,0.212384,0.0396666005,0.0546875
3754,0.212384,0.0396666005,0.0625
3755,0.212384,0.0396666005,0.0703125
3756,0.212384,0.0396666005,0.078125
3757,0.212384,0.0396666005,0.0859375
3758,0.212384,0.0396666005,0.09375
3759,0.212384,0.0396666005,0.101562001
3760,0.212384,0.0396666005,0.109375
3761,0.212384,0.0396666005,0.117187001
3762,0.212384,0.0396666005,0.125
3763,0.212384,0.0396666005,0.132811993
3764,0.212384,0.0396666005,0.140625
3765,0.212384,0.0396666005,0.148436993
3766,0.212384,0.0396666005,0.15625
3767,0.212384,0.0396666005,0.164063007
3768,0.212384,0.0396666005,0.171875
3769,0.212384,0.0396666005,0.179688007
3770,0.212384,0.0396666005,0.1875
3771,0.212384,0.0396666005,0.195311993
3772,0.212384,0.0396666005,0.203125
3773,0.212384,0.0396666005,0.210936993
3774,0.212384,0.0396666005,0.21875
3775,0.212384,0.0396666005,0.226561993
3776,0.212384,0.0396666005,0.234375
3777,0.212384,0.0396666005,0.242186993
3778,0.212384,0.0396666005,0.25
3779,0.212384,0.0396666005,0.257811993
3780,0.212384,0.0396666005,0.265625
3781,0.212384,0.0396666005,0.273436993
3782,0.212384,0.0396666005,0.28125
3783,0.212384,0.0396666005,0.289061993
3784,0.212384,0.0396666005,0.296875
3785,0.212384,0.0396666005,0.304688007
3786,0.212384,0.0396666005,0.3125
3787,0.212387994,0.0390257016,-0.374989003
3788,0.212394997,0.0390018001,0.374989003
3789,0.21243,0.0388300009,-0.367181003
3790,0.212433994,0.0388154015,0.367181987
3791,0.212486997,0.0386394002,-0.359373987
3792,0.212487996,0.0386373997,0.359373987
3793,0.212547004,0.0384528004,0.351565987
3794,0.212548003,0.0384498984,-0.351567
3795,0.212607995,0.0382621996,0.343759
3796,0.212608993,0.0382602997,-0.343759
3797,0.212669,0.0380714983,0.335952014
3798,0.212669998,0.0380708016,-0.335952014
3799,0.212730005,0.0378812999,-0.328144014
3800,0.212730005,0.0378812999,0.328144014
3801,0.212790996,0.0376918018,-0.320336998
3802,0.212790996,0.0376918018,0.320336998
3803,0.224205002,0.0313741006,0.396367997
3804,0.224677995,0.0407606997,-0.390300989
3805,0.224739999,0.0405714996,0.390316993
3806,0.224753007,0.0409856997,-0.179688007
3807,0.224753007,0.0409856997,-0.171875
3808,0.224753007,0.0409856997,-0.164063007
3809,0.224753007,0.0409856997,-0.15625
3810,0.224753007,0.0409856997,-0.148438007
3811,0.224753007,0.0409856997,-0.140625
3812,0.224753007,0.0409856997,-0.132811993
3813,0.224753007,0.0409856997,-0.125
3814,0.224753007,0.0409856997,-0.117187001
3815,0.224753007,0.0409856997,-0.109375
3816,0.224753007,0.0409856997,-0.101562001
3817,0.224753007,0.0409856997,-0.09375
3818,0.224753007,0.0409856997,-0.0859375
3819,0.224753007,0.0409856997,-0.078125
3820,0.224753007,0.0409856997,-0.0703125
3821,0.224753007,0.0409856997,-0.0625
3822,0.224753007,0.0409856997,-0.0546875
3823,0.224753007,0.0409856997,-0.046875
3824,0.224753007,0.0409856997,-0.0390625
3825,0.224753007,0.0409856997,-0.03125
3826,0.224753007,0.0409856997,-0.0234375
3827,0.224753007,0.0409856997,-0.015625
3828,0.224753007,0.0409856997,-0.0078125
3829,0.224753007,0.0409856997,0
3830,0.224753007,0.0409856997,0.0078125
3831,0.224753007,0.0409856997,0.015625
3832,0.224753007,0.0409856997,0.0234375
3833,0.224753007,0.0409856997,0.03125
3834,0.224753007,0.0409856997,0.0390625
3835,0.224753007,0.0409856997,0.046875
3836,0.224753007,0.0409856997,0.0546875
3837,0.224753007,0.0409856997,0.0625
3838,0.224753007,0.0409856997,0.0703125
3839,0.224753007,0.0409856997,0.078125
3840,0.224753007,0.0409856997,0.0859375
3841,0.224753007,0.0409856997,0.09375
3842,0.224753007,0.0409856997,0.101562001
3843,0.224753007,0.0409856997,0.109375
3844,0.224753007,0.0409856997,0.117187001
3845,0.224753007,0.0409856997,0.125
3846,0.224753007,0.0409856997,0.132811993
3847,0.224753007,0.0409856997,0.140625
3848,0.224753007,0.0409856997,0.148438007
3849,0.224753007,0.0409856997,0.15625
3850,0.224753007,0.0409856997,0.164063007
3851,0.224753007,0.0409856997,0.171875
3852,0.224753007,0.0409856997,0.179688007
3853,0.224791005,0.0406038985,-0.382768005
3854,0.224809006,0.0404310003,-0.374958992
3855,0.224818006,0.0403422005,0.382773012
3856,0.224827006,0.0402580984,-0.367150009
3857,0.224845007,0.0400852002,-0.359342009
3858,0.224861994,0.0399165004,0.374971002
3859,0.224862993,0.0399122983,-0.351532996
3860,0.224876001,0.0397875011,0.351536006
3861,0.224879995,0.0397441015,0.367161989
3862,0.224880993,0.0397392996,-0.343724012
3863,0.224884003,0.0397147015,0.343724996
3864,0.224886,0.0396868996,0.359351009
3865,0.224898994,0.039562799,0.335916013
3866,0.224898994,0.0395664014,-0.335916013
3867,0.224916995,0.0393934995,-0.328106999
3868,0.224916995,0.0393934995,0.328106999
3869,0.224934995,0.0392206013,-0.320299
3870,0.224934995,0.0392206013,0.320299
3871,0.224952996,0.0390476994,-0.312489986
3872,0.224952996,0.0390476994,0.312489986
3873,0.224970996,0.0388748012,-0.304681003
3874,0.224970996,0.0388748012,0.304681003
3875,0.224988997,0.0387018993,-0.296873003
3876,0.224988997,0.0387018993,0.296873003
3877,0.225006998,0.0385290012,-0.28906399
3878,0.225006998,0.0385290012,0.28906399
3879,0.225024998,0.0383560993,-0.281255007
3880,0.225024998,0.0383560993,0.281255007
3881,0.225042999,0.0381832011,-0.273447007
3882,0.225042999,0.0381832011,0.273447007
3883,0.225061998,0.0380102992,-0.265637994
3884,0.225061998,0.0380102992,0.265637994
3885,0.225079998,0.037837401,-0.257829994
3886,0.225079998,0.037837401,0.257829994
3887,0.225097999,0.0376644991,-0.250021011
3888,0.225097999,0.0376644991,0.250021011
3889,0.225116,0.037491601,-0.242211998
3890,0.225116,0.037491601,0.242211998
3891,0.225134,0.0373186991,-0.234403998
3892,0.225134,0.0373186991,0.234403998
3893,0.225152001,0.0371458009,-0.226594999
3894,0.225152001,0.0371458009,0.226594999
3895,0.225170001,0.036972899,-0.218786001
3896,0.225170001,0.036972899,0.218786001
3897,0.225188002,0.0368000008,-0.210978001
3898,0.225188002,0.0368000008,0.210978001
3899,0.225206003,0.0366270989,-0.203169003
3900,0.225206003,0.0366270989,0.203169003
3901,0.225224003,0.0364542007,-0.195361003
3902,0.225224003,0.0364542007,0.195361003
3903,0.225242004,0.0362812988,-0.187552005
3904,0.225242004,0.0362812988,0.187552005
3905,0.225392997,0.0240515992,-0.335952997
3906,0.225392997,0.0240515992,0.335952997
3907,0.225448996,0.0238764994,-0.343760997
3908,0.225448996,0.0238764994,0.343760997
3909,0.225486994,0.0322813988,-0.396358013
3910,0.225505993,0.0237013996,-0.35157001
3911,0.225505993,0.0237013996,0.35157001
3912,0.225563005,0.0235262997,-0.35937801
3913,0.225563005,0.0235262997,0.35937801
3914,0.225591004,0.0319061987,0.396337003
3915,0.225620002,0.0233513005,-0.36718601
3916,0.225620002,0.0233513005,0.36718601
3917,0.225676998,0.0231762007,-0.37499401
3918,0.225676998,0.0231762007,0.37499401
3919,0.225732997,0.0230011009,-0.38280201
3920,0.225732997,0.0230011009,0.38280201
3921,0.225756004,0.0228208005,-0.390374005
3922,0.225803003,0.0228383001,0.390383989
3923,0.225858003,0.0226154998,-0.328125
3924,0.225858003,0.0226154998,-0.320311993
3925,0.225858003,0.0226154998,-0.3125
3926,0.225858003,0.0226154998,-0.304688007
3927,0.225858003,0.0226154998,-0.296875
3928,0.225858003,0.0226154998,-0.289063007
3929,0.225858003,0.0226154998,-0.28125
3930,0.225858003,0.0226154998,-0.273436993
3931,0.225858003,0.0226154998,-0.265625
3932,0.225858003,0.0226154998,-0.257811993
3933,0.225858003,0.0226154998,-0.25
3934,0.225858003,0.0226154998,-0.242186993
3935,0.225858003,0.0226154998,-0.234375
3936,0.225858003,0.0226154998,-0.226561993
3937,0.225858003,0.0226154998,-0.21875
3938,0.225858003,0.0226154998,-0.210936993
3939,0.225858003,0.0226154998,-0.203125
3940,0.225858003,0.0226154998,-0.195311993
3941,0.225858003,0.0226154998,-0.1875
3942,0.225858003,0.0226154998,-0.179686993
3943,0.225858003,0.0226154998,-0.171875
3944,0.225858003,0.0226154998,-0.164061993
3945,0.225858003,0.0226154998,-0.15625
3946,0.225858003,0.0226154998,-0.148436993
3947,0.225858003,0.0226154998,-0.140625
3948,0.225858003,0.0226154998,-0.132813007
3949,0.225858003,0.0226154998,-0.125
3950,0.225858003,0.0226154998,-0.117187001
3951,0.225858003,0.0226154998,-0.109375
3952,0.225858003,0.0226154998,-0.101562001
3953,0.225858003,0.0226154998,-0.09375
3954,0.225858003,0.0226154998,-0.0859375
3955,0.225858003,0.0226154998,-0.078125
3956,0.225858003,0.0226154998,-0.0703125
3957,0.225858003,0.0226154998,-0.0625
3958,0.225858003,0.0226154998,-0.0546875
3959,0.225858003,0.0226154998,-0.046875
3960,0.225858003,0.0226154998,-0.0390625
3961,0.225858003,0.0226154998,-0.03125
3962,0.225858003,0.0226154998,-0.0234375
3963,0.225858003,0.0226154998,-0.015625
3964,0.225858003,0.0226154998,-0.0078125
3965,0.225858003,0.0226154998,-1e-12
3966,0.225858003,0.0226154998,0.0078125
3967,0.225858003,0.0226154998,0.015625
3968,0.225858003,0.0226154998,0.0234375
3969,0.225858003,0.0226154998,0.03125
3970,0.225858003,0.0226154998,0.0390625
3971,0.225858003,0.0226154998,0.046875
3972,0.225858003,0.0226154998,0.0546875
3973,0.225858003,0.0226154998,0.0625
3974,0.225858003,0.0226154998,0.0703125
3975,0.225858003,0.0226154998,0.078125
3976,0.225858003,0.0226154998,0.0859375
3977,0.225858003,0.0226154998,0.09375
3978,0.225858003,0.0226154998,0.101562001
3979,0.225858003,0.0226154998,0.109375
3980,0.225858003,0.0226154998,0.117187001
3981,0.225858003,0.0226154998,0.125
3982,0.225858003,0.0226154998,0.132813007
3983,0.225858003,0.0226154998,0.140625
3984,0.225858003,0.0226154998,0.148436993
3985,0.225858003,0.0226154998,0.15625
3986,0.225858003,0.0226154998,0.164061993
3987,0.225858003,0.0226154998,0.171875
3988,0.225858003,0.0226154998,0.179688007
3989,0.225858003,0.0226154998,0.1875
3990,0.225858003,0.0226154998,0.195311993
3991,0.225858003,0.0226154998,0.203125
3992,0.225858003,0.0226154998,0.210938007
3993,0.225858003,0.0226154998,0.21875
3994,0.225858003,0.0226154998,0.226561993
3995,0.225858003,0.0226154998,0.234375
3996,0.225858003,0.0226154998,0.242188007
3997,0.225858003,0.0226154998,0.25
3998,0.225858003,0.0226154998,0.257813007
3999,0.225858003,0.0226154998,0.265625
4000,0.225858003,0.0226154998,0.273438007
4001,0.225858003,0.0226154998,0.28125
4002,0.225858003,0.0226154998,0.289063007
4003,0.225858003,0.0226154998,0.296875
4004,0.225858003,0.0226154998,0.304686993
4005,0.225858003,0.0226154998,0.3125
4006,0.225858003,0.0226154998,0.320313007
4007,0.225858003,0.0226154998,0.328125
4008,0.226438001,0.0228934009,-0.396286994
4009,0.236250997,0.0409681983,0.382786989
4010,0.236386001,0.0395937003,0.375001013
4011,0.236411005,0.0395869985,0.367193997
4012,0.236443996,0.0413680002,0.390320987
4013,0.236513004,0.0261064004,0.367211014
4014,0.236518994,0.0261084996,0.359423012
4015,0.236521006,0.0261090007,-0.382811993
4016,0.236521006,0.0261090007,-0.375
4017,0.236521006,0.0261090007,-0.367188007
4018,0.236521006,0.0261090007,-0.359375
4019,0.236521006,0.0261090007,-0.351561993
4020,0.236521006,0.0261090007,-0.34375
4021,0.236521006,0.0261090007,-0.335938007
4022,0.236521006,0.0261090007,-0.328125
4023,0.236521006,0.0261090007,-0.320311993
4024,0.236521006,0.0261090007,-0.3125
4025,0.236521006,0.0261090007,-0.304688007
4026,0.236521006,0.0261090007,-0.296875
4027,0.236521006,0.0261090007,-0.289063007
4028,0.236521006,0.0261090007,-0.28125
4029,0.236521006,0.0261090007,-0.273438007
4030,0.236521006,0.0261090007,-0.265625
4031,0.236521006,0.0261090007,-0.257811993
4032,0.236521006,0.0261090007,-0.25
4033,0.236521006,0.0261090007,-0.242186993
4034,0.236521006,0.0261090007,-0.234375
4035,0.236521006,0.0261090007,-0.226561993
4036,0.236521006,0.0261090007,-0.21875
4037,0.236521006,0.0261090007,-0.210936993
4038,0.236521006,0.0261090007,-0.203125
4039,0.236521006,0.0261090007,-0.195311993
4040,0.236521006,0.0261090007,-0.1875
4041,0.236521006,0.0261090007,-0.179688007
4042,0.236521006,0.0261090007,-0.171875
4043,0.236521006,0.0261090007,-0.164063007
4044,0.236521006,0.0261090007,-0.15625
4045,0.236521006,0.0261090007,-0.148438007
4046,0.236521006,0.0261090007,-0.140625
4047,0.236521006,0.0261090007,-0.132813007
4048,0.236521006,0.0261090007,-0.125
4049,0.236521006,0.0261090007,-0.117187999
4050,0.236521006,0.0261090007,-0.109375
4051,0.236521006,0.0261090007,-0.101562001
4052,0.236521006,0.0261090007,-0.09375
4053,0.236521006,0.0261090007,-0.0859375
4054,0.236521006,0.0261090007,-0.078125
4055,0.236521006,0.0261090007,-0.0703125
4056,0.236521006,0.0261090007,-0.0625
4057,0.236521006,0.0261090007,-0.0546875
4058,0.236521006,0.0261090007,-0.046875
4059,0.236521006,0.0261090007,-0.0390625
4060,0.236521006,0.0261090007,-0.03125
4061,0.236521006,0.0261090007,-0.0234375
4062,0.236521006,0.0261090007,-0.015625
4063,0.236521006,0.0261090007,-0.0078125
4064,0.236521006,0.0261090007,0
4065,0.236521006,0.0261090007,0.0078125
4066,0.236521006,0.0261090007,0.015625
4067,0.236521006,0.0261090007,0.0234375
4068,0.236521006,0.0261090007,0.03125
4069,0.236521006,0.0261090007,0.0390625
4070,0.236521006,0.0261090007,0.046875
4071,0.236521006,0.0261090007,0.0546875
4072,0.236521006,0.0261090007,0.0625
4073,0.236521006,0.0261090007,0.0703125
4074,0.236521006,0.0261090007,0.078125
4075,0.236521006,0.0261090007,0.0859375
4076,0.236521006,0.0261090007,0.09375
4077,0.236521006,0.0261090007,0.101562999
4078,0.236521006,0.0261090007,0.109375
4079,0.236521006,0.0261090007,0.117187001
4080,0.236521006,0.0261090007,0.125
4081,0.236521006,0.0261090007,0.132813007
4082,0.236521006,0.0261090007,0.140625
4083,0.236521006,0.0261090007,0.148436993
4084,0.236521006,0.0261090007,0.15625
4085,0.236521006,0.0261090007,0.164061993
4086,0.236521006,0.0261090007,0.171875
4087,0.236521006,0.0261090007,0.179686993
4088,0.236521006,0.0261090007,0.1875
4089,0.236521006,0.0261090007,0.195311993
4090,0.236521006,0.0261090007,0.203125
4091,0.236521006,0.0261090007,0.210936993
4092,0.236521006,0.0261090007,0.21875
4093,0.236521006,0.0261090007,0.226563007
4094,0.236521006,0.0261090007,0.234375
4095,0.236521006,0.0261090007,0.242186993
4096,0.236521006,0.0261090007,0.25
4097,0.236521006,0.0261090007,0.257813007
4098,0.236521006,0.0261090007,0.265625
4099,0.236521006,0.0261090007,0.273438007
4100,0.236521006,0.0261090007,0.28125
4101,0.236521006,0.0261090007,0.289061993
4102,0.236521006,0.0261090007,0.296875
4103,0.236521006,0.0261090007,0.304686993
4104,0.236521006,0.0261090007,0.3125
4105,0.236521006,0.0261090007,0.320313007
4106,0.236521006,0.0261090007,0.328125
4107,0.236521006,0.0261090007,0.335938007
4108,0.236521006,0.0261090007,0.34375
4109,0.236534998,0.0261138994,0.351585001
4110,0.236536995,0.0261144005,0.375
4111,0.236537993,0.0261124,0.382811993
4112,0.236550003,0.0261186007,-0.390388995
4113,0.236555994,0.0393928997,0.359360009
4114,0.236580998,0.0421831012,-0.0390625
4115,0.236580998,0.0421831012,-0.03125
4116,0.236580998,0.0421831012,-0.0234375
4117,0.236580998,0.0421831012,-0.015625
4118,0.236580998,0.0421831012,-0.0078125
4119,0.236580998,0.0421831012,-1e-12
4120,0.236580998,0.0421831012,0.0078125
4121,0.236580998,0.0421831012,0.015625
4122,0.236580998,0.0421831012,0.0234375
4123,0.236580998,0.0421831012,0.03125
4124,0.236580998,0.0421831012,0.0390625
4125,0.236610994,0.0261228997,0.390341014
4126,0.236613005,0.0418593995,-0.382755011
4127,0.236626998,0.0417127982,-0.374945015
4128,0.236638993,0.0346666016,-0.396421999
4129,0.236642003,0.0415662006,-0.367134988
4130,0.236653,0.0406006984,0.351516992
4131,0.236655995,0.0414195992,-0.359324992
4132,0.236671001,0.0412730016,-0.351516008
4133,0.236684993,0.0411264002,-0.343706012
4134,0.236697003,0.0262439009,-0.396414995
4135,0.236699,0.0409862995,0.343708992
4136,0.236699998,0.0409798995,-0.335895985
4137,0.236701995,0.0409605987,0.335896999
4138,0.236714005,0.0408333018,-0.328087002
4139,0.236714005,0.0408333018,0.328087002
4140,0.236728996,0.0406867005,-0.320277005
4141,0.236728996,0.0406867005,0.320277005
4142,0.236743003,0.0405400991,-0.312467009
4143,0.236743003,0.0405400991,0.312467009
4144,0.236757994,0.0403935015,-0.304657012
4145,0.236757994,0.0403935015,0.304657012
4146,0.236772001,0.0402469002,-0.296847999
4147,0.236772001,0.0402469002,0.296847999
4148,0.236774996,0.0346958004,-0.398086995
4149,0.236787006,0.0401002988,-0.289038002
4150,0.236787006,0.0401002988,0.289038002
4151,0.236800998,0.0399538018,-0.281228006
4152,0.236800998,0.0399538018,0.281228006
4153,0.236816004,0.0398072004,-0.273418009
4154,0.236816004,0.0398072004,0.273418009
4155,0.236829996,0.0396605991,-0.265608996
4156,0.236829996,0.0396605991,0.265608996
4157,0.236845002,0.0395140015,-0.257799
4158,0.236845002,0.0395140015,0.257799
4159,0.236858994,0.0393674001,-0.249989003
4160,0.236858994,0.0393674001,0.249989003
4161,0.236873999,0.0392207988,-0.242180005
4162,0.236873999,0.0392207988,0.242180005
4163,0.236888006,0.0390743017,-0.234369993
4164,0.236888006,0.0390743017,0.234369993
4165,0.236902997,0.0389277004,-0.226559997
4166,0.236902997,0.0389277004,0.226559997
4167,0.236917004,0.038781099,-0.21875
4168,0.236917004,0.038781099,0.21875
4169,0.236931995,0.0386345014,-0.210941002
4170,0.236931995,0.0386345014,0.210941002
4171,0.236946002,0.0384879,-0.203131005
4172,0.236946002,0.0384879,0.203131005
4173,0.236961007,0.0383412987,-0.195320994
4174,0.236961007,0.0383412987,0.195320994
4175,0.236974999,0.0381947011,-0.187511995
4176,0.236974999,0.0381947011,0.187511995
4177,0.236990005,0.0380482003,-0.179701999
4178,0.236990005,0.0380482003,0.179701999
4179,0.237003997,0.037901599,-0.171892002
4180,0.237003997,0.037901599,0.171892002
4181,0.237019002,0.0377550013,-0.164082006
4182,0.237019002,0.0377550013,0.164082006
4183,0.237032995,0.0376084,-0.156273007
4184,0.237032995,0.0376084,0.156273007
4185,0.237048,0.0374617986,-0.148462996
4186,0.237048,0.0374617986,0.148462996
4187,0.237062007,0.037315201,-0.140652999
4188,0.237062007,0.037315201,0.140652999
4189,0.237076998,0.0371685997,-0.132843003
4190,0.237076998,0.0371685997,0.132843003
4191,0.237091005,0.0370220989,-0.125034004
4192,0.237091005,0.0370220989,0.125034004
4193,0.237105995,0.0368755013,-0.117224
4194,0.237105995,0.0368755013,0.117224
4195,0.237120003,0.0367288999,-0.109413996
4196,0.237120003,0.0367288999,0.109413996
4197,0.237134993,0.0365822986,-0.101604998
4198,0.237134993,0.0365822986,0.101604998
4199,0.237149,0.036435701,-0.0937948972
4200,0.237149,0.036435701,0.0937948972
4201,0.237164006,0.0362890996,-0.0859851018
4202,0.237164006,0.0362890996,0.0859851018
4203,0.237177998,0.0361424983,-0.0781754032
4204,0.237177998,0.0361424983,0.0781754032
4205,0.237193003,0.0359960012,-0.0703656971
4206,0.237193003,0.0359960012,0.0703656971
4207,0.237206995,0.0358493999,-0.0625559986
4208,0.237206995,0.0358493999,0.0625559986
4209,0.237222001,0.0357027985,-0.0547463
4210,0.237222001,0.0357027985,0.0547463
4211,0.237256005,0.0355582014,-0.0469366014
4212,0.237256005,0.0355582014,0.0469366014
4213,0.237342998,0.0345087014,0.396266997
4214,0.237506002,0.0265884008,0.396228999
4215,0.237705007,0.0348947011,-0.390424013
4216,0.242985994,0.0282553993,-0.397056997
4217,0.243365005,0.0361053012,-0.397224993
4218,0.244457006,0.0287820008,-0.398164988
4219,0.245995998,0.0292622,-0.382813007
4220,0.245995998,0.0292622,-0.375
4221,0.245995998,0.0292622,-0.367188007
4222,0.245995998,0.0292622,-0.359375
4223,0.245995998,0.0292622,-0.351561993
4224,0.245995998,0.0292622,-0.34375
4225,0.245995998,0.0292622,-0.335938007
4226,0.245995998,0.0292622,-0.328125
4227,0.245995998,0.0292622,-0.320311993
4228,0.245995998,0.0292622,-0.3125
4229,0.245995998,0.0292622,-0.304688007
4230,0.245995998,0.0292622,-0.296875
4231,0.245995998,0.0292622,-0.289063007
4232,0.245995998,0.0292622,-0.28125
4233,0.245995998,0.0292622,-0.273438007
4234,0.245995998,0.0292622,-0.265625
4235,0.245995998,0.0292622,-0.257811993
4236,0.245995998,0.0292622,-0.25
4237,0.245995998,0.0292622,-0.242186993
4238,0.245995998,0.0292622,-0.234375
4239,0.245995998,0.0292622,-0.226561993
4240,0.245995998,0.0292622,-0.21875
4241,0.245995998,0.0292622,-0.210936993
4242,0.245995998,0.0292622,-0.203125
4243,0.245995998,0.0292622,-0.195313007
4244,0.245995998,0.0292622,-0.1875
4245,0.245995998,0.0292622,-0.179688007
4246,0.245995998,0.0292622,-0.171875
4247,0.245995998,0.0292622,-0.164061993
4248,0.245995998,0.0292622,-0.15625
4249,0.245995998,0.0292622,-0.148438007
4250,0.245995998,0.0292622,-0.140625
4251,0.245995998,0.0292622,-0.132813007
4252,0.245995998,0.0292622,-0.125
4253,0.245995998,0.0292622,-0.117187001
4254,0.245995998,0.0292622,-0.109375
4255,0.245995998,0.0292622,-0.101562999
4256,0.245995998,0.0292622,-0.09375
4257,0.245995998,0.0292622,-0.0859375
4258,0.245995998,0.0292622,-0.078125
4259,0.245995998,0.0292622,-0.0703125
4260,0.245995998,0.0292622,-0.0625
4261,0.245995998,0.0292622,-0.0546875
4262,0.245995998,0.0292622,-0.046875
4263,0.245995998,0.0292622,-0.0390625
4264,0.245995998,0.0292622,-0.03125
4265,0.245995998,0.0292622,-0.0234375
4266,0.245995998,0.0292622,-0.015625
4267,0.245995998,0.0292622,-0.0078125
4268,0.245995998,0.0292622,0
4269,0.245995998,0.0292622,0.0078125
4270,0.245995998,0.0292622,0.015625
4271,0.245995998,0.0292622,0.0234375
4272,0.245995998,0.0292622,0.03125
4273,0.245995998,0.0292622,0.0390625
4274,0.245995998,0.0292622,0.046875
4275,0.245995998,0.0292622,0.0546875
4276,0.245995998,0.0292622,0.0625
4277,0.245995998,0.0292622,0.0703125
4278,0.245995998,0.0292622,0.078125
4279,0.245995998,0.0292622,0.0859375
4280,0.245995998,0.0292622,0.09375
4281,0.245995998,0.0292622,0.101562001
4282,0.245995998,0.0292622,0.109375
4283,0.245995998,0.0292622,0.117187001
4284,0.245995998,0.0292622,0.125
4285,0.245995998,0.0292622,0.132811993
4286,0.245995998,0.0292622,0.140625
4287,0.245995998,0.0292622,0.148436993
4288,0.245995998,0.0292622,0.15625
4289,0.245995998,0.0292622,0.164061993
4290,0.245995998,0.0292622,0.171875
4291,0.245995998,0.0292622,0.179688007
4292,0.245995998,0.0292622,0.1875
4293,0.245995998,0.0292622,0.195311993
4294,0.245995998,0.0292622,0.203125
4295,0.245995998,0.0292622,0.210938007
4296,0.245995998,0.0292622,0.21875
4297,0.245995998,0.0292622,0.226563007
4298,0.245995998,0.0292622,0.234375
4299,0.245995998,0.0292622,0.242186993
4300,0.245995998,0.0292622,0.25
4301,0.245995998,0.0292622,0.257811993
4302,0.245995998,0.0292622,0.265625
4303,0.245995998,0.0292622,0.273438007
4304,0.245995998,0.0292622,0.28125
4305,0.245995998,0.0292622,0.289063007
4306,0.245995998,0.0292622,0.296875
4307,0.245995998,0.0292622,0.304688007
4308,0.245995998,0.0292622,0.3125
4309,0.245995998,0.0292622,0.320313007
4310,0.245995998,0.0292622,0.328125
4311,0.245995998,0.0292622,0.335938007
4312,0.245995998,0.0292622,0.34375
4313,0.245998994,0.0292629991,-0.390529007
4314,0.246011004,0.0292671993,0.351586014
4315,0.246132001,0.0292827003,0.395844012
4316,0.246362001,0.0293847006,-0.396690995
4317,0.246482998,0.0294253994,0.359966993
4318,0.246529996,0.0367822014,-0.0078125
4319,0.246529996,0.0367822014,0
4320,0.246529996,0.0367822014,0.0078125
4321,0.246696994,0.0373886004,-0.0469175987
4322,0.246696994,0.0373886004,0.0469175987
4323,0.246739,0.037264701,-0.0391073003
4324,0.246739,0.037264701,0.0391073003
4325,0.246779993,0.0371408015,-0.0312969983
4326,0.246779993,0.0371408015,0.0312969983
4327,0.246822,0.0370168984,-0.0234866999
4328,0.246822,0.0370168984,0.0234866999
4329,0.246864006,0.036892999,-0.0156763997
4330,0.246864006,0.036892999,0.0156763997
4331,0.246933997,0.0295503009,0.390334994
4332,0.247012004,0.0296029001,0.367256999
4333,0.247102007,0.0296327006,0.375
4334,0.247104004,0.0296279993,0.382813007
4335,0.247132003,0.0296430998,-0.39427799
4336,0.247134998,0.0296442006,-0.386718988
4337,0.247134998,0.0296442006,-0.378906012
4338,0.247134998,0.0296442006,-0.371093988
4339,0.247134998,0.0296442006,-0.363281012
4340,0.247134998,0.0296442006,-0.355468988
4341,0.247134998,0.0296442006,-0.347656012
4342,0.247134998,0.0296442006,-0.339843988
4343,0.247134998,0.0296442006,-0.332031012
4344,0.247134998,0.0296442006,-0.324218988
4345,0.247134998,0.0296442006,-0.316406012
4346,0.247134998,0.0296442006,-0.308593988
4347,0.247134998,0.0296442006,-0.300781012
4348,0.247134998,0.0296442006,-0.292968988
4349,0.247134998,0.0296442006,-0.285156012
4350,0.247134998,0.0296442006,-0.277343988
4351,0.247134998,0.0296442006,-0.269531012
4352,0.247134998,0.0296442006,-0.261718988
4353,0.247134998,0.0296442006,-0.253906012
4354,0.247134998,0.0296442006,-0.246094003
4355,0.247134998,0.0296442006,-0.238280997
4356,0.247134998,0.0296442006,-0.230469003
4357,0.247134998,0.0296442006,-0.222655997
4358,0.247134998,0.0296442006,-0.214844003
4359,0.247134998,0.0296442006,-0.207030997
4360,0.247134998,0.0296442006,-0.199219003
4361,0.247134998,0.0296442006,-0.191405997
4362,0.247134998,0.0296442006,-0.183594003
4363,0.247134998,0.0296442006,-0.175780997
4364,0.247134998,0.0296442006,-0.167969003
4365,0.247134998,0.0296442006,-0.160155997
4366,0.247134998,0.0296442006,-0.152344003
4367,0.247134998,0.0296442006,-0.144530997
4368,0.247134998,0.0296442006,-0.136719003
4369,0.247134998,0.0296442006,-0.128905997
4370,0.247134998,0.0296442006,-0.121094003
4371,0.247134998,0.0296442006,-0.113280997
4372,0.247134998,0.0296442006,-0.105469003
4373,0.247134998,0.0296442006,-0.0976563022
4374,0.247134998,0.0296442006,-0.0898436978
4375,0.247134998,0.0296442006,-0.0820313022
4376,0.247134998,0.0296442006,-0.0742188022
4377,0.247134998,0.0296442006,-0.0664063022
4378,0.247134998,0.0296442006,-0.0585937016
4379,0.247134998,0.0296442006,-0.0507812016
4380,0.247134998,0.0296442006,-0.0429687984
4381,0.247134998,0.0296442006,-0.0351562984
4382,0.247134998,0.0296442006,-0.0273436997
4383,0.247134998,0.0296442006,-0.0195313003
4384,0.247134998,0.0296442006,-0.0117186997
4385,0.247134998,0.0296442006,-0.00390625
4386,0.247134998,0.0296442006,0.00390625
4387,0.247134998,0.0296442006,0.0117188003
4388,0.247134998,0.0296442006,0.0195313003
4389,0.247134998,0.0296442006,0.0273438003
4390,0.247134998,0.0296442006,0.0351562016
4391,0.247134998,0.0296442006,0.0429687984
4392,0.247134998,0.0296442006,0.0507812016
4393,0.247134998,0.0296442006,0.0585937984
4394,0.247134998,0.0296442006,0.0664063022
4395,0.247134998,0.0296442006,0.0742188022
4396,0.247134998,0.0296442006,0.0820313022
4397,0.247134998,0.0296442006,0.0898436978
4398,0.247134998,0.0296442006,0.0976561978
4399,0.247134998,0.0296442006,0.105469003
4400,0.247134998,0.0296442006,0.113280997
4401,0.247134998,0.0296442006,0.121094003
4402,0.247134998,0.0296442006,0.128905997
4403,0.247134998,0.0296442006,0.136719003
4404,0.247134998,0.0296442006,0.144530997
4405,0.247134998,0.0296442006,0.152344003
4406,0.247134998,0.0296442006,0.160155997
4407,0.247134998,0.0296442006,0.167969003
4408,0.247134998,0.0296442006,0.175780997
4409,0.247134998,0.0296442006,0.183594003
4410,0.247134998,0.0296442006,0.191405997
4411,0.247134998,0.0296442006,0.199219003
4412,0.247134998,0.0296442006,0.207030997
4413,0.247134998,0.0296442006,0.214844003
4414,0.247134998,0.0296442006,0.222655997
4415,0.247134998,0.0296442006,0.230469003
4416,0.247134998,0.0296442006,0.238280997
4417,0.247134998,0.0296442006,0.246094003
4418,0.247134998,0.0296442006,0.253906012
4419,0.247134998,0.0296442006,0.261718988
4420,0.247134998,0.0296442006,0.269531012
4421,0.247134998,0.0296442006,0.277343988
4422,0.247134998,0.0296442006,0.285156012
4423,0.247134998,0.0296442006,0.292968988
4424,0.247134998,0.0296442006,0.300781012
4425,0.247134998,0.0296442006,0.308593988
4426,0.247134998,0.0296442006,0.316406012
4427,0.247134998,0.0296442006,0.324218988
4428,0.247134998,0.0296442006,0.332031012
4429,0.247134998,0.0296442006,0.339843988
4430,0.247134998,0.0296442006,0.347656012
4431,0.247235,0.0296778008,0.355547994
4432,0.248125002,0.0301424991,0.396270007
4433,0.249206007,0.0373544991,-0.396728009
4434,0.249275997,0.0368217006,0.395599008
4435,0.250151008,0.0307014994,-0.397496015
4436,0.250883013,0.0445868,0.366636008
4437,0.250968993,0.0432331003,0.359373987
4438,0.251224995,0.0428650007,0.351581991
4439,0.25128001,0.0435849018,-0.265625
4440,0.25128001,0.0435849018,-0.257813007
4441,0.25128001,0.0435849018,-0.25
4442,0.25128001,0.0435849018,-0.242186993
4443,0.25128001,0.0435849018,-0.234375
4444,0.25128001,0.0435849018,-0.226561993
4445,0.25128001,0.0435849018,-0.21875
4446,0.25128001,0.0435849018,-0.210938007
4447,0.25128001,0.0435849018,-0.203125
4448,0.25128001,0.0435849018,-0.195313007
4449,0.25128001,0.0435849018,-0.1875
4450,0.25128001,0.0435849018,-0.179688007
4451,0.25128001,0.0435849018,-0.171875
4452,0.25128001,0.0435849018,-0.164061993
4453,0.25128001,0.0435849018,-0.15625
4454,0.25128001,0.0435849018,-0.148438007
4455,0.25128001,0.0435849018,-0.140625
4456,0.25128001,0.0435849018,-0.132813007
4457,0.25128001,0.0435849018,-0.125
4458,0.25128001,0.0435849018,-0.117187001
4459,0.25128001,0.0435849018,-0.109375
4460,0.25128001,0.0435849018,-0.101562001
4461,0.25128001,0.0435849018,-0.09375
4462,0.25128001,0.0435849018,-0.0859375
4463,0.25128001,0.0435849018,-0.078125
4464,0.25128001,0.0435849018,-0.0703125
4465,0.25128001,0.0435849018,-0.0625
4466,0.25128001,0.0435849018,-0.0546875
4467,0.25128001,0.0435849018,-0.046875
4468,0.25128001,0.0435849018,-0.0390625
4469,0.25128001,0.0435849018,-0.03125
4470,0.25128001,0.0435849018,-0.0234375
4471,0.25128001,0.0435849018,-0.015625
4472,0.25128001,0.0435849018,-0.0078125
4473,0.25128001,0.0435849018,0
4474,0.25128001,0.0435849018,0.0078125
4475,0.25128001,0.0435849018,0.015625
4476,0.25128001,0.0435849018,0.0234375
4477,0.25128001,0.0435849018,0.03125
4478,0.25128001,0.0435849018,0.0390625
4479,0.25128001,0.0435849018,0.046875
4480,0.25128001,0.0435849018,0.0546875
4481,0.25128001,0.0435849018,0.0625
4482,0.25128001,0.0435849018,0.0703125
4483,0.25128001,0.0435849018,0.078125
4484,0.25128001,0.0435849018,0.0859375
4485,0.25128001,0.0435849018,0.09375
4486,0.25128001,0.0435849018,0.101562999
4487,0.25128001,0.0435849018,0.109375
4488,0.25128001,0.0435849018,0.117187001
4489,0.25128001,0.0435849018,0.125
4490,0.25128001,0.0435849018,0.132811993
4491,0.25128001,0.0435849018,0.140625
4492,0.25128001,0.0435849018,0.148438007
4493,0.25128001,0.0435849018,0.15625
4494,0.25128001,0.0435849018,0.164063007
4495,0.25128001,0.0435849018,0.171875
4496,0.25128001,0.0435849018,0.179688007
4497,0.25128001,0.0435849018,0.1875
4498,0.25128001,0.0435849018,0.195311993
4499,0.25128001,0.0435849018,0.203125
4500,0.25128001,0.0435849018,0.210938007
4501,0.25128001,0.0435849018,0.21875
4502,0.25128001,0.0435849018,0.226563007
4503,0.25128001,0.0435849018,0.234375
4504,0.25128001,0.0435849018,0.242186993
4505,0.25128001,0.0435849018,0.25
4506,0.25128001,0.0435849018,0.257811993
4507,0.25128001,0.0435849018,0.265625
4508,0.251302987,0.0433356985,-0.38280201
4509,0.251314014,0.0432224981,-0.374991
4510,0.251323998,0.0431092009,-0.36717999
4511,0.251334012,0.0429960005,-0.359369993
4512,0.251345009,0.0428828001,-0.351559013
4513,0.251354992,0.0427685007,0.343748003
4514,0.251354992,0.0427695997,-0.343748003
4515,0.251365989,0.0426563993,-0.335936993
4516,0.251365989,0.0426563993,0.335936993
4517,0.251376003,0.0425431989,-0.328126013
4518,0.251376003,0.0425431989,0.328126013
4519,0.251387,0.0424299985,-0.320315003
4520,0.251387,0.0424299985,0.320315003
4521,0.251397014,0.0423168018,-0.312503994
4522,0.251397014,0.0423168018,0.312503994
4523,0.251397997,0.0434568003,-0.390491992
4524,0.251406997,0.0422036014,-0.304693997
4525,0.251406997,0.0422036014,0.304693997
4526,0.251417994,0.0420904011,-0.296882987
4527,0.251417994,0.0420904011,0.296882987
4528,0.251428008,0.0419772007,-0.289072007
4529,0.251428008,0.0419772007,0.289072007
4530,0.251439005,0.0418640003,-0.281260997
4531,0.251439005,0.0418640003,0.281260997
4532,0.251448989,0.0417506993,-0.273449987
4533,0.251448989,0.0417506993,0.273449987
4534,0.251644999,0.0435689986,-0.396609008
4535,0.251681,0.047770299,0.37508601
4536,0.251837999,0.0435663983,0.39684999
4537,0.25188899,0.0437633991,0.363164991
4538,0.251902997,0.0450048,0.382811993
4539,0.252032995,0.0476805009,0.369367987
4540,0.252059996,0.0431060009,0.355498999
4541,0.252137005,0.0443246998,0.390412003
4542,0.252169013,0.0436668992,-0.316406012
4543,0.252169013,0.0436668992,-0.308593988
4544,0.252169013,0.0436668992,-0.300781012
4545,0.252169013,0.0436668992,-0.292968988
4546,0.252169013,0.0436668992,-0.285156012
4547,0.252169013,0.0436668992,-0.277343988
4548,0.252169013,0.0436668992,-0.269531012
4549,0.252169013,0.0436668992,-0.261718988
4550,0.252169013,0.0436668992,-0.253906012
4551,0.252169013,0.0436668992,-0.246094003
4552,0.252169013,0.0436668992,-0.238280997
4553,0.252169013,0.0436668992,-0.230469003
4554,0.252169013,0.0436668992,-0.222655997
4555,0.252169013,0.0436668992,-0.214844003
4556,0.252169013,0.0436668992,-0.207030997
4557,0.252169013,0.0436668992,-0.199219003
4558,0.252169013,0.0436668992,-0.191405997
4559,0.252169013,0.0436668992,-0.183594003
4560,0.252169013,0.0436668992,-0.175780997
4561,0.252169013,0.0436668992,-0.167969003
4562,0.252169013,0.0436668992,-0.160155997
4563,0.252169013,0.0436668992,-0.152344003
4564,0.252169013,0.0436668992,-0.144530997
4565,0.252169013,0.0436668992,-0.136719003
4566,0.252169013,0.0436668992,-0.128905997
4567,0.252169013,0.0436668992,-0.121094003
4568,0.252169013,0.0436668992,-0.113280997
4569,0.252169013,0.0436668992,-0.105469003
4570,0.252169013,0.0436668992,-0.0976563022
4571,0.252169013,0.0436668992,-0.0898438022
4572,0.252169013,0.0436668992,-0.0820313022
4573,0.252169013,0.0436668992,-0.0742186978
4574,0.252169013,0.0436668992,-0.0664063022
4575,0.252169013,0.0436668992,-0.0585937984
4576,0.252169013,0.0436668992,-0.0507812016
4577,0.252169013,0.0436668992,-0.0429687016
4578,0.252169013,0.0436668992,-0.0351562984
4579,0.252169013,0.0436668992,-0.0273438003
4580,0.252169013,0.0436668992,-0.0195311997
4581,0.252169013,0.0436668992,-0.0117188003
4582,0.252169013,0.0436668992,-0.00390625
4583,0.252169013,0.0436668992,0.00390625
4584,0.252169013,0.0436668992,0.0117186997
4585,0.252169013,0.0436668992,0.0195313003
4586,0.252169013,0.0436668992,0.0273438003
4587,0.252169013,0.0436668992,0.0351562016
4588,0.252169013,0.0436668992,0.0429687016
4589,0.252169013,0.0436668992,0.0507812016
4590,0.252169013,0.0436668992,0.0585937016
4591,0.252169013,0.0436668992,0.0664063022
4592,0.252169013,0.0436668992,0.0742186978
4593,0.252169013,0.0436668992,0.0820313022
4594,0.252169013,0.0436668992,0.0898438022
4595,0.252169013,0.0436668992,0.0976561978
4596,0.252169013,0.0436668992,0.105469003
4597,0.252169013,0.0436668992,0.113280997
4598,0.252169013,0.0436668992,0.121094003
4599,0.252169013,0.0436668992,0.128905997
4600,0.252169013,0.0436668992,0.136719003
4601,0.252169013,0.0436668992,0.144530997
4602,0.252169013,0.0436668992,0.152344003
4603,0.252169013,0.0436668992,0.160155997
4604,0.252169013,0.0436668992,0.167969003
4605,0.252169013,0.0436668992,0.175780997
4606,0.252169013,0.0436668992,0.183594003
4607,0.252169013,0.0436668992,0.191405997
4608,0.252169013,0.0436668992,0.199219003
4609,0.252169013,0.0436668992,0.207030997
4610,0.252169013,0.0436668992,0.214844003
4611,0.252169013,0.0436668992,0.222655997
4612,0.252169013,0.0436668992,0.230469003
4613,0.252169013,0.0436668992,0.238280997
4614,0.252169013,0.0436668992,0.246094003
4615,0.252169013,0.0436668992,0.253906012
4616,0.252169013,0.0436668992,0.261718988
4617,0.252169013,0.0436668992,0.269531012
4618,0.252169013,0.0436668992,0.277343988
4619,0.252169013,0.0436668992,0.285156012
4620,0.252169013,0.0436668992,0.292968988
4621,0.252169013,0.0436668992,0.300781012
4622,0.252169013,0.0436668992,0.308593988
4623,0.252169013,0.0436668992,0.316406012
4624,0.252187014,0.0434743017,-0.386712998
4625,0.252198011,0.0433611013,-0.378901988
4626,0.252207994,0.0432479009,-0.371091008
4627,0.252218008,0.0431347005,-0.363279998
4628,0.252229005,0.0430215001,-0.355468988
4629,0.252238989,0.0429082997,-0.347658992
4630,0.252238989,0.0429109,0.347658008
4631,0.252249002,0.0445735008,0.396026999
4632,0.252249986,0.0427950993,-0.339848012
4633,0.252249986,0.0427954011,0.339848012
4634,0.25226,0.0426818989,-0.332037002
4635,0.25226,0.0426818989,0.332037002
4636,0.252270997,0.0425686985,-0.324225992
4637,0.252270997,0.0425686985,0.324225992
4638,0.252310991,0.0435955003,-0.394225001
4639,0.255699009,0.0325390995,-0.394412011
4640,0.255717009,0.0325452015,-0.390625
4641,0.255717009,0.0325452015,-0.382811993
4642,0.255717009,0.0325452015,-0.375
4643,0.255717009,0.0325452015,-0.367188007
4644,0.255717009,0.0325452015,-0.359375
4645,0.255717009,0.0325452015,-0.351561993
4646,0.255717009,0.0325452015,-0.34375
4647,0.255717009,0.0325452015,-0.335938007
4648,0.255717009,0.0325452015,-0.328125
4649,0.255717009,0.0325452015,-0.320311993
4650,0.255717009,0.0325452015,-0.3125
4651,0.255717009,0.0325452015,-0.304688007
4652,0.255717009,0.0325452015,-0.296875
4653,0.255717009,0.0325452015,-0.289063007
4654,0.255717009,0.0325452015,-0.28125
4655,0.255717009,0.0325452015,-0.273438007
4656,0.255717009,0.0325452015,-0.265625
4657,0.255717009,0.0325452015,-0.257813007
4658,0.255717009,0.0325452015,-0.25
4659,0.255717009,0.0325452015,-0.242186993
4660,0.255717009,0.0325452015,-0.234375
4661,0.255717009,0.0325452015,-0.226561993
4662,0.255717009,0.0325452015,-0.21875
4663,0.255717009,0.0325452015,-0.210936993
4664,0.255717009,0.0325452015,-0.203125
4665,0.255717009,0.0325452015,-0.195313007
4666,0.255717009,0.0325452015,-0.1875
4667,0.255717009,0.0325452015,-0.179686993
4668,0.255717009,0.0325452015,-0.171875
4669,0.255717009,0.0325452015,-0.164061993
4670,0.255717009,0.0325452015,-0.15625
4671,0.255717009,0.0325452015,-0.148438007
4672,0.255717009,0.0325452015,-0.140625
4673,0.255717009,0.0325452015,-0.132811993
4674,0.255717009,0.0325452015,-0.125
4675,0.255717009,0.0325452015,-0.117187001
4676,0.255717009,0.0325452015,-0.109375
4677,0.255717009,0.0325452015,-0.101562001
4678,0.255717009,0.0325452015,-0.09375
4679,0.255717009,0.0325452015,-0.0859375
4680,0.255717009,0.0325452015,-0.078125
4681,0.255717009,0.0325452015,-0.0703125
4682,0.255717009,0.0325452015,-0.0625
4683,0.255717009,0.0325452015,-0.0546875
4684,0.255717009,0.0325452015,-0.046875
4685,0.255717009,0.0325452015,-0.0390625
4686,0.255717009,0.0325452015,-0.03125
4687,0.255717009,0.0325452015,-0.0234375
4688,0.255717009,0.0325452015,-0.015625
4689,0.255717009,0.0325452015,-0.0078125
4690,0.255717009,0.0325452015,0
4691,0.255717009,0.0325452015,0.0078125
4692,0.255717009,0.0325452015,0.015625
4693,0.255717009,0.0325452015,0.0234375
4694,0.255717009,0.0325452015,0.03125
4695,0.255717009,0.0325452015,0.0390625
4696,0.255717009,0.0325452015,0.046875
4697,0.255717009,0.0325452015,0.0546875
4698,0.255717009,0.0325452015,0.0625
4699,0.255717009,0.0325452015,0.0703125
4700,0.255717009,0.0325452015,0.078125
4701,0.255717009,0.0325452015,0.0859375
4702,0.255717009,0.0325452015,0.09375
4703,0.255717009,0.0325452015,0.101562999
4704,0.255717009,0.0325452015,0.109375
4705,0.255717009,0.0325452015,0.117187001
4706,0.255717009,0.0325452015,0.125
4707,0.255717009,0.0325452015,0.132811993
4708,0.255717009,0.0325452015,0.140625
4709,0.255717009,0.0325452015,0.148438007
4710,0.255717009,0.0325452015,0.15625
4711,0.255717009,0.0325452015,0.164063007
4712,0.255717009,0.0325452015,0.171875
4713,0.255717009,0.0325452015,0.179688007
4714,0.255717009,0.0325452015,0.1875
4715,0.255717009,0.0325452015,0.195313007
4716,0.255717009,0.0325452015,0.203125
4717,0.255717009,0.0325452015,0.210938007
4718,0.255717009,0.0325452015,0.21875
4719,0.255717009,0.0325452015,0.226563007
4720,0.255717009,0.0325452015,0.234375
4721,0.255717009,0.0325452015,0.242186993
4722,0.255717009,0.0325452015,0.25
4723,0.255717009,0.0325452015,0.257811993
4724,0.255717009,0.0325452015,0.265625
4725,0.255717009,0.0325452015,0.273438007
4726,0.255717009,0.0325452015,0.28125
4727,0.255717009,0.0325452015,0.289061993
4728,0.255717009,0.0325452015,0.296875
4729,0.255717009,0.0325452015,0.304688007
4730,0.255717009,0.0325452015,0.3125
4731,0.255717009,0.0325452015,0.320311993
4732,0.255717009,0.0325452015,0.328125
4733,0.255717009,0.0325452015,0.335938007
4734,0.255717009,0.0325452015,0.34375
4735,0.255717009,0.0325452015,0.351563007
4736,0.255724996,0.0325478017,-0.386718988
4737,0.255724996,0.0325478017,-0.378906012
4738,0.255724996,0.0325478017,-0.371093988
4739,0.255724996,0.0325478017,-0.363281012
4740,0.255724996,0.0325478017,-0.355468988
4741,0.255724996,0.0325478017,-0.347656012
4742,0.255724996,0.0325478017,-0.339843988
4743,0.255724996,0.0325478017,-0.332031012
4744,0.255724996,0.0325478017,-0.324218988
4745,0.255724996,0.0325478017,-0.316406012
4746,0.255724996,0.0325478017,-0.308593988
4747,0.255724996,0.0325478017,-0.300781012
4748,0.255724996,0.0325478017,-0.292968988
4749,0.255724996,0.0325478017,-0.285156012
4750,0.255724996,0.0325478017,-0.277343988
4751,0.255724996,0.0325478017,-0.269531012
4752,0.255724996,0.0325478017,-0.261718988
4753,0.255724996,0.0325478017,-0.253906012
4754,0.255724996,0.0325478017,-0.246094003
4755,0.255724996,0.0325478017,-0.238280997
4756,0.255724996,0.0325478017,-0.230469003
4757,0.255724996,0.0325478017,-0.222655997
4758,0.255724996,0.0325478017,-0.214844003
4759,0.255724996,0.0325478017,-0.207030997
4760,0.255724996,0.0325478017,-0.199219003
4761,0.255724996,0.0325478017,-0.191405997
4762,0.255724996,0.0325478017,-0.183594003
4763,0.255724996,0.0325478017,-0.175780997
4764,0.255724996,0.0325478017,-0.167969003
4765,0.255724996,0.0325478017,-0.160155997
4766,0.255724996,0.0325478017,-0.152344003
4767,0.255724996,0.0325478017,-0.144530997
4768,0.255724996,0.0325478017,-0.136719003
4769,0.255724996,0.0325478017,-0.128905997
4770,0.255724996,0.0325478017,-0.121094003
4771,0.255724996,0.0325478017,-0.113280997
4772,0.255724996,0.0325478017,-0.105469003
4773,0.255724996,0.0325478017,-0.0976561978
4774,0.255724996,0.0325478017,-0.0898436978
4775,0.255724996,0.0325478017,-0.0820311978
4776,0.255724996,0.0325478017,-0.0742186978
4777,0.255724996,0.0325478017,-0.0664063022
4778,0.255724996,0.0325478017,-0.0585937016
4779,0.255724996,0.0325478017,-0.0507812016
4780,0.255724996,0.0325478017,-0.0429687984
4781,0.255724996,0.0325478017,-0.0351562984
4782,0.255724996,0.0325478017,-0.0273438003
4783,0.255724996,0.0325478017,-0.0195311997
4784,0.255724996,0.0325478017,-0.0117186997
4785,0.255724996,0.0325478017,-0.00390625
4786,0.255724996,0.0325478017,0.00390625
4787,0.255724996,0.0325478017,0.0117186997
4788,0.255724996,0.0325478017,0.0195311997
4789,0.255724996,0.0325478017,0.0273436997
4790,0.255724996,0.0325478017,0.0351562016
4791,0.255724996,0.0325478017,0.0429687016
4792,0.255724996,0.0325478017,0.0507812016
4793,0.255724996,0.0325478017,0.0585937016
4794,0.255724996,0.0325478017,0.0664061978
4795,0.255724996,0.0325478017,0.0742188022
4796,0.255724996,0.0325478017,0.0820311978
4797,0.255724996,0.0325478017,0.0898436978
4798,0.255724996,0.0325478017,0.0976561978
4799,0.255724996,0.0325478017,0.105469003
4800,0.255724996,0.0325478017,0.113280997
4801,0.255724996,0.0325478017,0.121094003
4802,0.255724996,0.0325478017,0.128905997
4803,0.255724996,0.0325478017,0.136719003
4804,0.255724996,0.0325478017,0.144530997
4805,0.255724996,0.0325478017,0.152344003
4806,0.255724996,0.0325478017,0.160155997
4807,0.255724996,0.0325478017,0.167969003
4808,0.255724996,0.0325478017,0.175780997
4809,0.255724996,0.0325478017,0.183594003
4810,0.255724996,0.0325478017,0.191405997
4811,0.255724996,0.0325478017,0.199219003
4812,0.255724996,0.0325478017,0.207030997
4813,0.255724996,0.0325478017,0.214844003
4814,0.255724996,0.0325478017,0.222655997
4815,0.255724996,0.0325478017,0.230469003
4816,0.255724996,0.0325478017,0.238280997
4817,0.255724996,0.0325478017,0.246094003
4818,0.255724996,0.0325478017,0.253906012
4819,0.255724996,0.0325478017,0.261718988
4820,0.255724996,0.0325478017,0.269531012
4821,0.255724996,0.0325478017,0.277343988
4822,0.255724996,0.0325478017,0.285156012
4823,0.255724996,0.0325478017,0.292968988
4824,0.255724996,0.0325478017,0.300781012
4825,0.255724996,0.0325478017,0.308593988
4826,0.255724996,0.0325478017,0.316406012
4827,0.255724996,0.0325478017,0.324218988
4828,0.255724996,0.0325478017,0.332031012
4829,0.255724996,0.0325478017,0.339843988
4830,0.255724996,0.0325478017,0.347656012
4831,0.25574401,0.0325544998,0.355293989
4832,0.255892992,0.0387847014,-0.398216009
4833,0.256071001,0.0326655991,-0.397439986
4834,0.256143004,0.0326901004,0.358049989
4835,0.256307006,0.0440074988,-0.397365004
4836,0.256309003,0.0439626984,0.398068011
4837,0.256514996,0.0382985994,0.397136986
4838,0.256554008,0.0440642014,-0.390625
4839,0.256554008,0.0440642014,-0.382811993
4840,0.256554008,0.0440642014,-0.375
4841,0.256554008,0.0440642014,-0.367188007
4842,0.256554008,0.0440642014,-0.359375
4843,0.256554008,0.0440642014,-0.351563007
4844,0.256554008,0.0440642014,-0.34375
4845,0.256554008,0.0440642014,-0.335938007
4846,0.256554008,0.0440642014,-0.328125
4847,0.256554008,0.0440642014,-0.320311993
4848,0.256554008,0.0440642014,-0.3125
4849,0.256554008,0.0440642014,-0.304688007
4850,0.256554008,0.0440642014,-0.296875
4851,0.256554008,0.0440642014,-0.289063007
4852,0.256554008,0.0440642014,-0.28125
4853,0.256554008,0.0440642014,-0.273438007
4854,0.256554008,0.0440642014,-0.265625
4855,0.256554008,0.0440642014,-0.257811993
4856,0.256554008,0.0440642014,-0.25
4857,0.256554008,0.0440642014,-0.242186993
4858,0.256554008,0.0440642014,-0.234375
4859,0.256554008,0.0440642014,-0.226561993
4860,0.256554008,0.0440642014,-0.21875
4861,0.256554008,0.0440642014,-0.210938007
4862,0.256554008,0.0440642014,-0.203125
4863,0.256554008,0.0440642014,-0.195311993
4864,0.256554008,0.0440642014,-0.1875
4865,0.256554008,0.0440642014,-0.179688007
4866,0.256554008,0.0440642014,-0.171875
4867,0.256554008,0.0440642014,-0.164063007
4868,0.256554008,0.0440642014,-0.15625
4869,0.256554008,0.0440642014,-0.148438007
4870,0.256554008,0.0440642014,-0.140625
4871,0.256554008,0.0440642014,-0.132811993
4872,0.256554008,0.0440642014,-0.125
4873,0.256554008,0.0440642014,-0.117187001
4874,0.256554008,0.0440642014,-0.109375
4875,0.256554008,0.0440642014,-0.101562999
4876,0.256554008,0.0440642014,-0.09375
4877,0.256554008,0.0440642014,-0.0859375
4878,0.256554008,0.0440642014,-0.078125
4879,0.256554008,0.0440642014,-0.0703125
4880,0.256554008,0.0440642014,-0.0625
4881,0.256554008,0.0440642014,-0.0546875
4882,0.256554008,0.0440642014,-0.046875
4883,0.256554008,0.0440642014,-0.0390625
4884,0.256554008,0.0440642014,-0.03125
4885,0.256554008,0.0440642014,-0.0234375
4886,0.256554008,0.0440642014,-0.015625
4887,0.256554008,0.0440642014,-0.0078125
4888,0.256554008,0.0440642014,-0
4889,0.256554008,0.0440642014,0.0078125
4890,0.256554008,0.0440642014,0.015625
4891,0.256554008,0.0440642014,0.0234375
4892,0.256554008,0.0440642014,0.03125
4893,0.256554008,0.0440642014,0.0390625
4894,0.256554008,0.0440642014,0.046875
4895,0.256554008,0.0440642014,0.0546875
4896,0.256554008,0.0440642014,0.0625
4897,0.256554008,0.0440642014,0.0703125
4898,0.256554008,0.0440642014,0.078125
4899,0.256554008,0.0440642014,0.0859375
4900,0.256554008,0.0440642014,0.09375
4901,0.256554008,0.0440642014,0.101562999
4902,0.256554008,0.0440642014,0.109375
4903,0.256554008,0.0440642014,0.117187999
4904,0.256554008,0.0440642014,0.125
4905,0.256554008,0.0440642014,0.132813007
4906,0.256554008,0.0440642014,0.140625
4907,0.256554008,0.0440642014,0.148438007
4908,0.256554008,0.0440642014,0.15625
4909,0.256554008,0.0440642014,0.164061993
4910,0.256554008,0.0440642014,0.171875
4911,0.256554008,0.0440642014,0.179686993
4912,0.256554008,0.0440642014,0.1875
4913,0.256554008,0.0440642014,0.195313007
4914,0.256554008,0.0440642014,0.203125
4915,0.256554008,0.0440642014,0.210936993
4916,0.256554008,0.0440642014,0.21875
4917,0.256554008,0.0440642014,0.226563007
4918,0.256554008,0.0440642014,0.234375
4919,0.256554008,0.0440642014,0.242186993
4920,0.256554008,0.0440642014,0.25
4921,0.256554008,0.0440642014,0.257811993
4922,0.256554008,0.0440642014,0.265625
4923,0.256554008,0.0440642014,0.273438007
4924,0.256554008,0.0440642014,0.28125
4925,0.256554008,0.0440642014,0.289063007
4926,0.256554008,0.0440642014,0.296875
4927,0.256554008,0.0440642014,0.304688007
4928,0.256554008,0.0440642014,0.3125
4929,0.256554008,0.0440642014,0.320313007
4930,0.256554008,0.0440642014,0.328125
4931,0.256554008,0.0440642014,0.335936993
4932,0.256554008,0.0440642014,0.34375
4933,0.256554008,0.0440643989,0.351561993
4934,0.256554008,0.0440663993,0.359375
4935,0.256558001,0.0440646,-0.386718988
4936,0.256558001,0.0440646,-0.378906012
4937,0.256558001,0.0440646,-0.371093988
4938,0.256558001,0.0440646,-0.363281012
4939,0.256558001,0.0440646,-0.355468988
4940,0.256558001,0.0440646,-0.347656012
4941,0.256558001,0.0440646,-0.339843988
4942,0.256558001,0.0440646,-0.332031012
4943,0.256558001,0.0440646,-0.324218988
4944,0.256558001,0.0440646,-0.316406012
4945,0.256558001,0.0440646,-0.308593988
4946,0.256558001,0.0440646,-0.300781012
4947,0.256558001,0.0440646,-0.292968988
4948,0.256558001,0.0440646,-0.285156012
4949,0.256558001,0.0440646,-0.277343988
4950,0.256558001,0.0440646,-0.269531012
4951,0.256558001,0.0440646,-0.261718988
4952,0.256558001,0.0440646,-0.253906012
4953,0.256558001,0.0440646,-0.246094003
4954,0.256558001,0.0440646,-0.238280997
4955,0.256558001,0.0440646,-0.230469003
4956,0.256558001,0.0440646,-0.222655997
4957,0.256558001,0.0440646,-0.214844003
4958,0.256558001,0.0440646,-0.207030997
4959,0.256558001,0.0440646,-0.199219003
4960,0.256558001,0.0440646,-0.191405997
4961,0.256558001,0.0440646,-0.183594003
4962,0.256558001,0.0440646,-0.175780997
4963,0.256558001,0.0440646,-0.167969003
4964,0.256558001,0.0440646,-0.160155997
4965,0.256558001,0.0440646,-0.152344003
4966,0.256558001,0.0440646,-0.144530997
4967,0.256558001,0.0440646,-0.136719003
4968,0.256558001,0.0440646,-0.128905997
4969,0.256558001,0.0440646,-0.121094003
4970,0.256558001,0.0440646,-0.113280997
4971,0.256558001,0.0440646,-0.105469003
4972,0.256558001,0.0440646,-0.0976563022
4973,0.256558001,0.0440646,-0.0898438022
4974,0.256558001,0.0440646,-0.0820313022
4975,0.256558001,0.0440646,-0.0742188022
4976,0.256558001,0.0440646,-0.0664063022
4977,0.256558001,0.0440646,-0.0585937984
4978,0.256558001,0.0440646,-0.0507812016
4979,0.256558001,0.0440646,-0.0429687984
4980,0.256558001,0.0440646,-0.0351562984
4981,0.256558001,0.0440646,-0.0273438003
4982,0.256558001,0.0440646,-0.0195311997
4983,0.256558001,0.0440646,-0.0117188003
4984,0.256558001,0.0440646,-0.00390625
4985,0.256558001,0.0440646,0.00390625
4986,0.256558001,0.0440646,0.0117186997
4987,0.256558001,0.0440646,0.0195313003
4988,0.256558001,0.0440646,0.0273438003
4989,0.256558001,0.0440646,0.0351562016
4990,0.256558001,0.0440646,0.0429687016
4991,0.256558001,0.0440646,0.0507812984
4992,0.256558001,0.0440646,0.0585937984
4993,0.256558001,0.0440646,0.0664061978
4994,0.256558001,0.0440646,0.0742186978
4995,0.256558001,0.0440646,0.0820313022
4996,0.256558001,0.0440646,0.0898438022
4997,0.256558001,0.0440646,0.0976561978
4998,0.256558001,0.0440646,0.105469003
4999,0.256558001,0.0440646,0.113280997
5000,0.256558001,0.0440646,0.121094003
5001,0.256558001,0.0440646,0.128905997
5002,0.256558001,0.0440646,0.136719003
5003,0.256558001,0.0440646,0.144530997
5004,0.256558001,0.0440646,0.152344003
5005,0.256558001,0.0440646,0.160155997
5006,0.256558001,0.0440646,0.167969003
5007,0.256558001,0.0440646,0.175780997
5008,0.256558001,0.0440646,0.183594003
5009,0.256558001,0.0440646,0.191405997
5010,0.256558001,0.0440646,0.199219003
5011,0.256558001,0.0440646,0.207030997
5012,0.256558001,0.0440646,0.214844003
5013,0.256558001,0.0440646,0.222655997
5014,0.256558001,0.0440646,0.230469003
5015,0.256558001,0.0440646,0.238280997
5016,0.256558001,0.0440646,0.246094003
5017,0.256558001,0.0440646,0.253906012
5018,0.256558001,0.0440646,0.261718988
5019,0.256558001,0.0440646,0.269531012
5020,0.256558001,0.0440646,0.277343988
5021,0.256558001,0.0440646,0.285156012
5022,0.256558001,0.0440646,0.292968988
5023,0.256558001,0.0440646,0.300781012
5024,0.256558001,0.0440646,0.308593988
5025,0.256558001,0.0440646,0.316406012
5026,0.256558001,0.0440646,0.324218988
5027,0.256558001,0.0440646,0.332031012
5028,0.256558001,0.0440646,0.339843988
5029,0.256558001,0.0440646,0.347656012
5030,0.256558001,0.0440657996,0.355468988
5031,0.256561995,0.0454472005,0.368445992
5032,0.256574005,0.0439920984,-0.39436999
5033,0.256588995,0.0441490002,0.363162011
5034,0.256642014,0.0446599014,0.397107989
5035,0.259734988,0.0339163989,0.358363986
5036,0.260282993,0.0449147001,0.375104994
5037,0.260295004,0.0446537994,0.390529007
5038,0.260304987,0.0445641987,0.382813007
5039,0.260311007,0.0452835001,0.396688998
5040,0.260327011,0.0447641984,0.368842989
5041,0.260435998,0.0341568999,-0.397276998
5042,0.260517001,0.0341847986,0.355334014
5043,0.260621011,0.0342202,-0.394400001
5044,0.260655999,0.0342321992,-0.390625
5045,0.260655999,0.0342321992,-0.386718988
5046,0.260655999,0.0342321992,-0.382813007
5047,0.260655999,0.0342321992,-0.378906012
5048,0.260655999,0.0342321992,-0.375
5049,0.260655999,0.0342321992,-0.371093988
5050,0.260655999,0.0342321992,-0.367188007
5051,0.260655999,0.0342321992,-0.363281012
5052,0.260655999,0.0342321992,-0.359375
5053,0.260655999,0.0342321992,-0.355468988
5054,0.260655999,0.0342321992,-0.351561993
5055,0.260655999,0.0342321992,-0.347656012
5056,0.260655999,0.0342321992,-0.34375
5057,0.260655999,0.0342321992,-0.339843988
5058,0.260655999,0.0342321992,-0.335938007
5059,0.260655999,0.0342321992,-0.332031012
5060,0.260655999,0.0342321992,-0.328125
5061,0.260655999,0.0342321992,-0.324218988
5062,0.260655999,0.0342321992,-0.320311993
5063,0.260655999,0.0342321992,-0.316406012
5064,0.260655999,0.0342321992,-0.3125
5065,0.260655999,0.0342321992,-0.308593988
5066,0.260655999,0.0342321992,-0.304688007
5067,0.260655999,0.0342321992,-0.300781012
5068,0.260655999,0.0342321992,-0.296875
5069,0.260655999,0.0342321992,-0.292968988
5070,0.260655999,0.0342321992,-0.289063007
5071,0.260655999,0.0342321992,-0.285156012
5072,0.260655999,0.0342321992,-0.28125
5073,0.260655999,0.0342321992,-0.277343988
5074,0.260655999,0.0342321992,-0.273438007
5075,0.260655999,0.0342321992,-0.269531012
5076,0.260655999,0.0342321992,-0.265625
5077,0.260655999,0.0342321992,-0.261718988
5078,0.260655999,0.0342321992,-0.257811993
5079,0.260655999,0.0342321992,-0.253906012
5080,0.260655999,0.0342321992,-0.25
5081,0.260655999,0.0342321992,-0.246094003
5082,0.260655999,0.0342321992,-0.242186993
5083,0.260655999,0.0342321992,-0.238280997
5084,0.260655999,0.0342321992,-0.234375
5085,0.260655999,0.0342321992,-0.230469003
5086,0.260655999,0.0342321992,-0.226561993
5087,0.260655999,0.0342321992,-0.222655997
5088,0.260655999,0.0342321992,-0.21875
5089,0.260655999,0.0342321992,-0.214844003
5090,0.260655999,0.0342321992,-0.210936993
5091,0.260655999,0.0342321992,-0.207030997
5092,0.260655999,0.0342321992,-0.203125
5093,0.260655999,0.0342321992,-0.199219003
5094,0.260655999,0.0342321992,-0.195311993
5095,0.260655999,0.0342321992,-0.191405997
5096,0.260655999,0.0342321992,-0.1875
5097,0.260655999,0.0342321992,-0.183594003
5098,0.260655999,0.0342321992,-0.179688007
5099,0.260655999,0.0342321992,-0.175780997
5100,0.260655999,0.0342321992,-0.171875
5101,0.260655999,0.0342321992,-0.167969003
5102,0.260655999,0.0342321992,-0.164061993
5103,0.260655999,0.0342321992,-0.160155997
5104,0.260655999,0.0342321992,-0.15625
5105,0.260655999,0.0342321992,-0.152344003
5106,0.260655999,0.0342321992,-0.148436993
5107,0.260655999,0.0342321992,-0.144530997
5108,0.260655999,0.0342321992,-0.140625
5109,0.260655999,0.0342321992,-0.136719003
5110,0.260655999,0.0342321992,-0.132813007
5111,0.260655999,0.0342321992,-0.128905997
5112,0.260655999,0.0342321992,-0.125
5113,0.260655999,0.0342321992,-0.121094003
5114,0.260655999,0.0342321992,-0.117187001
5115,0.260655999,0.0342321992,-0.113280997
5116,0.260655999,0.0342321992,-0.109375
5117,0.260655999,0.0342321992,-0.105469003
5118,0.260655999,0.0342321992,-0.101562001
5119,0.260655999,0.0342321992,-0.0976563022
5120,0.260655999,0.0342321992,-0.09375
5121,0.260655999,0.0342321992,-0.0898438022
5122,0.260655999,0.0342321992,-0.0859375
5123,0.260655999,0.0342321992,-0.0820313022
5124,0.260655999,0.0342321992,-0.078125
5125,0.260655999,0.0342321992,-0.0742188022
5126,0.260655999,0.0342321992,-0.0703125
5127,0.260655999,0.0342321992,-0.0664063022
5128,0.260655999,0.0342321992,-0.0625
5129,0.260655999,0.0342321992,-0.0585937016
5130,0.260655999,0.0342321992,-0.0546875
5131,0.260655999,0.0342321992,-0.0507812016
5132,0.260655999,0.0342321992,-0.046875
5133,0.260655999,0.0342321992,-0.0429687016
5134,0.260655999,0.0342321992,-0.0390625
5135,0.260655999,0.0342321992,-0.0351562016
5136,0.260655999,0.0342321992,-0.03125
5137,0.260655999,0.0342321992,-0.0273436997
5138,0.260655999,0.0342321992,-0.0234375
5139,0.260655999,0.0342321992,-0.0195311997
5140,0.260655999,0.0342321992,-0.015625
5141,0.260655999,0.0342321992,-0.0117188003
5142,0.260655999,0.0342321992,-0.0078125
5143,0.260655999,0.0342321992,-0.00390625
5144,0.260655999,0.0342321992,0
5145,0.260655999,0.0342321992,0.00390625
5146,0.260655999,0.0342321992,0.0078125
5147,0.260655999,0.0342321992,0.0117186997
5148,0.260655999,0.0342321992,0.015625
5149,0.260655999,0.0342321992,0.0195313003
5150,0.260655999,0.0342321992,0.0234375
5151,0.260655999,0.0342321992,0.0273436997
5152,0.260655999,0.0342321992,0.03125
5153,0.260655999,0.0342321992,0.0351562016
5154,0.260655999,0.0342321992,0.0390625
5155,0.260655999,0.0342321992,0.0429687984
5156,0.260655999,0.0342321992,0.046875
5157,0.260655999,0.0342321992,0.0507812016
5158,0.260655999,0.0342321992,0.0546875
5159,0.260655999,0.0342321992,0.0585937016
5160,0.260655999,0.0342321992,0.0625
5161,0.260655999,0.0342321992,0.0664063022
5162,0.260655999,0.0342321992,0.0703125
5163,0.260655999,0.0342321992,0.0742186978
5164,0.260655999,0.0342321992,0.078125
5165,0.260655999,0.0342321992,0.0820311978
5166,0.260655999,0.0342321992,0.0859375
5167,0.260655999,0.0342321992,0.0898438022
5168,0.260655999,0.0342321992,0.09375
5169,0.260655999,0.0342321992,0.0976561978
5170,0.260655999,0.0342321992,0.101562999
5171,0.260655999,0.0342321992,0.105469003
5172,0.260655999,0.0342321992,0.109375
5173,0.260655999,0.0342321992,0.113280997
5174,0.260655999,0.0342321992,0.117187999
5175,0.260655999,0.0342321992,0.121094003
5176,0.260655999,0.0342321992,0.125
5177,0.260655999,0.0342321992,0.128905997
5178,0.260655999,0.0342321992,0.132813007
5179,0.260655999,0.0342321992,0.136719003
5180,0.260655999,0.0342321992,0.140625
5181,0.260655999,0.0342321992,0.144530997
5182,0.260655999,0.0342321992,0.148436993
5183,0.260655999,0.0342321992,0.152344003
5184,0.260655999,0.0342321992,0.15625
5185,0.260655999,0.0342321992,0.160155997
5186,0.260655999,0.0342321992,0.164063007
5187,0.260655999,0.0342321992,0.167969003
5188,0.260655999,0.0342321992,0.171875
5189,0.260655999,0.0342321992,0.175780997
5190,0.260655999,0.0342321992,0.179686993
5191,0.260655999,0.0342321992,0.183594003
5192,0.260655999,0.0342321992,0.1875
5193,0.260655999,0.0342321992,0.191405997
5194,0.260655999,0.0342321992,0.195313007
5195,0.260655999,0.0342321992,0.199219003
5196,0.260655999,0.0342321992,0.203125
5197,0.260655999,0.0342321992,0.207030997
5198,0.260655999,0.0342321992,0.210938007
5199,0.260655999,0.0342321992,0.214844003
5200,0.260655999,0.0342321992,0.21875
5201,0.260655999,0.0342321992,0.222655997
5202,0.260655999,0.0342321992,0.226561993
5203,0.260655999,0.0342321992,0.230469003
5204,0.260655999,0.0342321992,0.234375
5205,0.260655999,0.0342321992,0.238280997
5206,0.260655999,0.0342321992,0.242186993
5207,0.260655999,0.0342321992,0.246094003
5208,0.260655999,0.0342321992,0.25
5209,0.260655999,0.0342321992,0.253906012
5210,0.260655999,0.0342321992,0.257813007
5211,0.260655999,0.0342321992,0.261718988
5212,0.260655999,0.0342321992,0.265625
5213,0.260655999,0.0342321992,0.269531012
5214,0.260655999,0.0342321992,0.273436993
5215,0.260655999,0.0342321992,0.277343988
5216,0.260655999,0.0342321992,0.28125
5217,0.260655999,0.0342321992,0.285156012
5218,0.260655999,0.0342321992,0.289061993
5219,0.260655999,0.0342321992,0.292968988
5220,0.260655999,0.0342321992,0.296875
5221,0.260655999,0.0342321992,0.300781012
5222,0.260655999,0.0342321992,0.304688007
5223,0.260655999,0.0342321992,0.308593988
5224,0.260655999,0.0342321992,0.3125
5225,0.260655999,0.0342321992,0.316406012
5226,0.260655999,0.0342321992,0.320311993
5227,0.260655999,0.0342321992,0.324218988
5228,0.260655999,0.0342321992,0.328125
5229,0.260655999,0.0342321992,0.332031012
5230,0.260655999,0.0342321992,0.335936993
5231,0.260655999,0.0342321992,0.339843988
5232,0.260655999,0.0342321992,0.34375
5233,0.260655999,0.0342321992,0.347656012
5234,0.260655999,0.0342321992,0.351563007
5235,0.26127401,0.0449563004,0.39428401
5236,0.261319995,0.0446735993,0.371325999
5237,0.261361003,0.0446175002,0.378906012
5238,0.261364013,0.044587601,0.386718988
5239,0.261725008,0.0393067002,0.396968991
5240,0.261891991,0.0351764001,0.360038996
5241,0.261965007,0.0348151997,0.390558004
5242,0.262116998,0.0350591987,0.374989986
5243,0.262147993,0.0349688008,0.382800996
5244,0.262154013,0.0351715013,0.367341012
5245,0.262353003,0.0443540998,0.397486001
5246,0.262457997,0.0445251018,-0.394400001
5247,0.262475014,0.0445871018,-0.34375
5248,0.262475014,0.0445871018,-0.339843988
5249,0.262475014,0.0445871018,-0.335938007
5250,0.262475014,0.0445871018,-0.332031012
5251,0.262475014,0.0445871018,-0.328125
5252,0.262475014,0.0445871018,-0.324218988
5253,0.262475014,0.0445871018,-0.320311993
5254,0.262475014,0.0445871018,-0.316406012
5255,0.262475014,0.0445871018,-0.3125
5256,0.262475014,0.0445871018,-0.308593988
5257,0.262475014,0.0445871018,-0.304688007
5258,0.262475014,0.0445871018,-0.300781012
5259,0.262475014,0.0445871018,-0.296875
5260,0.262475014,0.0445871018,-0.292968988
5261,0.262475014,0.0445871018,-0.289063007
5262,0.262475014,0.0445871018,-0.285156012
5263,0.262475014,0.0445871018,-0.28125
5264,0.262475014,0.0445871018,-0.277343988
5265,0.262475014,0.0445871018,-0.273438007
5266,0.262475014,0.0445871018,-0.269531012
5267,0.262475014,0.0445871018,-0.265625
5268,0.262475014,0.0445871018,-0.261718988
5269,0.262475014,0.0445871018,-0.257811993
5270,0.262475014,0.0445871018,-0.253906012
5271,0.262475014,0.0445871018,-0.25
5272,0.262475014,0.0445871018,-0.246094003
5273,0.262475014,0.0445871018,-0.242186993
5274,0.262475014,0.0445871018,-0.238280997
5275,0.262475014,0.0445871018,-0.234375
5276,0.262475014,0.0445871018,-0.230469003
5277,0.262475014,0.0445871018,-0.226561993
5278,0.262475014,0.0445871018,-0.222655997
5279,0.262475014,0.0445871018,-0.21875
5280,0.262475014,0.0445871018,-0.214844003
5281,0.262475014,0.0445871018,-0.210938007
5282,0.262475014,0.0445871018,-0.207030997
5283,0.262475014,0.0445871018,-0.203125
5284,0.262475014,0.0445871018,-0.199219003
5285,0.262475014,0.0445871018,-0.195311993
5286,0.262475014,0.0445871018,-0.191405997
5287,0.262475014,0.0445871018,-0.1875
5288,0.262475014,0.0445871018,-0.183594003
5289,0.262475014,0.0445871018,-0.179686993
5290,0.262475014,0.0445871018,-0.175780997
5291,0.262475014,0.0445871018,-0.171875
5292,0.262475014,0.0445871018,-0.167969003
5293,0.262475014,0.0445871018,-0.164061993
5294,0.262475014,0.0445871018,-0.160155997
5295,0.262475014,0.0445871018,-0.15625
5296,0.262475014,0.0445871018,-0.152344003
5297,0.262475014,0.0445871018,-0.148438007
5298,0.262475014,0.0445871018,-0.144530997
5299,0.262475014,0.0445871018,-0.140625
5300,0.262475014,0.0445871018,-0.136719003
5301,0.262475014,0.0445871018,-0.132811993
5302,0.262475014,0.0445871018,-0.128905997
5303,0.262475014,0.0445871018,-0.125
5304,0.262475014,0.0445871018,-0.121094003
5305,0.262475014,0.0445871018,-0.117187999
5306,0.262475014,0.0445871018,-0.113280997
5307,0.262475014,0.0445871018,-0.109375
5308,0.262475014,0.0445871018,-0.105469003
5309,0.262475014,0.0445871018,-0.101562001
5310,0.262475014,0.0445871018,-0.0976561978
5311,0.262475014,0.0445871018,-0.09375
5312,0.262475014,0.0445871018,-0.0898438022
5313,0.262475014,0.0445871018,-0.0859375
5314,0.262475014,0.0445871018,-0.0820311978
5315,0.262475014,0.0445871018,-0.078125
5316,0.262475014,0.0445871018,-0.0742188022
5317,0.262475014,0.0445871018,-0.0703125
5318,0.262475014,0.0445871018,-0.0664063022
5319,0.262475014,0.0445871018,-0.0625
5320,0.262475014,0.0445871018,-0.0585937016
5321,0.262475014,0.0445871018,-0.0546875
5322,0.262475014,0.0445871018,-0.0507812016
5323,0.262475014,0.0445871018,-0.046875
5324,0.262475014,0.0445871018,-0.0429687984
5325,0.262475014,0.0445871018,-0.0390625
5326,0.262475014,0.0445871018,-0.0351562984
5327,0.262475014,0.0445871018,-0.03125
5328,0.262475014,0.0445871018,-0.0273438003
5329,0.262475014,0.0445871018,-0.0234375
5330,0.262475014,0.0445871018,-0.0195311997
5331,0.262475014,0.0445871018,-0.015625
5332,0.262475014,0.0445871018,-0.0117186997
5333,0.262475014,0.0445871018,-0.0078125
5334,0.262475014,0.0445871018,-0.00390625
5335,0.262475014,0.0445871018,0
5336,0.262475014,0.0445871018,0.00390625
5337,0.262475014,0.0445871018,0.0078125
5338,0.262475014,0.0445871018,0.0117186997
5339,0.262475014,0.0445871018,0.015625
5340,0.262475014,0.0445871018,0.0195311997
5341,0.262475014,0.0445871018,0.0234375
5342,0.262475014,0.0445871018,0.0273438003
5343,0.262475014,0.0445871018,0.03125
5344,0.262475014,0.0445871018,0.0351562016
5345,0.262475014,0.0445871018,0.0390625
5346,0.262475014,0.0445871018,0.0429687016
5347,0.262475014,0.0445871018,0.046875
5348,0.262475014,0.0445871018,0.0507812016
5349,0.262475014,0.0445871018,0.0546875
5350,0.262475014,0.0445871018,0.0585937016
5351,0.262475014,0.0445871018,0.0625
5352,0.262475014,0.0445871018,0.0664061978
5353,0.262475014,0.0445871018,0.0703125
5354,0.262475014,0.0445871018,0.0742186978
5355,0.262475014,0.0445871018,0.078125
5356,0.262475014,0.0445871018,0.0820311978
5357,0.262475014,0.0445871018,0.0859375
5358,0.262475014,0.0445871018,0.0898436978
5359,0.262475014,0.0445871018,0.09375
5360,0.262475014,0.0445871018,0.0976563022
5361,0.262475014,0.0445871018,0.101562001
5362,0.262475014,0.0445871018,0.105469003
5363,0.262475014,0.0445871018,0.109375
5364,0.262475014,0.0445871018,0.113280997
5365,0.262475014,0.0445871018,0.117187001
5366,0.262475014,0.0445871018,0.121094003
5367,0.262475014,0.0445871018,0.125
5368,0.262475014,0.0445871018,0.128905997
5369,0.262475014,0.0445871018,0.132813007
5370,0.262475014,0.0445871018,0.136719003
5371,0.262475014,0.0445871018,0.140625
5372,0.262475014,0.0445871018,0.144530997
5373,0.262475014,0.0445871018,0.148436993
5374,0.262475014,0.0445871018,0.152344003
5375,0.262475014,0.0445871018,0.15625
5376,0.262475014,0.0445871018,0.160155997
5377,0.262475014,0.0445871018,0.164063007
5378,0.262475014,0.0445871018,0.167969003
5379,0.262475014,0.0445871018,0.171875
5380,0.262475014,0.0445871018,0.175780997
5381,0.262475014,0.0445871018,0.179686993
5382,0.262475014,0.0445871018,0.183594003
5383,0.262475014,0.0445871018,0.1875
5384,0.262475014,0.0445871018,0.191405997
5385,0.262475014,0.0445871018,0.195311993
5386,0.262475014,0.0445871018,0.199219003
5387,0.262475014,0.0445871018,0.203125
5388,0.262475014,0.0445871018,0.207030997
5389,0.262475014,0.0445871018,0.210938007
5390,0.262475014,0.0445871018,0.214844003
5391,0.262475014,0.0445871018,0.21875
5392,0.262475014,0.0445871018,0.222655997
5393,0.262475014,0.0445871018,0.226561993
5394,0.262475014,0.0445871018,0.230469003
5395,0.262475014,0.0445871018,0.234375
5396,0.262475014,0.0445871018,0.238280997
5397,0.262475014,0.0445871018,0.242186993
5398,0.262475014,0.0445871018,0.246094003
5399,0.262475014,0.0445871018,0.25
5400,0.262475014,0.0445871018,0.253906012
5401,0.262475014,0.0445871018,0.257811993
5402,0.262475014,0.0445871018,0.261718988
5403,0.262475014,0.0445871018,0.265625
5404,0.262475014,0.0445871018,0.269531012
5405,0.262475014,0.0445871018,0.273438007
5406,0.262475014,0.0445871018,0.277343988
5407,0.262475014,0.0445871018,0.28125
5408,0.262475014,0.0445871018,0.285156012
5409,0.262475014,0.0445871018,0.289061993
5410,0.262475014,0.0445871018,0.292968988
5411,0.262475014,0.0445871018,0.296875
5412,0.262475014,0.0445871018,0.300781012
5413,0.262475014,0.0445871018,0.304688007
5414,0.262475014,0.0445871018,0.308593988
5415,0.262475014,0.0445871018,0.3125
5416,0.262475014,0.0445871018,0.316406012
5417,0.262475014,0.0445871018,0.320311993
5418,0.262475014,0.0445871018,0.324218988
5419,0.262475014,0.0445871018,0.328125
5420,0.262475014,0.0445871018,0.332031012
5421,0.262475014,0.0445871018,0.335938007
5422,0.262475014,0.0445871018,0.339843988
5423,0.262475014,0.0445871018,0.34375
5424,0.262484014,0.0444865003,-0.390623003
5425,0.262488008,0.0444445014,-0.386716992
5426,0.262490988,0.0444025993,-0.38281101
5427,0.262495011,0.044360701,-0.378906012
5428,0.262497991,0.0443187989,-0.375
5429,0.262502015,0.0442768,-0.371093988
5430,0.262504011,0.0445799008,0.363238007
5431,0.262506008,0.0442349017,-0.367188007
5432,0.262524009,0.0441941991,-0.363281995
5433,0.262542993,0.0441607982,0.359376997
5434,0.26254499,0.0441537984,-0.359376997
5435,0.262564003,0.0441160016,0.355470985
5436,0.262564987,0.0441128016,-0.355470985
5437,0.262566,0.0446597002,0.367186993
5438,0.262578994,0.0440701991,-0.351565003
5439,0.262578994,0.0440711007,0.351565003
5440,0.262594014,0.0440276004,-0.347660005
5441,0.262594014,0.0440278985,0.347660005
5442,0.262923002,0.0402887985,-0.397428989
5443,0.263224989,0.0352163985,0.394320995
5444,0.263298988,0.0355171002,0.371084005
5445,0.263301015,0.035174001,-0.39753899
5446,0.263330996,0.0354261994,0.378895015
5447,0.263359994,0.0356364995,0.363519013
5448,0.26336199,0.0353360996,0.386707008
5449,0.268601,0.0369741991,0.390625
5450,0.268601,0.0369742997,0.367188007
5451,0.268601,0.0369742997,0.375
5452,0.268601,0.0369742997,0.382811993
5453,0.268608004,0.0369765982,0.371093988
5454,0.268608004,0.0369765982,0.378906012
5455,0.268608004,0.0369765982,0.386718988
5456,0.268615991,0.0369793996,0.363301992
5457,0.268637002,0.0369868018,0.359425008
5458,0.268664002,0.0450620987,-0.394396007
5459,0.26868099,0.0451169014,-0.21875
5460,0.26868099,0.0451169014,-0.214844003
5461,0.26868099,0.0451169014,-0.210938007
5462,0.26868099,0.0451169014,-0.207030997
5463,0.26868099,0.0451169014,-0.203125
5464,0.26868099,0.0451169014,-0.199219003
5465,0.26868099,0.0451169014,-0.195313007
5466,0.26868099,0.0451169014,-0.191405997
5467,0.26868099,0.0451169014,-0.1875
5468,0.26868099,0.0451169014,-0.183594003
5469,0.26868099,0.0451169014,-0.179688007
5470,0.26868099,0.0451169014,-0.175780997
5471,0.26868099,0.0451169014,-0.171875
5472,0.26868099,0.0451169014,-0.167969003
5473,0.26868099,0.0451169014,-0.164063007
5474,0.26868099,0.0451169014,-0.160155997
5475,0.26868099,0.0451169014,-0.15625
5476,0.26868099,0.0451169014,-0.152344003
5477,0.26868099,0.0451169014,-0.148438007
5478,0.26868099,0.0451169014,-0.144530997
5479,0.26868099,0.0451169014,-0.140625
5480,0.26868099,0.0451169014,-0.136719003
5481,0.26868099,0.0451169014,-0.132813007
5482,0.26868099,0.0451169014,-0.128905997
5483,0.26868099,0.0451169014,-0.125
5484,0.26868099,0.0451169014,-0.121094003
5485,0.26868099,0.0451169014,-0.117187999
5486,0.26868099,0.0451169014,-0.113280997
5487,0.26868099,0.0451169014,-0.109375
5488,0.26868099,0.0451169014,-0.105469003
5489,0.26868099,0.0451169014,-0.101562001
5490,0.26868099,0.0451169014,-0.0976563022
5491,0.26868099,0.0451169014,-0.09375
5492,0.26868099,0.0451169014,-0.0898438022
5493,0.26868099,0.0451169014,-0.0859375
5494,0.26868099,0.0451169014,-0.0820313022
5495,0.26868099,0.0451169014,-0.078125
5496,0.26868099,0.0451169014,-0.0742188022
5497,0.26868099,0.0451169014,-0.0703125
5498,0.26868099,0.0451169014,-0.0664063022
5499,0.26868099,0.0451169014,-0.0625
5500,0.26868099,0.0451169014,-0.0585937984
5501,0.26868099,0.0451169014,-0.0546875
5502,0.26868099,0.0451169014,-0.0507812984
5503,0.26868099,0.0451169014,-0.046875
5504,0.26868099,0.0451169014,-0.0429687984
5505,0.26868099,0.0451169014,-0.0390625
5506,0.26868099,0.0451169014,-0.0351562016
5507,0.26868099,0.0451169014,-0.03125
5508,0.26868099,0.0451169014,-0.0273438003
5509,0.26868099,0.0451169014,-0.0234375
5510,0.26868099,0.0451169014,-0.0195313003
5511,0.26868099,0.0451169014,-0.015625
5512,0.26868099,0.0451169014,-0.0117186997
5513,0.26868099,0.0451169014,-0.0078125
5514,0.26868099,0.0451169014,-0.00390625
5515,0.26868099,0.0451169014,-1e-12
5516,0.26868099,0.0451169014,0.00390625
5517,0.26868099,0.0451169014,0.0078125
5518,0.26868099,0.0451169014,0.0117186997
5519,0.26868099,0.0451169014,0.015625
5520,0.26868099,0.0451169014,0.0195311997
5521,0.26868099,0.0451169014,0.0234375
5522,0.26868099,0.0451169014,0.0273436997
5523,0.26868099,0.0451169014,0.03125
5524,0.26868099,0.0451169014,0.0351562984
5525,0.26868099,0.0451169014,0.0390625
5526,0.26868099,0.0451169014,0.0429687016
5527,0.26868099,0.0451169014,0.046875
5528,0.26868099,0.0451169014,0.0507812984
5529,0.26868099,0.0451169014,0.0546875
5530,0.26868099,0.0451169014,0.0585937016
5531,0.26868099,0.0451169014,0.0625
5532,0.26868099,0.0451169014,0.0664063022
5533,0.26868099,0.0451169014,0.0703125
5534,0.26868099,0.0451169014,0.0742188022
5535,0.26868099,0.0451169014,0.078125
5536,0.26868099,0.0451169014,0.0820311978
5537,0.26868099,0.0451169014,0.0859375
5538,0.26868099,0.0451169014,0.0898436978
5539,0.26868099,0.0451169014,0.09375
5540,0.26868099,0.0451169014,0.0976563022
5541,0.26868099,0.0451169014,0.101562999
5542,0.26868099,0.0451169014,0.105469003
5543,0.26868099,0.0451169014,0.109375
5544,0.26868099,0.0451169014,0.113280997
5545,0.26868099,0.0451169014,0.117187001
5546,0.26868099,0.0451169014,0.121094003
5547,0.26868099,0.0451169014,0.125
5548,0.26868099,0.0451169014,0.128905997
5549,0.26868099,0.0451169014,0.132813007
5550,0.26868099,0.0451169014,0.136719003
5551,0.26868099,0.0451169014,0.140625
5552,0.26868099,0.0451169014,0.144530997
5553,0.26868099,0.0451169014,0.148438007
5554,0.26868099,0.0451169014,0.152344003
5555,0.26868099,0.0451169014,0.15625
5556,0.26868099,0.0451169014,0.160155997
5557,0.26868099,0.0451169014,0.164063007
5558,0.26868099,0.0451169014,0.167969003
5559,0.26868099,0.0451169014,0.171875
5560,0.26868099,0.0451169014,0.175780997
5561,0.26868099,0.0451169014,0.179688007
5562,0.26868099,0.0451169014,0.183594003
5563,0.26868099,0.0451169014,0.1875
5564,0.26868099,0.0451169014,0.191405997
5565,0.26868099,0.0451169014,0.195313007
5566,0.26868099,0.0451169014,0.199219003
5567,0.26868099,0.0451169014,0.203125
5568,0.26868099,0.0451169014,0.207030997
5569,0.26868099,0.0451169014,0.210936993
5570,0.26868099,0.0451169014,0.214844003
5571,0.26868099,0.0451169014,0.21875
5572,0.268689007,0.0450306982,-0.390617996
5573,0.268691987,0.0449948981,-0.386712015
5574,0.268694997,0.0449591018,-0.382806003
5575,0.268698007,0.0449232012,-0.378899992
5576,0.268700987,0.0448874012,-0.374994993
5577,0.268703997,0.0448515005,-0.371089011
5578,0.268707007,0.0448157005,-0.367183
5579,0.268709987,0.0447797999,-0.363276988
5580,0.268712997,0.0447405986,0.359371006
5581,0.268712997,0.0447438993,-0.359371006
5582,0.268714994,0.0370796993,0.394376993
5583,0.268714994,0.0447747,0.363274992
5584,0.268716007,0.0447070003,0.355464995
5585,0.268716007,0.0447080992,-0.355464995
5586,0.268718988,0.0446719006,0.351559013
5587,0.268718988,0.0446721986,-0.351559013
5588,0.268721998,0.0446363017,0.347653002
5589,0.268721998,0.0446363986,-0.347653002
5590,0.268725008,0.0446005017,-0.34374699
5591,0.268725008,0.0446005017,0.34374699
5592,0.268727988,0.044564601,-0.339841008
5593,0.268727988,0.044564601,0.339841008
5594,0.268730998,0.044528801,-0.335934997
5595,0.268730998,0.044528801,0.335934997
5596,0.268734008,0.0444929004,-0.332029015
5597,0.268734008,0.0444929004,0.332029015
5598,0.268736988,0.0444571003,-0.328123987
5599,0.268736988,0.0444571003,0.328123987
5600,0.268739998,0.0444211997,-0.324218005
5601,0.268739998,0.0444211997,0.324218005
5602,0.268743008,0.0443852991,-0.320311993
5603,0.268743008,0.0443852991,0.320311993
5604,0.268745989,0.044349499,-0.316406012
5605,0.268745989,0.044349499,0.316406012
5606,0.268748999,0.0443135984,-0.3125
5607,0.268748999,0.0443135984,0.3125
5608,0.268752009,0.0442777984,-0.308593988
5609,0.268752009,0.0442777984,0.308593988
5610,0.268754989,0.0442419015,-0.304688007
5611,0.268754989,0.0442419015,0.304688007
5612,0.268757999,0.0442060009,-0.300781995
5613,0.268757999,0.0442060009,0.300781995
5614,0.268761009,0.0441702008,-0.296876013
5615,0.268761009,0.0441702008,0.296876013
5616,0.268763989,0.0441343002,-0.292970002
5617,0.268763989,0.0441343002,0.292970002
5618,0.268766999,0.0440985002,-0.28906399
5619,0.268766999,0.0440985002,0.28906399
5620,0.268770009,0.0440625995,-0.285158008
5621,0.268770009,0.0440625995,0.285158008
5622,0.26877299,0.0440267995,-0.28125301
5623,0.26877299,0.0440267995,0.28125301
5624,0.268776,0.0439908989,-0.277346998
5625,0.268776,0.0439908989,0.277346998
5626,0.26877901,0.0439549983,-0.273440987
5627,0.26877901,0.0439549983,0.273440987
5628,0.26878199,0.0439191982,-0.269535005
5629,0.26878199,0.0439191982,0.269535005
5630,0.268785,0.0438833013,-0.265628994
5631,0.268785,0.0438833013,0.265628994
5632,0.268786013,0.0448165983,0.367172003
5633,0.26878801,0.0438475013,-0.261723012
5634,0.26878801,0.0438475013,0.261723012
5635,0.26879099,0.0438116007,-0.257817
5636,0.26879099,0.0438116007,0.257817
5637,0.268794,0.0437757,-0.253910989
5638,0.268794,0.0437757,0.253910989
5639,0.268795997,0.0370419994,0.35551399
5640,0.26879701,0.0437399,-0.250005007
5641,0.26879701,0.0437399,0.250005007
5642,0.26879999,0.0437039994,-0.246098995
5643,0.26879999,0.0437039994,0.246098995
5644,0.268803,0.0436681993,-0.242192999
5645,0.268803,0.0436681993,0.242192999
5646,0.26880601,0.0436322987,-0.238287002
5647,0.26880601,0.0436322987,0.238287002
5648,0.268808991,0.0435964018,-0.234382004
5649,0.268808991,0.0435964018,0.234382004
5650,0.268812001,0.0435606018,-0.230476007
5651,0.268812001,0.0435606018,0.230476007
5652,0.268815011,0.0435247011,-0.226569995
5653,0.268815011,0.0435247011,0.226569995
5654,0.268817991,0.0434889011,-0.222663999
5655,0.268817991,0.0434889011,0.222663999
5656,0.268907994,0.0449937992,0.394418001
5657,0.268916011,0.0415752009,-0.397386998
5658,0.268918991,0.0370844007,-0.390625
5659,0.268918991,0.0370844007,-0.386718988
5660,0.268918991,0.0370844007,-0.382811993
5661,0.268918991,0.0370844007,-0.378906012
5662,0.268918991,0.0370844007,-0.375
5663,0.268918991,0.0370844007,-0.371093988
5664,0.268918991,0.0370844007,-0.367188007
5665,0.268918991,0.0370844007,-0.363281012
5666,0.268918991,0.0370844007,-0.359375
5667,0.268918991,0.0370844007,-0.355468988
5668,0.268918991,0.0370844007,-0.351561993
5669,0.268918991,0.0370844007,-0.347656012
5670,0.268918991,0.0370844007,-0.34375
5671,0.268918991,0.0370844007,-0.339843988
5672,0.268918991,0.0370844007,-0.335938007
5673,0.268918991,0.0370844007,-0.332031012
5674,0.268918991,0.0370844007,-0.328125
5675,0.268918991,0.0370844007,-0.324218988
5676,0.268918991,0.0370844007,-0.320313007
5677,0.268918991,0.0370844007,-0.316406012
5678,0.268918991,0.0370844007,-0.3125
5679,0.268918991,0.0370844007,-0.308593988
5680,0.268918991,0.0370844007,-0.304688007
5681,0.268918991,0.0370844007,-0.300781012
5682,0.268918991,0.0370844007,-0.296875
5683,0.268918991,0.0370844007,-0.292968988
5684,0.268918991,0.0370844007,-0.289063007
5685,0.268918991,0.0370844007,-0.285156012
5686,0.268918991,0.0370844007,-0.28125
5687,0.268918991,0.0370844007,-0.277343988
5688,0.268918991,0.0370844007,-0.273436993
5689,0.268918991,0.0370844007,-0.269531012
5690,0.268918991,0.0370844007,-0.265625
5691,0.268918991,0.0370844007,-0.261718988
5692,0.268918991,0.0370844007,-0.257813007
5693,0.268918991,0.0370844007,-0.253906012
5694,0.268918991,0.0370844007,-0.25
5695,0.268918991,0.0370844007,-0.246094003
5696,0.268918991,0.0370844007,-0.242186993
5697,0.268918991,0.0370844007,-0.238280997
5698,0.268918991,0.0370844007,-0.234375
5699,0.268918991,0.0370844007,-0.230469003
5700,0.268918991,0.0370844007,-0.226563007
5701,0.268918991,0.0370844007,-0.222655997
5702,0.268918991,0.0370844007,-0.21875
5703,0.268918991,0.0370844007,-0.214844003
5704,0.268918991,0.0370844007,-0.210936993
5705,0.268918991,0.0370844007,-0.207030997
5706,0.268918991,0.0370844007,-0.203125
5707,0.268918991,0.0370844007,-0.199219003
5708,0.268918991,0.0370844007,-0.195313007
5709,0.268918991,0.0370844007,-0.191405997
5710,0.268918991,0.0370844007,-0.1875
5711,0.268918991,0.0370844007,-0.183594003
5712,0.268918991,0.0370844007,-0.179688007
5713,0.268918991,0.0370844007,-0.175780997
5714,0.268918991,0.0370844007,-0.171875
5715,0.268918991,0.0370844007,-0.167969003
5716,0.268918991,0.0370844007,-0.164061993
5717,0.268918991,0.0370844007,-0.160155997
5718,0.268918991,0.0370844007,-0.15625
5719,0.268918991,0.0370844007,-0.152344003
5720,0.268918991,0.0370844007,-0.148438007
5721,0.268918991,0.0370844007,-0.144530997
5722,0.268918991,0.0370844007,-0.140625
5723,0.268918991,0.0370844007,-0.136719003
5724,0.268918991,0.0370844007,-0.132813007
5725,0.268918991,0.0370844007,-0.128905997
5726,0.268918991,0.0370844007,-0.125
5727,0.268918991,0.0370844007,-0.121094003
5728,0.268918991,0.0370844007,-0.117187999
5729,0.268918991,0.0370844007,-0.113280997
5730,0.268918991,0.0370844007,-0.109375
5731,0.268918991,0.0370844007,-0.105469003
5732,0.268918991,0.0370844007,-0.101562999
5733,0.268918991,0.0370844007,-0.0976563022
5734,0.268918991,0.0370844007,-0.09375
5735,0.268918991,0.0370844007,-0.0898438022
5736,0.268918991,0.0370844007,-0.0859375
5737,0.268918991,0.0370844007,-0.0820311978
5738,0.268918991,0.0370844007,-0.078125
5739,0.268918991,0.0370844007,-0.0742186978
5740,0.268918991,0.0370844007,-0.0703125
5741,0.268918991,0.0370844007,-0.0664063022
5742,0.268918991,0.0370844007,-0.0625
5743,0.268918991,0.0370844007,-0.0585937016
5744,0.268918991,0.0370844007,-0.0546875
5745,0.268918991,0.0370844007,-0.0507812016
5746,0.268918991,0.0370844007,-0.046875
5747,0.268918991,0.0370844007,-0.0429687984
5748,0.268918991,0.0370844007,-0.0390625
5749,0.268918991,0.0370844007,-0.0351562016
5750,0.268918991,0.0370844007,-0.03125
5751,0.268918991,0.0370844007,-0.0273438003
5752,0.268918991,0.0370844007,-0.0234375
5753,0.268918991,0.0370844007,-0.0195311997
5754,0.268918991,0.0370844007,-0.015625
5755,0.268918991,0.0370844007,-0.0117188003
5756,0.268918991,0.0370844007,-0.0078125
5757,0.268918991,0.0370844007,-0.00390625
5758,0.268918991,0.0370844007,-0
5759,0.268918991,0.0370844007,0.00390625
5760,0.268918991,0.0370844007,0.0078125
5761,0.268918991,0.0370844007,0.0117188003
5762,0.268918991,0.0370844007,0.015625
5763,0.268918991,0.0370844007,0.0195311997
5764,0.268918991,0.0370844007,0.0234375
5765,0.268918991,0.0370844007,0.0273436997
5766,0.268918991,0.0370844007,0.03125
5767,0.268918991,0.0370844007,0.0351562016
5768,0.268918991,0.0370844007,0.0390625
5769,0.268918991,0.0370844007,0.0429687984
5770,0.268918991,0.0370844007,0.046875
5771,0.268918991,0.0370844007,0.0507812016
5772,0.268918991,0.0370844007,0.0546875
5773,0.268918991,0.0370844007,0.0585937016
5774,0.268918991,0.0370844007,0.0625
5775,0.268918991,0.0370844007,0.0664061978
5776,0.268918991,0.0370844007,0.0703125
5777,0.268918991,0.0370844007,0.0742188022
5778,0.268918991,0.0370844007,0.078125
5779,0.268918991,0.0370844007,0.0820313022
5780,0.268918991,0.0370844007,0.0859375
5781,0.268918991,0.0370844007,0.0898438022
5782,0.268918991,0.0370844007,0.09375
5783,0.268918991,0.0370844007,0.0976563022
5784,0.268918991,0.0370844007,0.101562999
5785,0.268918991,0.0370844007,0.105469003
5786,0.268918991,0.0370844007,0.109375
5787,0.268918991,0.0370844007,0.113280997
5788,0.268918991,0.0370844007,0.117187001
5789,0.268918991,0.0370844007,0.121094003
5790,0.268918991,0.0370844007,0.125
5791,0.268918991,0.0370844007,0.128905997
5792,0.268918991,0.0370844007,0.132811993
5793,0.268918991,0.0370844007,0.136719003
5794,0.268918991,0.0370844007,0.140625
5795,0.268918991,0.0370844007,0.144530997
5796,0.268918991,0.0370844007,0.148438007
5797,0.268918991,0.0370844007,0.152344003
5798,0.268918991,0.0370844007,0.15625
5799,0.268918991,0.0370844007,0.160155997
5800,0.268918991,0.0370844007,0.164063007
5801,0.268918991,0.0370844007,0.167969003
5802,0.268918991,0.0370844007,0.171875
5803,0.268918991,0.0370844007,0.175780997
5804,0.268918991,0.0370844007,0.179688007
5805,0.268918991,0.0370844007,0.183594003
5806,0.268918991,0.0370844007,0.1875
5807,0.268918991,0.0370844007,0.191405997
5808,0.268918991,0.0370844007,0.195313007
5809,0.268918991,0.0370844007,0.199219003
5810,0.268918991,0.0370844007,0.203125
5811,0.268918991,0.0370844007,0.207030997
5812,0.268918991,0.0370844007,0.210938007
5813,0.268918991,0.0370844007,0.214844003
5814,0.268918991,0.0370844007,0.21875
5815,0.268918991,0.0370844007,0.222655997
5816,0.268918991,0.0370844007,0.226563007
5817,0.268918991,0.0370844007,0.230469003
5818,0.268918991,0.0370844007,0.234375
5819,0.268918991,0.0370844007,0.238280997
5820,0.268918991,0.0370844007,0.242188007
5821,0.268918991,0.0370844007,0.246094003
5822,0.268918991,0.0370844007,0.25
5823,0.268918991,0.0370844007,0.253906012
5824,0.268918991,0.0370844007,0.257813007
5825,0.268918991,0.0370844007,0.261718988
5826,0.268918991,0.0370844007,0.265625
5827,0.268918991,0.0370844007,0.269531012
5828,0.268918991,0.0370844007,0.273438007
5829,0.268918991,0.0370844007,0.277343988
5830,0.268918991,0.0370844007,0.28125
5831,0.268918991,0.0370844007,0.285156012
5832,0.268918991,0.0370844007,0.289061993
5833,0.268918991,0.0370844007,0.292968988
5834,0.268918991,0.0370844007,0.296875
5835,0.268918991,0.0370844007,0.300781012
5836,0.268918991,0.0370844007,0.304688007
5837,0.268918991,0.0370844007,0.308593988
5838,0.268918991,0.0370844007,0.3125
5839,0.268918991,0.0370844007,0.316406012
5840,0.268918991,0.0370844007,0.320313007
5841,0.268918991,0.0370844007,0.324218988
5842,0.268918991,0.0370844007,0.328125
5843,0.268918991,0.0370844007,0.332031012
5844,0.268918991,0.0370844007,0.335936993
5845,0.268918991,0.0370844007,0.339843988
5846,0.268918991,0.0370844007,0.34375
5847,0.268918991,0.0370844007,0.347656012
5848,0.268918991,0.0370844007,0.351561993
5849,0.268932015,0.0370888002,-0.394423991
5850,0.268945992,0.044868499,0.371073008
5851,0.268999994,0.0450366996,0.390619993
5852,0.269003987,0.0449825004,0.382808
5853,0.269008994,0.0450153016,0.386714011
5854,0.269010007,0.0449105017,0.37499699
5855,0.269014001,0.0449478999,0.378901988
5856,0.269032001,0.0413428992,0.397381991
5857,0.269199014,0.0373165011,0.39733699
5858,0.269266993,0.0372419991,-0.397388011
5859,0.274195999,0.0389261991,-0.386718988
5860,0.274195999,0.0389262997,0.390625
5861,0.274195999,0.0389265008,-0.382811993
5862,0.274195999,0.0389265008,-0.378906012
5863,0.274195999,0.0389265008,-0.375
5864,0.274195999,0.0389265008,-0.371093988
5865,0.274195999,0.0389265008,-0.367188007
5866,0.274195999,0.0389265008,-0.363281012
5867,0.274195999,0.0389265008,-0.359375
5868,0.274195999,0.0389265008,-0.355468988
5869,0.274195999,0.0389265008,-0.351561993
5870,0.274195999,0.0389265008,-0.347656012
5871,0.274195999,0.0389265008,-0.34375
5872,0.274195999,0.0389265008,-0.339843988
5873,0.274195999,0.0389265008,-0.335938007
5874,0.274195999,0.0389265008,-0.332031012
5875,0.274195999,0.0389265008,-0.328125
5876,0.274195999,0.0389265008,-0.324218988
5877,0.274195999,0.0389265008,-0.320311993
5878,0.274195999,0.0389265008,-0.316406012
5879,0.274195999,0.0389265008,-0.3125
5880,0.274195999,0.0389265008,-0.308593988
5881,0.274195999,0.0389265008,-0.304688007
5882,0.274195999,0.0389265008,-0.300781012
5883,0.274195999,0.0389265008,-0.296875
5884,0.274195999,0.0389265008,-0.292968988
5885,0.274195999,0.0389265008,-0.289061993
5886,0.274195999,0.0389265008,-0.285156012
5887,0.274195999,0.0389265008,-0.28125
5888,0.274195999,0.0389265008,-0.277343988
5889,0.274195999,0.0389265008,-0.273438007
5890,0.274195999,0.0389265008,-0.269531012
5891,0.274195999,0.0389265008,-0.265625
5892,0.274195999,0.0389265008,-0.261718988
5893,0.274195999,0.0389265008,-0.257811993
5894,0.274195999,0.0389265008,-0.253906012
5895,0.274195999,0.0389265008,-0.25
5896,0.274195999,0.0389265008,-0.246094003
5897,0.274195999,0.0389265008,-0.242186993
5898,0.274195999,0.0389265008,-0.238280997
5899,0.274195999,0.0389265008,-0.234375
5900,0.274195999,0.0389265008,-0.230469003
5901,0.274195999,0.0389265008,-0.226563007
5902,0.274195999,0.0389265008,-0.222655997
5903,0.274195999,0.0389265008,-0.21875
5904,0.274195999,0.0389265008,-0.214844003
5905,0.274195999,0.0389265008,-0.210936993
5906,0.274195999,0.0389265008,-0.207030997
5907,0.274195999,0.0389265008,-0.203125
5908,0.274195999,0.0389265008,-0.199219003
5909,0.274195999,0.0389265008,-0.195311993
5910,0.274195999,0.0389265008,-0.191405997
5911,0.274195999,0.0389265008,-0.1875
5912,0.274195999,0.0389265008,-0.183594003
5913,0.274195999,0.0389265008,-0.179688007
5914,0.274195999,0.0389265008,-0.175780997
5915,0.274195999,0.0389265008,-0.171875
5916,0.274195999,0.0389265008,-0.167969003
5917,0.274195999,0.0389265008,-0.164063007
5918,0.274195999,0.0389265008,-0.160155997
5919,0.274195999,0.0389265008,-0.15625
5920,0.274195999,0.0389265008,-0.152344003
5921,0.274195999,0.0389265008,-0.148436993
5922,0.274195999,0.0389265008,-0.144530997
5923,0.274195999,0.0389265008,-0.140625
5924,0.274195999,0.0389265008,-0.136719003
5925,0.274195999,0.0389265008,-0.132811993
5926,0.274195999,0.0389265008,-0.128905997
5927,0.274195999,0.0389265008,-0.125
5928,0.274195999,0.0389265008,-0.121094003
5929,0.274195999,0.0389265008,-0.117187999
5930,0.274195999,0.0389265008,-0.113280997
5931,0.274195999,0.0389265008,-0.109375
5932,0.274195999,0.0389265008,-0.105469003
5933,0.274195999,0.0389265008,-0.101562999
5934,0.274195999,0.0389265008,-0.0976563022
5935,0.274195999,0.0389265008,-0.09375
5936,0.274195999,0.0389265008,-0.0898436978
5937,0.274195999,0.0389265008,-0.0859375
5938,0.274195999,0.0389265008,-0.0820311978
5939,0.274195999,0.0389265008,-0.078125
5940,0.274195999,0.0389265008,-0.0742186978
5941,0.274195999,0.0389265008,-0.0703125
5942,0.274195999,0.0389265008,-0.0664063022
5943,0.274195999,0.0389265008,-0.0625
5944,0.274195999,0.0389265008,-0.0585937016
5945,0.274195999,0.0389265008,-0.0546875
5946,0.274195999,0.0389265008,-0.0507812016
5947,0.274195999,0.0389265008,-0.046875
5948,0.274195999,0.0389265008,-0.0429687016
5949,0.274195999,0.0389265008,-0.0390625
5950,0.274195999,0.0389265008,-0.0351562984
5951,0.274195999,0.0389265008,-0.03125
5952,0.274195999,0.0389265008,-0.0273436997
5953,0.274195999,0.0389265008,-0.0234375
5954,0.274195999,0.0389265008,-0.0195311997
5955,0.274195999,0.0389265008,-0.015625
5956,0.274195999,0.0389265008,-0.0117188003
5957,0.274195999,0.0389265008,-0.0078125
5958,0.274195999,0.0389265008,-0.00390625
5959,0.274195999,0.0389265008,0
5960,0.274195999,0.0389265008,0.00390625
5961,0.274195999,0.0389265008,0.0078125
5962,0.274195999,0.0389265008,0.0117186997
5963,0.274195999,0.0389265008,0.015625
5964,0.274195999,0.0389265008,0.0195311997
5965,0.274195999,0.0389265008,0.0234375
5966,0.274195999,0.0389265008,0.0273436997
5967,0.274195999,0.0389265008,0.03125
5968,0.274195999,0.0389265008,0.0351562016
5969,0.274195999,0.0389265008,0.0390625
5970,0.274195999,0.0389265008,0.0429687016
5971,0.274195999,0.0389265008,0.046875
5972,0.274195999,0.0389265008,0.0507812016
5973,0.274195999,0.0389265008,0.0546875
5974,0.274195999,0.0389265008,0.0585937016
5975,0.274195999,0.0389265008,0.0625
5976,0.274195999,0.0389265008,0.0664061978
5977,0.274195999,0.0389265008,0.0703125
5978,0.274195999,0.0389265008,0.0742186978
5979,0.274195999,0.0389265008,0.078125
5980,0.274195999,0.0389265008,0.0820311978
5981,0.274195999,0.0389265008,0.0859375
5982,0.274195999,0.0389265008,0.0898436978
5983,0.274195999,0.0389265008,0.09375
5984,0.274195999,0.0389265008,0.0976563022
5985,0.274195999,0.0389265008,0.101562001
5986,0.274195999,0.0389265008,0.105469003
5987,0.274195999,0.0389265008,0.109375
5988,0.274195999,0.0389265008,0.113280997
5989,0.274195999,0.0389265008,0.117187001
5990,0.274195999,0.0389265008,0.121094003
5991,0.274195999,0.0389265008,0.125
5992,0.274195999,0.0389265008,0.128905997
5993,0.274195999,0.0389265008,0.132811993
5994,0.274195999,0.0389265008,0.136719003
5995,0.274195999,0.0389265008,0.140625
5996,0.274195999,0.0389265008,0.144530997
5997,0.274195999,0.0389265008,0.148436993
5998,0.274195999,0.0389265008,0.152344003
5999,0.274195999,0.0389265008,0.15625
6000,0.274195999,0.0389265008,0.160155997
6001,0.274195999,0.0389265008,0.164063007
6002,0.274195999,0.0389265008,0.167969003
6003,0.274195999,0.0389265008,0.171875
6004,0.274195999,0.0389265008,0.175780997
6005,0.274195999,0.0389265008,0.179686993
6006,0.274195999,0.0389265008,0.183594003
6007,0.274195999,0.0389265008,0.1875
6008,0.274195999,0.0389265008,0.191405997
6009,0.274195999,0.0389265008,0.195311993
6010,0.274195999,0.0389265008,0.199219003
6011,0.274195999,0.0389265008,0.203125
6012,0.274195999,0.0389265008,0.207030997
6013,0.274195999,0.0389265008,0.210936993
6014,0.274195999,0.0389265008,0.214844003
6015,0.274195999,0.0389265008,0.21875
6016,0.274195999,0.0389265008,0.222655997
6017,0.274195999,0.0389265008,0.226563007
6018,0.274195999,0.0389265008,0.230469003
6019,0.274195999,0.0389265008,0.234375
6020,0.274195999,0.0389265008,0.238280997
6021,0.274195999,0.0389265008,0.242186993
6022,0.274195999,0.0389265008,0.246094003
6023,0.274195999,0.0389265008,0.25
6024,0.274195999,0.0389265008,0.253906012
6025,0.274195999,0.0389265008,0.257813007
6026,0.274195999,0.0389265008,0.261718988
6027,0.274195999,0.0389265008,0.265625
6028,0.274195999,0.0389265008,0.269531012
6029,0.274195999,0.0389265008,0.273436993
6030,0.274195999,0.0389265008,0.277343988
6031,0.274195999,0.0389265008,0.28125
6032,0.274195999,0.0389265008,0.285156012
6033,0.274195999,0.0389265008,0.289061993
6034,0.274195999,0.0389265008,0.292968988
6035,0.274195999,0.0389265008,0.296875
6036,0.274195999,0.0389265008,0.300781012
6037,0.274195999,0.0389265008,0.304686993
6038,0.274195999,0.0389265008,0.308593988
6039,0.274195999,0.0389265008,0.3125
6040,0.274195999,0.0389265008,0.316406012
6041,0.274195999,0.0389265008,0.320313007
6042,0.274195999,0.0389265008,0.324218988
6043,0.274195999,0.0389265008,0.328125
6044,0.274195999,0.0389265008,0.332031012
6045,0.274195999,0.0389265008,0.335936993
6046,0.274195999,0.0389265008,0.339843988
6047,0.274195999,0.0389265008,0.34375
6048,0.274195999,0.0389265008,0.347656012
6049,0.274195999,0.0389265008,0.351563007
6050,0.274195999,0.0389265008,0.355468988
6051,0.274195999,0.0389265008,0.359375
6052,0.274195999,0.0389265008,0.363281012
6053,0.274195999,0.0389265008,0.367188007
6054,0.274195999,0.0389265008,0.371093988
6055,0.274195999,0.0389265008,0.375
6056,0.274195999,0.0389265008,0.378906012
6057,0.274195999,0.0389265008,0.382813007
6058,0.274195999,0.0389265008,0.386718988
6059,0.274197996,0.0389216989,-0.390625
6060,0.274241,0.0389388986,0.394392014
6061,0.274250001,0.0389137007,-0.394392014
6062,0.274655998,0.0390850008,0.397354007
6063,0.274659991,0.0390737988,-0.397354007
6064,0.274733007,0.0427927002,-0.397320986
6065,0.274850011,0.0455565006,0.394315004
6066,0.274872988,0.0421365984,0.397320986
6067,0.274897009,0.0455554016,-0.390590012
6068,0.274897993,0.0455477014,0.390590012
6069,0.274901986,0.0455281995,-0.386712998
6070,0.274902999,0.0455254018,0.386712998
6071,0.27490899,0.0454978012,0.382806987
6072,0.27490899,0.0454990007,-0.382806987
6073,0.27491501,0.0454687998,0.378901005
6074,0.27491501,0.0454696007,-0.378901005
6075,0.274921,0.0454392992,0.374994993
6076,0.274921,0.0454403013,-0.374994993
6077,0.274924994,0.0456316993,-0.171875
6078,0.274924994,0.0456316993,-0.167969003
6079,0.274924994,0.0456316993,-0.164061993
6080,0.274924994,0.0456316993,-0.160155997
6081,0.274924994,0.0456316993,-0.15625
6082,0.274924994,0.0456316993,-0.152344003
6083,0.274924994,0.0456316993,-0.148438007
6084,0.274924994,0.0456316993,-0.144530997
6085,0.274924994,0.0456316993,-0.140625
6086,0.274924994,0.0456316993,-0.136719003
6087,0.274924994,0.0456316993,-0.132813007
6088,0.274924994,0.0456316993,-0.128905997
6089,0.274924994,0.0456316993,-0.125
6090,0.274924994,0.0456316993,-0.121094003
6091,0.274924994,0.0456316993,-0.117187001
6092,0.274924994,0.0456316993,-0.113280997
6093,0.274924994,0.0456316993,-0.109375
6094,0.274924994,0.0456316993,-0.105469003
6095,0.274924994,0.0456316993,-0.101562001
6096,0.274924994,0.0456316993,-0.0976563022
6097,0.274924994,0.0456316993,-0.09375
6098,0.274924994,0.0456316993,-0.0898438022
6099,0.274924994,0.0456316993,-0.0859375
6100,0.274924994,0.0456316993,-0.0820313022
6101,0.274924994,0.0456316993,-0.078125
6102,0.274924994,0.0456316993,-0.0742186978
6103,0.274924994,0.0456316993,-0.0703125
6104,0.274924994,0.0456316993,-0.0664061978
6105,0.274924994,0.0456316993,-0.0625
6106,0.274924994,0.0456316993,-0.0585937016
6107,0.274924994,0.0456316993,-0.0546875
6108,0.274924994,0.0456316993,-0.0507812016
6109,0.274924994,0.0456316993,-0.046875
6110,0.274924994,0.0456316993,-0.0429687984
6111,0.274924994,0.0456316993,-0.0390625
6112,0.274924994,0.0456316993,-0.0351562984
6113,0.274924994,0.0456316993,-0.03125
6114,0.274924994,0.0456316993,-0.0273436997
6115,0.274924994,0.0456316993,-0.0234375
6116,0.274924994,0.0456316993,-0.0195313003
6117,0.274924994,0.0456316993,-0.015625
6118,0.274924994,0.0456316993,-0.0117186997
6119,0.274924994,0.0456316993,-0.0078125
6120,0.274924994,0.0456316993,-0.00390625
6121,0.274924994,0.0456316993,-0
6122,0.274924994,0.0456316993,0.00390625
6123,0.274924994,0.0456316993,0.0078125
6124,0.274924994,0.0456316993,0.0117186997
6125,0.274924994,0.0456316993,0.015625
6126,0.274924994,0.0456316993,0.0195311997
6127,0.274924994,0.0456316993,0.0234375
6128,0.274924994,0.0456316993,0.0273436997
6129,0.274924994,0.0456316993,0.03125
6130,0.274924994,0.0456316993,0.0351562016
6131,0.274924994,0.0456316993,0.0390625
6132,0.274924994,0.0456316993,0.0429687984
6133,0.274924994,0.0456316993,0.046875
6134,0.274924994,0.0456316993,0.0507812016
6135,0.274924994,0.0456316993,0.0546875
6136,0.274924994,0.0456316993,0.0585937016
6137,0.274924994,0.0456316993,0.0625
6138,0.274924994,0.0456316993,0.0664061978
6139,0.274924994,0.0456316993,0.0703125
6140,0.274924994,0.0456316993,0.0742186978
6141,0.274924994,0.0456316993,0.078125
6142,0.274924994,0.0456316993,0.0820311978
6143,0.274924994,0.0456316993,0.0859375
6144,0.274924994,0.0456316993,0.0898436978
6145,0.274924994,0.0456316993,0.09375
6146,0.274924994,0.0456316993,0.0976561978
6147,0.274924994,0.0456316993,0.101562001
6148,0.274924994,0.0456316993,0.105469003
6149,0.274924994,0.0456316993,0.109375
6150,0.274924994,0.0456316993,0.113280997
6151,0.274924994,0.0456316993,0.117187001
6152,0.274924994,0.0456316993,0.121094003
6153,0.274924994,0.0456316993,0.125
6154,0.274924994,0.0456316993,0.128905997
6155,0.274924994,0.0456316993,0.132811993
6156,0.274924994,0.0456316993,0.136719003
6157,0.274924994,0.0456316993,0.140625
6158,0.274924994,0.0456316993,0.144530997
6159,0.274924994,0.0456316993,0.148436993
6160,0.274924994,0.0456316993,0.152344003
6161,0.274924994,0.0456316993,0.15625
6162,0.274924994,0.0456316993,0.160155997
6163,0.274924994,0.0456316993,0.164063007
6164,0.274924994,0.0456316993,0.167969003
6165,0.274924994,0.0456316993,0.171875
6166,0.27492699,0.0454109013,-0.371089011
6167,0.274928004,0.0454096012,0.371089011
6168,0.274933994,0.0453798994,0.367183
6169,0.274933994,0.0453815013,-0.367183
6170,0.274940014,0.0453509018,0.363276988
6171,0.274940014,0.0453521982,-0.363276988
6172,0.274946004,0.0453221984,0.359371006
6173,0.274946004,0.0453227982,-0.359371006
6174,0.274951994,0.0452932008,0.355464995
6175,0.274951994,0.0452933982,-0.355464995
6176,0.274953991,0.0452637002,-0.351559013
6177,0.274953991,0.0452637002,0.351559013
6178,0.274957001,0.045234099,-0.347653002
6179,0.274957001,0.045234099,0.347653002
6180,0.274958998,0.045204401,-0.34374699
6181,0.274958998,0.045204401,0.34374699
6182,0.274960995,0.0451746993,-0.339841008
6183,0.274960995,0.0451746993,0.339841008
6184,0.274964005,0.0451451018,-0.335934997
6185,0.274964005,0.0451451018,0.335934997
6186,0.274966002,0.0451154001,-0.332029015
6187,0.274966002,0.0451154001,0.332029015
6188,0.274969012,0.0450856984,-0.328123003
6189,0.274969012,0.0450856984,0.328123003
6190,0.274971008,0.0450561009,-0.324216992
6191,0.274971008,0.0450561009,0.324216992
6192,0.274973005,0.0450263992,-0.32031101
6193,0.274973005,0.0450263992,0.32031101
6194,0.274975985,0.0449967012,-0.316404015
6195,0.274975985,0.0449967012,0.316404015
6196,0.274978012,0.0449671,-0.312498003
6197,0.274978012,0.0449671,0.312498003
6198,0.274980992,0.0449373983,-0.308591992
6199,0.274980992,0.0449373983,0.308591992
6200,0.274982989,0.0449077003,-0.30468601
6201,0.274982989,0.0449077003,0.30468601
6202,0.274985999,0.0448780991,-0.300779998
6203,0.274985999,0.0448780991,0.300779998
6204,0.274987996,0.0448484011,-0.296873987
6205,0.274987996,0.0448484011,0.296873987
6206,0.274989992,0.0448186994,-0.292968005
6207,0.274989992,0.0448186994,0.292968005
6208,0.274993002,0.0447890982,-0.289061993
6209,0.274993002,0.0447890982,0.289061993
6210,0.274994999,0.0447594002,-0.285156012
6211,0.274994999,0.0447594002,0.285156012
6212,0.274998009,0.0447296984,-0.28125
6213,0.274998009,0.0447296984,0.28125
6214,0.275000006,0.0447000004,-0.277343988
6215,0.275000006,0.0447000004,0.277343988
6216,0.275002003,0.0446703993,-0.273438007
6217,0.275002003,0.0446703993,0.273438007
6218,0.275005013,0.0446407013,-0.269531995
6219,0.275005013,0.0446407013,0.269531995
6220,0.27500701,0.0446109995,-0.265626013
6221,0.27500701,0.0446109995,0.265626013
6222,0.27500999,0.0445813984,-0.261720002
6223,0.27500999,0.0445813984,0.261720002
6224,0.275011986,0.0445517004,-0.25781399
6225,0.275011986,0.0445517004,0.25781399
6226,0.275014997,0.0445219986,-0.253908008
6227,0.275014997,0.0445219986,0.253908008
6228,0.275016993,0.0444924012,-0.250001997
6229,0.275016993,0.0444924012,0.250001997
6230,0.27501899,0.0444626994,-0.246096
6231,0.27501899,0.0444626994,0.246096
6232,0.275022,0.0444330014,-0.242190003
6233,0.275022,0.0444330014,0.242190003
6234,0.275023997,0.0444034003,-0.238284007
6235,0.275023997,0.0444034003,0.238284007
6236,0.275027007,0.0443736985,-0.234377995
6237,0.275027007,0.0443736985,0.234377995
6238,0.275029004,0.0443440005,-0.230471998
6239,0.275029004,0.0443440005,0.230471998
6240,0.275031,0.0443143994,-0.226566002
6241,0.275031,0.0443143994,0.226566002
6242,0.27503401,0.0442847013,-0.222660005
6243,0.27503401,0.0442847013,0.222660005
6244,0.275036007,0.0442549996,-0.218753994
6245,0.275036007,0.0442549996,0.218753994
6246,0.275038987,0.0442253985,-0.214847997
6247,0.275038987,0.0442253985,0.214847997
6248,0.275041014,0.0441957004,-0.210942
6249,0.275041014,0.0441957004,0.210942
6250,0.275043994,0.0441659987,-0.207036003
6251,0.275043994,0.0441659987,0.207036003
6252,0.275045991,0.0441364013,-0.203130007
6253,0.275045991,0.0441364013,0.203130007
6254,0.275047988,0.0441066995,-0.199223995
6255,0.275047988,0.0441066995,0.199223995
6256,0.275050998,0.0440770015,-0.195317999
6257,0.275050998,0.0440770015,0.195317999
6258,0.275052994,0.0440474004,-0.191412002
6259,0.275052994,0.0440474004,0.191412002
6260,0.275056005,0.0440176986,-0.187506005
6261,0.275056005,0.0440176986,0.187506005
6262,0.275058001,0.0439880006,-0.183599994
6263,0.275058001,0.0439880006,0.183599994
6264,0.275059998,0.0439582989,-0.179693997
6265,0.275059998,0.0439582989,0.179693997
6266,0.275063008,0.0439287014,-0.175788
6267,0.275063008,0.0439287014,0.175788
6268,0.275209993,0.0429341011,-0.394327015
6269,0.278813004,0.0405493006,0.39715299
6270,0.278937012,0.0401997007,-0.39715299
6271,0.279141009,0.0406668,0.394315004
6272,0.279188007,0.0405322015,-0.394315004
6273,0.279220015,0.0430388004,0.397101015
6274,0.279359996,0.0407446995,0.390603989
6275,0.279368997,0.0407182984,-0.390603989
6276,0.279430002,0.0407693982,-0.382813007
6277,0.279430002,0.0407693982,-0.378906012
6278,0.279430002,0.0407693982,-0.375
6279,0.279430002,0.0407693982,-0.371093988
6280,0.279430002,0.0407693982,-0.367188007
6281,0.279430002,0.0407693982,-0.363281012
6282,0.279430002,0.0407693982,-0.359375
6283,0.279430002,0.0407693982,-0.355468988
6284,0.279430002,0.0407693982,-0.351561993
6285,0.279430002,0.0407693982,-0.347656012
6286,0.279430002,0.0407693982,-0.34375
6287,0.279430002,0.0407693982,-0.339843988
6288,0.279430002,0.0407693982,-0.335938007
6289,0.279430002,0.0407693982,-0.332031012
6290,0.279430002,0.0407693982,-0.328125
6291,0.279430002,0.0407693982,-0.324218988
6292,0.279430002,0.0407693982,-0.320311993
6293,0.279430002,0.0407693982,-0.316406012
6294,0.279430002,0.0407693982,-0.3125
6295,0.279430002,0.0407693982,-0.308593988
6296,0.279430002,0.0407693982,-0.304688007
6297,0.279430002,0.0407693982,-0.300781012
6298,0.279430002,0.0407693982,-0.296875
6299,0.279430002,0.0407693982,-0.292968988
6300,0.279430002,0.0407693982,-0.289063007
6301,0.279430002,0.0407693982,-0.285156012
6302,0.279430002,0.0407693982,-0.28125
6303,0.279430002,0.0407693982,-0.277343988
6304,0.279430002,0.0407693982,-0.273438007
6305,0.279430002,0.0407693982,-0.269531012
6306,0.279430002,0.0407693982,-0.265625
6307,0.279430002,0.0407693982,-0.261718988
6308,0.279430002,0.0407693982,-0.257811993
6309,0.279430002,0.0407693982,-0.253906012
6310,0.279430002,0.0407693982,-0.25
6311,0.279430002,0.0407693982,-0.246094003
6312,0.279430002,0.0407693982,-0.242188007
6313,0.279430002,0.0407693982,-0.238280997
6314,0.279430002,0.0407693982,-0.234375
6315,0.279430002,0.0407693982,-0.230469003
6316,0.279430002,0.0407693982,-0.226563007
6317,0.279430002,0.0407693982,-0.222655997
6318,0.279430002,0.0407693982,-0.21875
6319,0.279430002,0.0407693982,-0.214844003
6320,0.279430002,0.0407693982,-0.210936993
6321,0.279430002,0.0407693982,-0.207030997
6322,0.279430002,0.0407693982,-0.203125
6323,0.279430002,0.0407693982,-0.199219003
6324,0.279430002,0.0407693982,-0.195311993
6325,0.279430002,0.0407693982,-0.191405997
6326,0.279430002,0.0407693982,-0.1875
6327,0.279430002,0.0407693982,-0.183594003
6328,0.279430002,0.0407693982,-0.179688007
6329,0.279430002,0.0407693982,-0.175780997
6330,0.279430002,0.0407693982,-0.171875
6331,0.279430002,0.0407693982,-0.167969003
6332,0.279430002,0.0407693982,-0.164061993
6333,0.279430002,0.0407693982,-0.160155997
6334,0.279430002,0.0407693982,-0.15625
6335,0.279430002,0.0407693982,-0.152344003
6336,0.279430002,0.0407693982,-0.148438007
6337,0.279430002,0.0407693982,-0.144530997
6338,0.279430002,0.0407693982,-0.140625
6339,0.279430002,0.0407693982,-0.136719003
6340,0.279430002,0.0407693982,-0.132811993
6341,0.279430002,0.0407693982,-0.128905997
6342,0.279430002,0.0407693982,-0.125
6343,0.279430002,0.0407693982,-0.121094003
6344,0.279430002,0.0407693982,-0.117187999
6345,0.279430002,0.0407693982,-0.113280997
6346,0.279430002,0.0407693982,-0.109375
6347,0.279430002,0.0407693982,-0.105469003
6348,0.279430002,0.0407693982,-0.101562999
6349,0.279430002,0.0407693982,-0.0976563022
6350,0.279430002,0.0407693982,-0.09375
6351,0.279430002,0.0407693982,-0.0898438022
6352,0.279430002,0.0407693982,-0.0859375
6353,0.279430002,0.0407693982,-0.0820313022
6354,0.279430002,0.0407693982,-0.078125
6355,0.279430002,0.0407693982,-0.0742188022
6356,0.279430002,0.0407693982,-0.0703125
6357,0.279430002,0.0407693982,-0.0664063022
6358,0.279430002,0.0407693982,-0.0625
6359,0.279430002,0.0407693982,-0.0585937984
6360,0.279430002,0.0407693982,-0.0546875
6361,0.279430002,0.0407693982,-0.0507812984
6362,0.279430002,0.0407693982,-0.046875
6363,0.279430002,0.0407693982,-0.0429687984
6364,0.279430002,0.0407693982,-0.0390625
6365,0.279430002,0.0407693982,-0.0351562984
6366,0.279430002,0.0407693982,-0.03125
6367,0.279430002,0.0407693982,-0.0273438003
6368,0.279430002,0.0407693982,-0.0234375
6369,0.279430002,0.0407693982,-0.0195311997
6370,0.279430002,0.0407693982,-0.015625
6371,0.279430002,0.0407693982,-0.0117186997
6372,0.279430002,0.0407693982,-0.0078125
6373,0.279430002,0.0407693982,-0.00390625
6374,0.279430002,0.0407693982,-0
6375,0.279430002,0.0407693982,0.00390625
6376,0.279430002,0.0407693982,0.0078125
6377,0.279430002,0.0407693982,0.0117186997
6378,0.279430002,0.0407693982,0.015625
6379,0.279430002,0.0407693982,0.0195311997
6380,0.279430002,0.0407693982,0.0234375
6381,0.279430002,0.0407693982,0.0273436997
6382,0.279430002,0.0407693982,0.03125
6383,0.279430002,0.0407693982,0.0351562016
6384,0.279430002,0.0407693982,0.0390625
6385,0.279430002,0.0407693982,0.0429687016
6386,0.279430002,0.0407693982,0.046875
6387,0.279430002,0.0407693982,0.0507812016
6388,0.279430002,0.0407693982,0.0546875
6389,0.279430002,0.0407693982,0.0585937984
6390,0.279430002,0.0407693982,0.0625
6391,0.279430002,0.0407693982,0.0664061978
6392,0.279430002,0.0407693982,0.0703125
6393,0.279430002,0.0407693982,0.0742188022
6394,0.279430002,0.0407693982,0.078125
6395,0.279430002,0.0407693982,0.0820311978
6396,0.279430002,0.0407693982,0.0859375
6397,0.279430002,0.0407693982,0.0898436978
6398,0.279430002,0.0407693982,0.09375
6399,0.279430002,0.0407693982,0.0976561978
6400,0.279430002,0.0407693982,0.101562999
6401,0.279430002,0.0407693982,0.105469003
6402,0.279430002,0.0407693982,0.109375
6403,0.279430002,0.0407693982,0.113280997
6404,0.279430002,0.0407693982,0.117187999
6405,0.279430002,0.0407693982,0.121094003
6406,0.279430002,0.0407693982,0.125
6407,0.279430002,0.0407693982,0.128905997
6408,0.279430002,0.0407693982,0.132811993
6409,0.279430002,0.0407693982,0.136719003
6410,0.279430002,0.0407693982,0.140625
6411,0.279430002,0.0407693982,0.144530997
6412,0.279430002,0.0407693982,0.148438007
6413,0.279430002,0.0407693982,0.152344003
6414,0.279430002,0.0407693982,0.15625
6415,0.279430002,0.0407693982,0.160155997
6416,0.279430002,0.0407693982,0.164063007
6417,0.279430002,0.0407693982,0.167969003
6418,0.279430002,0.0407693982,0.171875
6419,0.279430002,0.0407693982,0.175780997
6420,0.279430002,0.0407693982,0.179688007
6421,0.279430002,0.0407693982,0.183594003
6422,0.279430002,0.0407693982,0.1875
6423,0.279430002,0.0407693982,0.191405997
6424,0.279430002,0.0407693982,0.195313007
6425,0.279430002,0.0407693982,0.199219003
6426,0.279430002,0.0407693982,0.203125
6427,0.279430002,0.0407693982,0.207030997
6428,0.279430002,0.0407693982,0.210936993
6429,0.279430002,0.0407693982,0.214844003
6430,0.279430002,0.0407693982,0.21875
6431,0.279430002,0.0407693982,0.222655997
6432,0.279430002,0.0407693982,0.226561993
6433,0.279430002,0.0407693982,0.230469003
6434,0.279430002,0.0407693982,0.234375
6435,0.279430002,0.0407693982,0.238280997
6436,0.279430002,0.0407693982,0.242186993
6437,0.279430002,0.0407693982,0.246094003
6438,0.279430002,0.0407693982,0.25
6439,0.279430002,0.0407693982,0.253906012
6440,0.279430002,0.0407693982,0.257811993
6441,0.279430002,0.0407693982,0.261718988
6442,0.279430002,0.0407693982,0.265625
6443,0.279430002,0.0407693982,0.269531012
6444,0.279430002,0.0407693982,0.273436993
6445,0.279430002,0.0407693982,0.277343988
6446,0.279430002,0.0407693982,0.28125
6447,0.279430002,0.0407693982,0.285156012
6448,0.279430002,0.0407693982,0.289063007
6449,0.279430002,0.0407693982,0.292968988
6450,0.279430002,0.0407693982,0.296875
6451,0.279430002,0.0407693982,0.300781012
6452,0.279430002,0.0407693982,0.304686993
6453,0.279430002,0.0407693982,0.308593988
6454,0.279430002,0.0407693982,0.3125
6455,0.279430002,0.0407693982,0.316406012
6456,0.279430002,0.0407693982,0.320313007
6457,0.279430002,0.0407693982,0.324218988
6458,0.279430002,0.0407693982,0.328125
6459,0.279430002,0.0407693982,0.332031012
6460,0.279430002,0.0407693982,0.335936993
6461,0.279430002,0.0407693982,0.339843988
6462,0.279430002,0.0407693982,0.34375
6463,0.279430002,0.0407693982,0.347656012
6464,0.279430002,0.0407693982,0.351563007
6465,0.279430002,0.0407693982,0.355468988
6466,0.279430002,0.0407693982,0.359375
6467,0.279430002,0.0407693982,0.363281012
6468,0.279430002,0.0407693982,0.367186993
6469,0.279430002,0.0407693982,0.371093988
6470,0.279430002,0.0407693982,0.375
6471,0.279430002,0.0407693982,0.378906012
6472,0.279430002,0.0407693982,0.382813007
6473,0.279430002,0.0407693982,0.386718988
6474,0.279430985,0.0407668985,-0.386718988
6475,0.279731989,0.0412480012,-0.397094011
6476,0.28106001,0.0440977998,-0.393669009
6477,0.281197011,0.0434600003,0.393669009
6478,0.281203002,0.0460748002,-0.390505999
6479,0.281203002,0.0460795015,0.390505999
6480,0.281233013,0.0461311005,-0.339843988
6481,0.281233013,0.0461311005,-0.335938007
6482,0.281233013,0.0461311005,-0.332031012
6483,0.281233013,0.0461311005,-0.328125
6484,0.281233013,0.0461311005,-0.324218988
6485,0.281233013,0.0461311005,-0.320311993
6486,0.281233013,0.0461311005,-0.316406012
6487,0.281233013,0.0461311005,-0.3125
6488,0.281233013,0.0461311005,-0.308593988
6489,0.281233013,0.0461311005,-0.304688007
6490,0.281233013,0.0461311005,-0.300781012
6491,0.281233013,0.0461311005,-0.296875
6492,0.281233013,0.0461311005,-0.292968988
6493,0.281233013,0.0461311005,-0.289063007
6494,0.281233013,0.0461311005,-0.285156012
6495,0.281233013,0.0461311005,-0.28125
6496,0.281233013,0.0461311005,-0.277343988
6497,0.281233013,0.0461311005,-0.273438007
6498,0.281233013,0.0461311005,-0.269531012
6499,0.281233013,0.0461311005,-0.265625
6500,0.281233013,0.0461311005,-0.261718988
6501,0.281233013,0.0461311005,-0.257811993
6502,0.281233013,0.0461311005,-0.253906012
6503,0.281233013,0.0461311005,-0.25
6504,0.281233013,0.0461311005,-0.246094003
6505,0.281233013,0.0461311005,-0.242188007
6506,0.281233013,0.0461311005,-0.238280997
6507,0.281233013,0.0461311005,-0.234375
6508,0.281233013,0.0461311005,-0.230469003
6509,0.281233013,0.0461311005,-0.226561993
6510,0.281233013,0.0461311005,-0.222655997
6511,0.281233013,0.0461311005,-0.21875
6512,0.281233013,0.0461311005,-0.214844003
6513,0.281233013,0.0461311005,-0.210936993
6514,0.281233013,0.0461311005,-0.207030997
6515,0.281233013,0.0461311005,-0.203125
6516,0.281233013,0.0461311005,-0.199219003
6517,0.281233013,0.0461311005,-0.195311993
6518,0.281233013,0.0461311005,-0.191405997
6519,0.281233013,0.0461311005,-0.1875
6520,0.281233013,0.0461311005,-0.183594003
6521,0.281233013,0.0461311005,-0.179688007
6522,0.281233013,0.0461311005,-0.175780997
6523,0.281233013,0.0461311005,-0.171875
6524,0.281233013,0.0461311005,-0.167969003
6525,0.281233013,0.0461311005,-0.164063007
6526,0.281233013,0.0461311005,-0.160155997
6527,0.281233013,0.0461311005,-0.15625
6528,0.281233013,0.0461311005,-0.152344003
6529,0.281233013,0.0461311005,-0.148438007
6530,0.281233013,0.0461311005,-0.144530997
6531,0.281233013,0.0461311005,-0.140625
6532,0.281233013,0.0461311005,-0.136719003
6533,0.281233013,0.0461311005,-0.132811993
6534,0.281233013,0.0461311005,-0.128905997
6535,0.281233013,0.0461311005,-0.125
6536,0.281233013,0.0461311005,-0.121094003
6537,0.281233013,0.0461311005,-0.117187001
6538,0.281233013,0.0461311005,-0.113280997
6539,0.281233013,0.0461311005,-0.109375
6540,0.281233013,0.0461311005,-0.105469003
6541,0.281233013,0.0461311005,-0.101562001
6542,0.281233013,0.0461311005,-0.0976561978
6543,0.281233013,0.0461311005,-0.09375
6544,0.281233013,0.0461311005,-0.0898436978
6545,0.281233013,0.0461311005,-0.0859375
6546,0.281233013,0.0461311005,-0.0820311978
6547,0.281233013,0.0461311005,-0.078125
6548,0.281233013,0.0461311005,-0.0742186978
6549,0.281233013,0.0461311005,-0.0703125
6550,0.281233013,0.0461311005,-0.0664061978
6551,0.281233013,0.0461311005,-0.0625
6552,0.281233013,0.0461311005,-0.0585937016
6553,0.281233013,0.0461311005,-0.0546875
6554,0.281233013,0.0461311005,-0.0507812016
6555,0.281233013,0.0461311005,-0.046875
6556,0.281233013,0.0461311005,-0.0429687016
6557,0.281233013,0.0461311005,-0.0390625
6558,0.281233013,0.0461311005,-0.0351562016
6559,0.281233013,0.0461311005,-0.03125
6560,0.281233013,0.0461311005,-0.0273436997
6561,0.281233013,0.0461311005,-0.0234375
6562,0.281233013,0.0461311005,-0.0195311997
6563,0.281233013,0.0461311005,-0.015625
6564,0.281233013,0.0461311005,-0.0117186997
6565,0.281233013,0.0461311005,-0.0078125
6566,0.281233013,0.0461311005,-0.00390625
6567,0.281233013,0.0461311005,-0
6568,0.281233013,0.0461311005,0.00390625
6569,0.281233013,0.0461311005,0.0078125
6570,0.281233013,0.0461311005,0.0117186997
6571,0.281233013,0.0461311005,0.015625
6572,0.281233013,0.0461311005,0.0195311997
6573,0.281233013,0.0461311005,0.0234375
6574,0.281233013,0.0461311005,0.0273436997
6575,0.281233013,0.0461311005,0.03125
6576,0.281233013,0.0461311005,0.0351562984
6577,0.281233013,0.0461311005,0.0390625
6578,0.281233013,0.0461311005,0.0429687984
6579,0.281233013,0.0461311005,0.046875
6580,0.281233013,0.0461311005,0.0507812016
6581,0.281233013,0.0461311005,0.0546875
6582,0.281233013,0.0461311005,0.0585937016
6583,0.281233013,0.0461311005,0.0625
6584,0.281233013,0.0461311005,0.0664061978
6585,0.281233013,0.0461311005,0.0703125
6586,0.281233013,0.0461311005,0.0742188022
6587,0.281233013,0.0461311005,0.078125
6588,0.281233013,0.0461311005,0.0820313022
6589,0.281233013,0.0461311005,0.0859375
6590,0.281233013,0.0461311005,0.0898436978
6591,0.281233013,0.0461311005,0.09375
6592,0.281233013,0.0461311005,0.0976563022
6593,0.281233013,0.0461311005,0.101562001
6594,0.281233013,0.0461311005,0.105469003
6595,0.281233013,0.0461311005,0.109375
6596,0.281233013,0.0461311005,0.113280997
6597,0.281233013,0.0461311005,0.117187999
6598,0.281233013,0.0461311005,0.121094003
6599,0.281233013,0.0461311005,0.125
6600,0.281233013,0.0461311005,0.128905997
6601,0.281233013,0.0461311005,0.132811993
6602,0.281233013,0.0461311005,0.136719003
6603,0.281233013,0.0461311005,0.140625
6604,0.281233013,0.0461311005,0.144530997
6605,0.281233013,0.0461311005,0.148438007
6606,0.281233013,0.0461311005,0.152344003
6607,0.281233013,0.0461311005,0.15625
6608,0.281233013,0.0461311005,0.160155997
6609,0.281233013,0.0461311005,0.164061993
6610,0.281233013,0.0461311005,0.167969003
6611,0.281233013,0.0461311005,0.171875
6612,0.281233013,0.0461311005,0.175780997
6613,0.281233013,0.0461311005,0.179688007
6614,0.281233013,0.0461311005,0.183594003
6615,0.281233013,0.0461311005,0.1875
6616,0.281233013,0.0461311005,0.191405997
6617,0.281233013,0.0461311005,0.195311993
6618,0.281233013,0.0461311005,0.199219003
6619,0.281233013,0.0461311005,0.203125
6620,0.281233013,0.0461311005,0.207030997
6621,0.281233013,0.0461311005,0.210936993
6622,0.281233013,0.0461311005,0.214844003
6623,0.281233013,0.0461311005,0.21875
6624,0.281233013,0.0461311005,0.222655997
6625,0.281233013,0.0461311005,0.226563007
6626,0.281233013,0.0461311005,0.230469003
6627,0.281233013,0.0461311005,0.234375
6628,0.281233013,0.0461311005,0.238280997
6629,0.281233013,0.0461311005,0.242188007
6630,0.281233013,0.0461311005,0.246094003
6631,0.281233013,0.0461311005,0.25
6632,0.281233013,0.0461311005,0.253906012
6633,0.281233013,0.0461311005,0.257811993
6634,0.281233013,0.0461311005,0.261718988
6635,0.281233013,0.0461311005,0.265625
6636,0.281233013,0.0461311005,0.269531012
6637,0.281233013,0.0461311005,0.273436993
6638,0.281233013,0.0461311005,0.277343988
6639,0.281233013,0.0461311005,0.28125
6640,0.281233013,0.0461311005,0.285156012
6641,0.281233013,0.0461311005,0.289063007
6642,0.281233013,0.0461311005,0.292968988
6643,0.281233013,0.0461311005,0.296875
6644,0.281233013,0.0461311005,0.300781012
6645,0.281233013,0.0461311005,0.304686993
6646,0.281233013,0.0461311005,0.308593988
6647,0.281233013,0.0461311005,0.3125
6648,0.281233013,0.0461311005,0.316406012
6649,0.281233013,0.0461311005,0.320311993
6650,0.281233013,0.0461311005,0.324218988
6651,0.281233013,0.0461311005,0.328125
6652,0.281233013,0.0461311005,0.332031012
6653,0.281233013,0.0461311005,0.335938007
6654,0.281233013,0.0461311005,0.339843988
6655,0.28123799,0.0460625999,-0.386718005
6656,0.28123799,0.0460625999,0.386718005
6657,0.281239986,0.0460424982,-0.382811993
6658,0.281239986,0.0460424982,0.382811993
6659,0.281241,0.0460222997,-0.378906012
6660,0.281241,0.0460222997,0.378906012
6661,0.281242996,0.0460022017,-0.375
6662,0.281242996,0.0460022017,0.375
6663,0.28124401,0.0459819995,-0.371093988
6664,0.28124401,0.0459819995,0.371093988
6665,0.281246006,0.0459619015,-0.367188007
6666,0.281246006,0.0459619015,0.367188007
6667,0.28124699,0.0459416993,-0.363281012
6668,0.28124699,0.0459416993,0.363281012
6669,0.281248987,0.0459216014,-0.359375
6670,0.281248987,0.0459216014,0.359375
6671,0.281251013,0.0459013991,-0.355468988
6672,0.281251013,0.0459013991,0.355468988
6673,0.281251997,0.0458813012,-0.351563007
6674,0.281251997,0.0458813012,0.351563007
6675,0.281253994,0.0458610989,-0.347656995
6676,0.281253994,0.0458610989,0.347656995
6677,0.281255007,0.045841001,-0.343751013
6678,0.281255007,0.045841001,0.343751013
6679,0.286940992,0.0434431992,0.39043799
6680,0.286944985,0.0434443988,-0.386718988
6681,0.286944985,0.0434446,-0.382811993
6682,0.286944985,0.0434446,-0.378906012
6683,0.286944985,0.0434446,-0.375
6684,0.286944985,0.0434446,-0.371093988
6685,0.286944985,0.0434446,-0.367186993
6686,0.286944985,0.0434446,-0.363281012
6687,0.286944985,0.0434446,-0.359375
6688,0.286944985,0.0434446,-0.355468988
6689,0.286944985,0.0434446,-0.351561993
6690,0.286944985,0.0434446,-0.347656012
6691,0.286944985,0.0434446,-0.34375
6692,0.286944985,0.0434446,-0.339843988
6693,0.286944985,0.0434446,-0.335938007
6694,0.286944985,0.0434446,-0.332031012
6695,0.286944985,0.0434446,-0.328125
6696,0.286944985,0.0434446,-0.324218988
6697,0.286944985,0.0434446,-0.320311993
6698,0.286944985,0.0434446,-0.316406012
6699,0.286944985,0.0434446,-0.3125
6700,0.286944985,0.0434446,-0.308593988
6701,0.286944985,0.0434446,-0.304688007
6702,0.286944985,0.0434446,-0.300781012
6703,0.286944985,0.0434446,-0.296875
6704,0.286944985,0.0434446,-0.292968988
6705,0.286944985,0.0434446,-0.289063007
6706,0.286944985,0.0434446,-0.285156012
6707,0.286944985,0.0434446,-0.28125
6708,0.286944985,0.0434446,-0.277343988
6709,0.286944985,0.0434446,-0.273438007
6710,0.286944985,0.0434446,-0.269531012
6711,0.286944985,0.0434446,-0.265625
6712,0.286944985,0.0434446,-0.261718988
6713,0.286944985,0.0434446,-0.257811993
6714,0.286944985,0.0434446,-0.253906012
6715,0.286944985,0.0434446,-0.25
6716,0.286944985,0.0434446,-0.246094003
6717,0.286944985,0.0434446,-0.242188007
6718,0.286944985,0.0434446,-0.238280997
6719,0.286944985,0.0434446,-0.234375
6720,0.286944985,0.0434446,-0.230469003
6721,0.286944985,0.0434446,-0.226563007
6722,0.286944985,0.0434446,-0.222655997
6723,0.286944985,0.0434446,-0.21875
6724,0.286944985,0.0434446,-0.214844003
6725,0.286944985,0.0434446,-0.210936993
6726,0.286944985,0.0434446,-0.207030997
6727,0.286944985,0.0434446,-0.203125
6728,0.286944985,0.0434446,-0.199219003
6729,0.286944985,0.0434446,-0.195311993
6730,0.286944985,0.0434446,-0.191405997
6731,0.286944985,0.0434446,-0.1875
6732,0.286944985,0.0434446,-0.183594003
6733,0.286944985,0.0434446,-0.179688007
6734,0.286944985,0.0434446,-0.175780997
6735,0.286944985,0.0434446,-0.171875
6736,0.286944985,0.0434446,-0.167969003
6737,0.286944985,0.0434446,-0.164063007
6738,0.286944985,0.0434446,-0.160155997
6739,0.286944985,0.0434446,-0.15625
6740,0.286944985,0.0434446,-0.152344003
6741,0.286944985,0.0434446,-0.148438007
6742,0.286944985,0.0434446,-0.144530997
6743,0.286944985,0.0434446,-0.140625
6744,0.286944985,0.0434446,-0.136719003
6745,0.286944985,0.0434446,-0.132813007
6746,0.286944985,0.0434446,-0.128905997
6747,0.286944985,0.0434446,-0.125
6748,0.286944985,0.0434446,-0.121094003
6749,0.286944985,0.0434446,-0.117187999
6750,0.286944985,0.0434446,-0.113280997
6751,0.286944985,0.0434446,-0.109375
6752,0.286944985,0.0434446,-0.105469003
6753,0.286944985,0.0434446,-0.101562999
6754,0.286944985,0.0434446,-0.0976561978
6755,0.286944985,0.0434446,-0.09375
6756,0.286944985,0.0434446,-0.0898438022
6757,0.286944985,0.0434446,-0.0859375
6758,0.286944985,0.0434446,-0.0820313022
6759,0.286944985,0.0434446,-0.078125
6760,0.286944985,0.0434446,-0.0742186978
6761,0.286944985,0.0434446,-0.0703125
6762,0.286944985,0.0434446,-0.0664063022
6763,0.286944985,0.0434446,-0.0625
6764,0.286944985,0.0434446,-0.0585937016
6765,0.286944985,0.0434446,-0.0546875
6766,0.286944985,0.0434446,-0.0507812016
6767,0.286944985,0.0434446,-0.046875
6768,0.286944985,0.0434446,-0.0429687984
6769,0.286944985,0.0434446,-0.0390625
6770,0.286944985,0.0434446,-0.0351562984
6771,0.286944985,0.0434446,-0.03125
6772,0.286944985,0.0434446,-0.0273436997
6773,0.286944985,0.0434446,-0.0234375
6774,0.286944985,0.0434446,-0.0195313003
6775,0.286944985,0.0434446,-0.015625
6776,0.286944985,0.0434446,-0.0117186997
6777,0.286944985,0.0434446,-0.0078125
6778,0.286944985,0.0434446,-0.00390625
6779,0.286944985,0.0434446,-1e-12
6780,0.286944985,0.0434446,0.00390625
6781,0.286944985,0.0434446,0.0078125
6782,0.286944985,0.0434446,0.0117186997
6783,0.286944985,0.0434446,0.015625
6784,0.286944985,0.0434446,0.0195311997
6785,0.286944985,0.0434446,0.0234375
6786,0.286944985,0.0434446,0.0273436997
6787,0.286944985,0.0434446,0.03125
6788,0.286944985,0.0434446,0.0351562016
6789,0.286944985,0.0434446,0.0390625
6790,0.286944985,0.0434446,0.0429687984
6791,0.286944985,0.0434446,0.046875
6792,0.286944985,0.0434446,0.0507812984
6793,0.286944985,0.0434446,0.0546875
6794,0.286944985,0.0434446,0.0585937016
6795,0.286944985,0.0434446,0.0625
6796,0.286944985,0.0434446,0.0664063022
6797,0.286944985,0.0434446,0.0703125
6798,0.286944985,0.0434446,0.0742188022
6799,0.286944985,0.0434446,0.078125
6800,0.286944985,0.0434446,0.0820311978
6801,0.286944985,0.0434446,0.0859375
6802,0.286944985,0.0434446,0.0898438022
6803,0.286944985,0.0434446,0.09375
6804,0.286944985,0.0434446,0.0976561978
6805,0.286944985,0.0434446,0.101562001
6806,0.286944985,0.0434446,0.105469003
6807,0.286944985,0.0434446,0.109375
6808,0.286944985,0.0434446,0.113280997
6809,0.286944985,0.0434446,0.117187001
6810,0.286944985,0.0434446,0.121094003
6811,0.286944985,0.0434446,0.125
6812,0.286944985,0.0434446,0.128905997
6813,0.286944985,0.0434446,0.132811993
6814,0.286944985,0.0434446,0.136719003
6815,0.286944985,0.0434446,0.140625
6816,0.286944985,0.0434446,0.144530997
6817,0.286944985,0.0434446,0.148438007
6818,0.286944985,0.0434446,0.152344003
6819,0.286944985,0.0434446,0.15625
6820,0.286944985,0.0434446,0.160155997
6821,0.286944985,0.0434446,0.164063007
6822,0.286944985,0.0434446,0.167969003
6823,0.286944985,0.0434446,0.171875
6824,0.286944985,0.0434446,0.175780997
6825,0.286944985,0.0434446,0.179686993
6826,0.286944985,0.0434446,0.183594003
6827,0.286944985,0.0434446,0.1875
6828,0.286944985,0.0434446,0.191405997
6829,0.286944985,0.0434446,0.195311993
6830,0.286944985,0.0434446,0.199219003
6831,0.286944985,0.0434446,0.203125
6832,0.286944985,0.0434446,0.207030997
6833,0.286944985,0.0434446,0.210936993
6834,0.286944985,0.0434446,0.214844003
6835,0.286944985,0.0434446,0.21875
6836,0.286944985,0.0434446,0.222655997
6837,0.286944985,0.0434446,0.226561993
6838,0.286944985,0.0434446,0.230469003
6839,0.286944985,0.0434446,0.234375
6840,0.286944985,0.0434446,0.238280997
6841,0.286944985,0.0434446,0.242188007
6842,0.286944985,0.0434446,0.246094003
6843,0.286944985,0.0434446,0.25
6844,0.286944985,0.0434446,0.253906012
6845,0.286944985,0.0434446,0.257811993
6846,0.286944985,0.0434446,0.261718988
6847,0.286944985,0.0434446,0.265625
6848,0.286944985,0.0434446,0.269531012
6849,0.286944985,0.0434446,0.273436993
6850,0.286944985,0.0434446,0.277343988
6851,0.286944985,0.0434446,0.28125
6852,0.286944985,0.0434446,0.285156012
6853,0.286944985,0.0434446,0.289063007
6854,0.286944985,0.0434446,0.292968988
6855,0.286944985,0.0434446,0.296875
6856,0.286944985,0.0434446,0.300781012
6857,0.286944985,0.0434446,0.304686993
6858,0.286944985,0.0434446,0.308593988
6859,0.286944985,0.0434446,0.3125
6860,0.286944985,0.0434446,0.316406012
6861,0.286944985,0.0434446,0.320311993
6862,0.286944985,0.0434446,0.324218988
6863,0.286944985,0.0434446,0.328125
6864,0.286944985,0.0434446,0.332031012
6865,0.286944985,0.0434446,0.335938007
6866,0.286944985,0.0434446,0.339843988
6867,0.286944985,0.0434446,0.34375
6868,0.286944985,0.0434446,0.347656012
6869,0.286944985,0.0434446,0.351563007
6870,0.286944985,0.0434446,0.355468988
6871,0.286944985,0.0434446,0.359375
6872,0.286944985,0.0434446,0.363281012
6873,0.286944985,0.0434446,0.367188007
6874,0.286944985,0.0434446,0.371093988
6875,0.286944985,0.0434446,0.375
6876,0.286944985,0.0434446,0.378906012
6877,0.286944985,0.0434446,0.382813007
6878,0.286944985,0.0434446,0.386718988
6879,0.287028015,0.0465256982,0.386716992
6880,0.287028998,0.0465120003,0.382809997
6881,0.287034988,0.0434743017,-0.390502006
6882,0.287039995,0.0463754982,-0.343748003
6883,0.287039995,0.0463754982,0.343748003
6884,0.287041008,0.0463619009,-0.339841992
6885,0.287041008,0.0463619009,0.339841992
6886,0.287041992,0.0463481992,-0.33593601
6887,0.287041992,0.0463481992,0.33593601
6888,0.287043005,0.0463345982,-0.332029998
6889,0.287043005,0.0463345982,0.332029998
6890,0.287043989,0.0463210009,-0.328123987
6891,0.287043989,0.0463210009,0.328123987
6892,0.287045002,0.0463072993,-0.324216992
6893,0.287045002,0.0463072993,0.324216992
6894,0.287045985,0.0462936983,-0.32031101
6895,0.287045985,0.0462936983,0.32031101
6896,0.287046999,0.0462800004,-0.316404998
6897,0.287046999,0.0462800004,0.316404998
6898,0.287048012,0.0462663993,-0.312498987
6899,0.287048012,0.0462663993,0.312498987
6900,0.287048995,0.0462527014,-0.308593005
6901,0.287048995,0.0462527014,0.308593005
6902,0.287050009,0.0462391004,-0.30468601
6903,0.287050009,0.0462391004,0.30468601
6904,0.287050992,0.0462253988,-0.300779998
6905,0.287050992,0.0462253988,0.300779998
6906,0.287052006,0.0462118015,-0.296873987
6907,0.287052006,0.0462118015,0.296873987
6908,0.287052989,0.0461980999,-0.292968005
6909,0.287052989,0.0461980999,0.292968005
6910,0.287054002,0.0461844988,-0.289061993
6911,0.287054002,0.0461844988,0.289061993
6912,0.287054986,0.0461708009,-0.285154998
6913,0.287054986,0.0461708009,0.285154998
6914,0.287055999,0.0461571999,-0.281248987
6915,0.287055999,0.0461571999,0.281248987
6916,0.287057012,0.0461434983,-0.277343005
6917,0.287057012,0.0461434983,0.277343005
6918,0.287057996,0.046129901,-0.273436993
6919,0.287057996,0.046129901,0.273436993
6920,0.287059009,0.0461161993,-0.269531012
6921,0.287059009,0.0461161993,0.269531012
6922,0.287059993,0.0461025983,-0.265623987
6923,0.287059993,0.0461025983,0.265623987
6924,0.287061006,0.0460889004,-0.261718005
6925,0.287061006,0.0460889004,0.261718005
6926,0.287061989,0.0460752994,-0.257811993
6927,0.287061989,0.0460752994,0.257811993
6928,0.287063003,0.0460616015,-0.253906012
6929,0.287063003,0.0460616015,0.253906012
6930,0.287063986,0.0460480005,-0.25
6931,0.287063986,0.0460480005,0.25
6932,0.287064999,0.0460342988,-0.246093005
6933,0.287064999,0.0460342988,0.246093005
6934,0.287066013,0.0460207015,-0.242186993
6935,0.287066013,0.0460207015,0.242186993
6936,0.287066996,0.0460069999,-0.238280997
6937,0.287066996,0.0460069999,0.238280997
6938,0.287068009,0.0459933989,-0.234375
6939,0.287068009,0.0459933989,0.234375
6940,0.287068993,0.045979701,-0.230469003
6941,0.287068993,0.045979701,0.230469003
6942,0.287070006,0.0459660999,-0.226561993
6943,0.287070006,0.0459660999,0.226561993
6944,0.28707099,0.0459523983,-0.222655997
6945,0.28707099,0.0459523983,0.222655997
6946,0.287072003,0.045938801,-0.21875
6947,0.287072003,0.045938801,0.21875
6948,0.287072986,0.0459252,-0.214844003
6949,0.287072986,0.0459252,0.214844003
6950,0.287074,0.0459114984,-0.210938007
6951,0.287074,0.0459114984,0.210938007
6952,0.287075013,0.0458979011,-0.207030997
6953,0.287075013,0.0458979011,0.207030997
6954,0.287075996,0.0458841994,-0.203125
6955,0.287075996,0.0458841994,0.203125
6956,0.287077993,0.0458705984,-0.199219003
6957,0.287077993,0.0458705984,0.199219003
6958,0.287079006,0.0458569005,-0.195313007
6959,0.287079006,0.0458569005,0.195313007
6960,0.28707999,0.0458432995,-0.191406995
6961,0.28707999,0.0458432995,0.191406995
6962,0.287081003,0.0458296016,-0.1875
6963,0.287081003,0.0458296016,0.1875
6964,0.287081987,0.0458160006,-0.183594003
6965,0.287081987,0.0458160006,0.183594003
6966,0.287083,0.0458022989,-0.179688007
6967,0.287083,0.0458022989,0.179688007
6968,0.287084013,0.0457887016,-0.175781995
6969,0.287084013,0.0457887016,0.175781995
6970,0.287084997,0.045775,-0.171875998
6971,0.287084997,0.045775,0.171875998
6972,0.28708601,0.045761399,-0.167969003
6973,0.28708601,0.045761399,0.167969003
6974,0.287086993,0.0457477011,-0.164063007
6975,0.287086993,0.0457477011,0.164063007
6976,0.287088007,0.0457341,-0.160156995
6977,0.287088007,0.0457341,0.160156995
6978,0.28708899,0.0457203984,-0.156250998
6979,0.28708899,0.0457203984,0.156250998
6980,0.287090003,0.0457068011,-0.152345002
6981,0.287090003,0.0457068011,0.152345002
6982,0.287090987,0.0456930995,-0.148438007
6983,0.287090987,0.0456930995,0.148438007
6984,0.287092,0.0456794985,-0.144531995
6985,0.287092,0.0456794985,0.144531995
6986,0.287093014,0.0456658006,-0.140625998
6987,0.287093014,0.0456658006,0.140625998
6988,0.287093997,0.0456521995,-0.136720002
6989,0.287093997,0.0456521995,0.136720002
6990,0.28709501,0.0456385016,-0.132813007
6991,0.28709501,0.0456385016,0.132813007
6992,0.287095994,0.0456249006,-0.128906995
6993,0.287095994,0.0456249006,0.128906995
6994,0.287097007,0.045611199,-0.125000998
6995,0.287097007,0.045611199,0.125000998
6996,0.287097991,0.0455976017,-0.121095002
6997,0.287097991,0.0455976017,0.121095002
6998,0.287099004,0.0455839001,-0.117188998
6999,0.287099004,0.0455839001,0.117188998
7000,0.287099987,0.045570299,-0.113282003
7001,0.287099987,0.045570299,0.113282003
7002,0.287101001,0.0455566011,-0.109375998
7003,0.287101001,0.0455566011,0.109375998
7004,0.287102014,0.0455430001,-0.105470002
7005,0.287102014,0.0455430001,0.105470002
7006,0.287102997,0.0455293991,-0.101563998
7007,0.287102997,0.0455293991,0.101563998
7008,0.287104011,0.0455157012,-0.0976577029
7009,0.287104011,0.0455157012,0.0976577029
7010,0.287104994,0.0455021001,-0.0937514976
7011,0.287104994,0.0455021001,0.0937514976
7012,0.287106007,0.0454883985,-0.0898452997
7013,0.287106007,0.0454883985,0.0898452997
7014,0.287106991,0.0454748012,-0.0859391019
7015,0.287106991,0.0454748012,0.0859391019
7016,0.287160993,0.0454723015,-0.390475988
7017,0.287169993,0.0454741009,-0.382811993
7018,0.287169993,0.0454741009,-0.378906012
7019,0.287169993,0.0454741009,-0.375
7020,0.287169993,0.0454741009,-0.371093988
7021,0.287169993,0.0454741009,-0.367188007
7022,0.287169993,0.0454741009,-0.363281012
7023,0.287169993,0.0454741009,-0.359375
7024,0.287169993,0.0454741009,-0.355468988
7025,0.287169993,0.0454741009,-0.351561993
7026,0.287169993,0.0454741009,-0.347656012
7027,0.287169993,0.0454741009,-0.0820311978
7028,0.287169993,0.0454741009,-0.078125
7029,0.287169993,0.0454741009,-0.0742188022
7030,0.287169993,0.0454741009,-0.0703125
7031,0.287169993,0.0454741009,-0.0664061978
7032,0.287169993,0.0454741009,-0.0625
7033,0.287169993,0.0454741009,-0.0585937984
7034,0.287169993,0.0454741009,-0.0546875
7035,0.287169993,0.0454741009,-0.0507812984
7036,0.287169993,0.0454741009,-0.046875
7037,0.287169993,0.0454741009,-0.0429687016
7038,0.287169993,0.0454741009,-0.0390625
7039,0.287169993,0.0454741009,-0.0351562984
7040,0.287169993,0.0454741009,-0.03125
7041,0.287169993,0.0454741009,-0.0273436997
7042,0.287169993,0.0454741009,-0.0234375
7043,0.287169993,0.0454741009,-0.0195313003
7044,0.287169993,0.0454741009,-0.015625
7045,0.287169993,0.0454741009,-0.0117186997
7046,0.287169993,0.0454741009,-0.0078125
7047,0.287169993,0.0454741009,-0.00390625
7048,0.287169993,0.0454741009,0
7049,0.287169993,0.0454741009,0.00390625
7050,0.287169993,0.0454741009,0.0078125
7051,0.287169993,0.0454741009,0.0117186997
7052,0.287169993,0.0454741009,0.015625
7053,0.287169993,0.0454741009,0.0195311997
7054,0.287169993,0.0454741009,0.0234375
7055,0.287169993,0.0454741009,0.0273436997
7056,0.287169993,0.0454741009,0.03125
7057,0.287169993,0.0454741009,0.0351562016
7058,0.287169993,0.0454741009,0.0390625
7059,0.287169993,0.0454741009,0.0429687016
7060,0.287169993,0.0454741009,0.046875
7061,0.287169993,0.0454741009,0.0507812016
7062,0.287169993,0.0454741009,0.0546875
7063,0.287169993,0.0454741009,0.0585937984
7064,0.287169993,0.0454741009,0.0625
7065,0.287169993,0.0454741009,0.0664061978
7066,0.287169993,0.0454741009,0.0703125
7067,0.287169993,0.0454741009,0.0742186978
7068,0.287169993,0.0454741009,0.078125
7069,0.287169993,0.0454741009,0.0820311978
7070,0.287169993,0.0454741009,0.347656012
7071,0.287169993,0.0454741009,0.351561993
7072,0.287169993,0.0454741009,0.355468988
7073,0.287169993,0.0454741009,0.359375
7074,0.287169993,0.0454741009,0.363281012
7075,0.287169993,0.0454741009,0.367188007
7076,0.287169993,0.0454741009,0.371093988
7077,0.287169993,0.0454741009,0.375
7078,0.287169993,0.0454742014,-0.386718988
7079,0.287218004,0.0447323993,0.390412003
7080,0.287241012,0.0435842983,0.392681986
7081,0.287256986,0.0454928018,0.378872991
7082,0.287423015,0.0436494015,-0.392809004
7083,0.290259987,0.0446356013,-0.386718988
7084,0.290259987,0.0446356013,-0.382813007
7085,0.290259987,0.0446356013,-0.378906012
7086,0.290259987,0.0446356013,-0.375
7087,0.290259987,0.0446356013,-0.371093988
7088,0.290259987,0.0446356013,-0.367188007
7089,0.290259987,0.0446356013,-0.363281012
7090,0.290259987,0.0446356013,-0.359375
7091,0.290259987,0.0446356013,-0.355468988
7092,0.290259987,0.0446356013,-0.351561993
7093,0.290259987,0.0446356013,-0.347656012
7094,0.290259987,0.0446356013,-0.34375
7095,0.290259987,0.0446356013,-0.339843988
7096,0.290259987,0.0446356013,-0.335936993
7097,0.290259987,0.0446356013,-0.332031012
7098,0.290259987,0.0446356013,-0.328125
7099,0.290259987,0.0446356013,-0.324218988
7100,0.290259987,0.0446356013,-0.320311993
7101,0.290259987,0.0446356013,-0.316406012
7102,0.290259987,0.0446356013,-0.3125
7103,0.290259987,0.0446356013,-0.308593988
7104,0.290259987,0.0446356013,-0.304686993
7105,0.290259987,0.0446356013,-0.300781012
7106,0.290259987,0.0446356013,-0.296875
7107,0.290259987,0.0446356013,-0.292968988
7108,0.290259987,0.0446356013,-0.289063007
7109,0.290259987,0.0446356013,-0.285156012
7110,0.290259987,0.0446356013,-0.28125
7111,0.290259987,0.0446356013,-0.277343988
7112,0.290259987,0.0446356013,-0.273436993
7113,0.290259987,0.0446356013,-0.269531012
7114,0.290259987,0.0446356013,-0.265625
7115,0.290259987,0.0446356013,-0.261718988
7116,0.290259987,0.0446356013,-0.257811993
7117,0.290259987,0.0446356013,-0.253906012
7118,0.290259987,0.0446356013,-0.25
7119,0.290259987,0.0446356013,-0.246094003
7120,0.290259987,0.0446356013,-0.242188007
7121,0.290259987,0.0446356013,-0.238280997
7122,0.290259987,0.0446356013,-0.234375
7123,0.290259987,0.0446356013,-0.230469003
7124,0.290259987,0.0446356013,-0.226561993
7125,0.290259987,0.0446356013,-0.222655997
7126,0.290259987,0.0446356013,-0.21875
7127,0.290259987,0.0446356013,-0.214844003
7128,0.290259987,0.0446356013,-0.210938007
7129,0.290259987,0.0446356013,-0.207030997
7130,0.290259987,0.0446356013,-0.203125
7131,0.290259987,0.0446356013,-0.199219003
7132,0.290259987,0.0446356013,-0.195313007
7133,0.290259987,0.0446356013,-0.191405997
7134,0.290259987,0.0446356013,-0.1875
7135,0.290259987,0.0446356013,-0.183594003
7136,0.290259987,0.0446356013,-0.179686993
7137,0.290259987,0.0446356013,-0.175780997
7138,0.290259987,0.0446356013,-0.171875
7139,0.290259987,0.0446356013,-0.167969003
7140,0.290259987,0.0446356013,-0.164063007
7141,0.290259987,0.0446356013,-0.160155997
7142,0.290259987,0.0446356013,-0.15625
7143,0.290259987,0.0446356013,-0.152344003
7144,0.290259987,0.0446356013,-0.148438007
7145,0.290259987,0.0446356013,-0.144530997
7146,0.290259987,0.0446356013,-0.140625
7147,0.290259987,0.0446356013,-0.136719003
7148,0.290259987,0.0446356013,-0.132811993
7149,0.290259987,0.0446356013,-0.128905997
7150,0.290259987,0.0446356013,-0.125
7151,0.290259987,0.0446356013,-0.121094003
7152,0.290259987,0.0446356013,-0.117187999
7153,0.290259987,0.0446356013,-0.113280997
7154,0.290259987,0.0446356013,-0.109375
7155,0.290259987,0.0446356013,-0.105469003
7156,0.290259987,0.0446356013,-0.101562001
7157,0.290259987,0.0446356013,-0.0976561978
7158,0.290259987,0.0446356013,-0.09375
7159,0.290259987,0.0446356013,-0.0898436978
7160,0.290259987,0.0446356013,-0.0859375
7161,0.290259987,0.0446356013,-0.0820313022
7162,0.290259987,0.0446356013,-0.078125
7163,0.290259987,0.0446356013,-0.0742188022
7164,0.290259987,0.0446356013,-0.0703125
7165,0.290259987,0.0446356013,-0.0664061978
7166,0.290259987,0.0446356013,-0.0625
7167,0.290259987,0.0446356013,-0.0585937016
7168,0.290259987,0.0446356013,-0.0546875
7169,0.290259987,0.0446356013,-0.0507812984
7170,0.290259987,0.0446356013,-0.046875
7171,0.290259987,0.0446356013,-0.0429687016
7172,0.290259987,0.0446356013,-0.0390625
7173,0.290259987,0.0446356013,-0.0351562016
7174,0.290259987,0.0446356013,-0.03125
7175,0.290259987,0.0446356013,-0.0273436997
7176,0.290259987,0.0446356013,-0.0234375
7177,0.290259987,0.0446356013,-0.0195313003
7178,0.290259987,0.0446356013,-0.015625
7179,0.290259987,0.0446356013,-0.0117188003
7180,0.290259987,0.0446356013,-0.0078125
7181,0.290259987,0.0446356013,-0.00390625
7182,0.290259987,0.0446356013,-1e-12
7183,0.290259987,0.0446356013,0.00390625
7184,0.290259987,0.0446356013,0.0078125
7185,0.290259987,0.0446356013,0.0117186997
7186,0.290259987,0.0446356013,0.015625
7187,0.290259987,0.0446356013,0.0195313003
7188,0.290259987,0.0446356013,0.0234375
7189,0.290259987,0.0446356013,0.0273438003
7190,0.290259987,0.0446356013,0.03125
7191,0.290259987,0.0446356013,0.0351562016
7192,0.290259987,0.0446356013,0.0390625
7193,0.290259987,0.0446356013,0.0429687016
7194,0.290259987,0.0446356013,0.046875
7195,0.290259987,0.0446356013,0.0507812016
7196,0.290259987,0.0446356013,0.0546875
7197,0.290259987,0.0446356013,0.0585937016
7198,0.290259987,0.0446356013,0.0625
7199,0.290259987,0.0446356013,0.0664061978
7200,0.290259987,0.0446356013,0.0703125
7201,0.290259987,0.0446356013,0.0742188022
7202,0.290259987,0.0446356013,0.078125
7203,0.290259987,0.0446356013,0.0820311978
7204,0.290259987,0.0446356013,0.0859375
7205,0.290259987,0.0446356013,0.0898436978
7206,0.290259987,0.0446356013,0.09375
7207,0.290259987,0.0446356013,0.0976563022
7208,0.290259987,0.0446356013,0.101562001
7209,0.290259987,0.0446356013,0.105469003
7210,0.290259987,0.0446356013,0.109375
7211,0.290259987,0.0446356013,0.113280997
7212,0.290259987,0.0446356013,0.117187001
7213,0.290259987,0.0446356013,0.121094003
7214,0.290259987,0.0446356013,0.125
7215,0.290259987,0.0446356013,0.128905997
7216,0.290259987,0.0446356013,0.132811993
7217,0.290259987,0.0446356013,0.136719003
7218,0.290259987,0.0446356013,0.140625
7219,0.290259987,0.0446356013,0.144530997
7220,0.290259987,0.0446356013,0.148436993
7221,0.290259987,0.0446356013,0.152344003
7222,0.290259987,0.0446356013,0.15625
7223,0.290259987,0.0446356013,0.160155997
7224,0.290259987,0.0446356013,0.164061993
7225,0.290259987,0.0446356013,0.167969003
7226,0.290259987,0.0446356013,0.171875
7227,0.290259987,0.0446356013,0.175780997
7228,0.290259987,0.0446356013,0.179686993
7229,0.290259987,0.0446356013,0.183594003
7230,0.290259987,0.0446356013,0.1875
7231,0.290259987,0.0446356013,0.191405997
7232,0.290259987,0.0446356013,0.195313007
7233,0.290259987,0.0446356013,0.199219003
7234,0.290259987,0.0446356013,0.203125
7235,0.290259987,0.0446356013,0.207030997
7236,0.290259987,0.0446356013,0.210936993
7237,0.290259987,0.0446356013,0.214844003
7238,0.290259987,0.0446356013,0.21875
7239,0.290259987,0.0446356013,0.222655997
7240,0.290259987,0.0446356013,0.226561993
7241,0.290259987,0.0446356013,0.230469003
7242,0.290259987,0.0446356013,0.234375
7243,0.290259987,0.0446356013,0.238280997
7244,0.290259987,0.0446356013,0.242186993
7245,0.290259987,0.0446356013,0.246094003
7246,0.290259987,0.0446356013,0.25
7247,0.290259987,0.0446356013,0.253906012
7248,0.290259987,0.0446356013,0.257811993
7249,0.290259987,0.0446356013,0.261718988
7250,0.290259987,0.0446356013,0.265625
7251,0.290259987,0.0446356013,0.269531012
7252,0.290259987,0.0446356013,0.273436993
7253,0.290259987,0.0446356013,0.277343988
7254,0.290259987,0.0446356013,0.28125
7255,0.290259987,0.0446356013,0.285156012
7256,0.290259987,0.0446356013,0.289061993
7257,0.290259987,0.0446356013,0.292968988
7258,0.290259987,0.0446356013,0.296875
7259,0.290259987,0.0446356013,0.300781012
7260,0.290259987,0.0446356013,0.304688007
7261,0.290259987,0.0446356013,0.308593988
7262,0.290259987,0.0446356013,0.3125
7263,0.290259987,0.0446356013,0.316406012
7264,0.290259987,0.0446356013,0.320313007
7265,0.290259987,0.0446356013,0.324218988
7266,0.290259987,0.0446356013,0.328125
7267,0.290259987,0.0446356013,0.332031012
7268,0.290259987,0.0446356013,0.335938007
7269,0.290259987,0.0446356013,0.339843988
7270,0.290259987,0.0446356013,0.34375
7271,0.290259987,0.0446356013,0.347656012
7272,0.290259987,0.0446356013,0.351563007
7273,0.290259987,0.0446356013,0.355468988
7274,0.290259987,0.0446356013,0.359375
7275,0.290259987,0.0446356013,0.363281012
7276,0.290259987,0.0446356013,0.367188007
7277,0.290259987,0.0446356013,0.371093988
7278,0.290259987,0.0446356013,0.375
7279,0.290259987,0.0446356013,0.378906012
7280,0.290259987,0.0446356013,0.382813007
7281,0.290259987,0.0446356013,0.386718988
7282,0.290279001,0.0446426012,0.390401989
7283,0.290454,0.0447055995,-0.390531987
7284,0.290794998,0.0448288992,0.392951012
7285,0.295161009,0.0435656011,-0.395000011
7286,0.295161992,-0.0229496006,-0.397374004
7287,0.295161992,-0.0229496006,-0.395594001
7288,0.295161992,-0.0184819009,-0.397482991
7289,0.295161992,-0.0184819009,-0.395485014
7290,0.295161992,-0.0125000002,-0.397498995
7291,0.295161992,-0.0125000002,-0.395469993
7292,0.295161992,-0.00625000009,-0.397498995
7293,0.295161992,-0.00625000009,-0.395469993
7294,0.295161992,0,-0.397498995
7295,0.295161992,0,-0.395469993
7296,0.295161992,0.00625000009,-0.397498995
7297,0.295161992,0.00625000009,-0.395469993
7298,0.295161992,0.0125000002,-0.397498995
7299,0.295161992,0.0125000002,-0.395469993
7300,0.295161992,0.0187500007,-0.397498995
7301,0.295161992,0.0187500007,-0.395469993
7302,0.295161992,0.0250000004,-0.397498995
7303,0.295161992,0.0250000004,-0.395469993
7304,0.295161992,0.03125,-0.397498995
7305,0.295161992,0.03125,-0.395469993
7306,0.295161992,0.0375266001,-0.397464991
7307,0.295161992,0.0375467017,-0.395390004
7308,0.295161992,0.043487601,-0.397406012
7309,0.295295,0.0471499003,-0.395496011
7310,0.295385003,0.0471501984,-0.397332996
7311,0.298162013,-0.0229496006,-0.397374004
7312,0.298162013,-0.0229496006,-0.395594001
7313,0.298162013,-0.0184819009,-0.397482991
7314,0.298162013,-0.0184819009,-0.395485014
7315,0.298162013,-0.0125000002,-0.397498995
7316,0.298162013,-0.0125000002,-0.395469993
7317,0.298162013,-0.00625000009,-0.397498995
7318,0.298162013,-0.00625000009,-0.395469993
7319,0.298162013,0,-0.397498995
7320,0.298162013,0,-0.395469993
7321,0.298162013,0.00625000009,-0.397498995
7322,0.298162013,0.00625000009,-0.395469993
7323,0.298162013,0.0125000002,-0.397498995
7324,0.298162013,0.0125000002,-0.395469993
7325,0.298162013,0.0187500007,-0.397498995
7326,0.298162013,0.0187500007,-0.395469993
7327,0.298162013,0.0250000004,-0.397498995
7328,0.298162013,0.0250000004,-0.395469993
7329,0.298162013,0.03125,-0.397498995
7330,0.298162013,0.03125,-0.395469993
7331,0.298162013,0.0375000015,-0.397498995
7332,0.298162013,0.0375225991,-0.395437002
7333,0.298162013,0.0434819013,-0.397482991
7334,0.298162013,0.0434865989,-0.395415008
7335,0.298162013,0.0471499003,-0.397374004
7336,0.298162013,0.0471499003,-0.395554006
*ELEMENT, TYPE=S3, ELSET=ALL_SHELL
1,1896,1890,2104
2,2115,2123,1895
3,1895,2111,2115
4,2116,2112,1896
5,1896,2124,2116
6,1676,1468,1466
7,1466,1888,1676
8,1675,1887,1465
9,1465,1467,1675
10,1468,1359,1357
11,1357,1466,1468
12,1482,1686,1888
13,1888,1466,1482
14,1467,1465,1356
15,1356,1358,1467
16,1481,1465,1887
17,1887,1685,1481
18,832,937,1042
19,1042,624,832
20,833,1041,623
21,623,625,833
22,831,623,1041
23,1041,936,831
24,2862,2858,2551
25,2551,2654,2862
26,834,626,624
27,624,1042,834
28,2863,2655,2552
29,2552,2861,2863
30,2104,2120,2128
31,2124,1896,2104
32,2104,2128,2124
33,937,1044,1250
34,1250,1042,937
35,1677,1675,1467
36,1467,1487,1677
37,1041,833,1251
38,1251,1249,1041
39,936,1041,1249
40,1249,1043,936
41,2444,2547,2654
42,2654,2551,2444
43,1678,1488,1468
44,1468,1676,1678
45,1042,1250,1252
46,1252,834,1042
47,2445,2552,2655
48,2655,2548,2445
49,2224,2121,2119
50,2119,2127,2224
51,104,207,209
52,209,102,104
53,405,209,504
54,504,415,405
55,625,728,938
56,938,833,625
57,415,504,625
58,625,623,415
59,2757,2549,2967
60,2967,2864,2757
61,3492,3488,3181
62,3181,3385,3492
63,3488,3489,3179
64,3179,3181,3488
65,2858,2967,2549
66,2549,2551,2858
67,2969,3177,2858
68,2858,2862,2969
69,206,103,210
70,210,208,206
71,406,416,505
72,505,210,406
73,626,834,939
74,939,729,626
75,416,624,626
76,626,505,416
77,2758,2865,2968
78,2968,2550,2758
79,3493,3386,3283
80,3283,3491,3493
81,3491,3283,3180
82,3180,3490,3491
83,2861,2552,2550
84,2550,2968,2861
85,2970,2863,2861
86,2861,3178,2970
87,1359,1250,1044
88,1044,1357,1359
89,1358,1360,1487
90,1487,1467,1358
91,1241,1251,833
92,833,938,1241
93,1249,1251,1360
94,1360,1358,1249
95,1358,1356,1043
96,1043,1249,1358
97,2113,1998,1685
98,1685,1887,2113
99,2551,2549,2341
100,2341,2444,2551
101,2337,2547,2444
102,2444,2329,2337
103,1359,1468,1488
104,1488,1361,1359
105,1242,939,834
106,834,1252,1242
107,1250,1359,1361
108,1361,1252,1250
109,2114,1888,1686
110,1686,1999,2114
111,2552,2445,2342
112,2342,2550,2552
113,2338,2332,2445
114,2445,2548,2338
115,3595,3493,3491
116,3491,3699,3595
117,3699,3491,3490
118,3490,3701,3699
119,4315,4214,4213
120,4315,4213,4434
121,4434,4432,4315
122,3596,3698,3488
123,3488,3492,3596
124,3698,3700,3489
125,3489,3488,3698
126,5041,5445,4832
127,4832,4833,5041
128,4833,4832,4433
129,4433,4435,4833
130,3389,3601,3600
131,3600,3388,3389
132,3405,3617,3616
133,3616,3404,3405
134,3421,3633,3632
135,3632,3420,3421
136,3648,3436,3437
137,3437,3649,3648
138,3453,3665,3664
139,3664,3452,3453
140,3469,3681,3680
141,3680,3468,3469
142,3485,3697,3696
143,3696,3484,3485
144,409,3,1
145,1,407,409
146,33,31,323
147,323,324,33
148,3389,3388,3287
149,3287,3288,3389
150,3303,3404,3403
151,3403,3302,3303
152,35,33,324
153,324,325,35
154,96,94,339
155,339,340,96
156,3405,3404,3303
157,3303,3304,3405
158,3318,3319,3420
159,3420,3419,3318
160,98,96,340
161,340,341,98
162,57,56,355
163,355,356,57
164,3421,3420,3319
165,3319,3320,3421
166,3436,3435,3334
167,3334,3335,3436
168,356,357,58
169,58,57,356
170,99,371,372
171,372,97,99
172,3335,3336,3437
173,3437,3436,3335
174,3451,3350,3351
175,3351,3452,3451
176,97,372,373
177,373,95,97
178,36,387,388
179,388,34,36
180,3453,3452,3351
181,3351,3352,3453
182,3367,3468,3467
183,3467,3366,3367
184,34,388,389
185,389,32,34
186,410,408,2
187,2,4,410
188,3469,3468,3367
189,3367,3368,3469
190,3383,3484,3483
191,3483,3382,3383
192,407,1,43
193,43,403,407
194,3387,3286,3287
195,3287,3388,3387
196,3403,3404,3616
197,3616,3615,3403
198,3419,3420,3632
199,3632,3631,3419
200,3436,3648,3647
201,3647,3435,3436
202,3451,3452,3664
203,3664,3663,3451
204,3467,3468,3680
205,3680,3679,3467
206,3695,3483,3484
207,3484,3696,3695
208,408,404,71
209,71,2,408
210,3485,3484,3383
211,3383,3384,3485
212,17,15,315
213,315,316,17
214,2111,1895,1889
215,1893,2106,2111
216,2111,1889,1893
217,19,17,316
218,316,317,19
219,2103,1889,1895
220,3295,3396,3395
221,3395,3294,3295
222,3397,3396,3295
223,3295,3296,3397
224,78,76,331
225,331,332,78
226,80,78,332
227,332,333,80
228,3311,3412,3411
229,3411,3310,3311
230,3413,3412,3311
231,3311,3312,3413
232,49,48,347
233,347,348,49
234,348,349,50
235,50,49,348
236,3327,3428,3427
237,3427,3326,3327
238,3429,3428,3327
239,3327,3328,3429
240,65,64,363
241,363,364,65
242,66,65,364
243,364,365,66
244,3343,3444,3443
245,3443,3342,3343
246,3445,3444,3343
247,3343,3344,3445
248,81,379,380
249,380,79,81
250,79,380,381
251,381,77,79
252,3459,3358,3359
253,3359,3460,3459
254,3461,3460,3359
255,3359,3360,3461
256,20,395,396
257,396,18,20
258,18,396,397
259,397,16,18
260,3475,3374,3375
261,3375,3476,3475
262,3477,3476,3375
263,3375,3376,3477
264,3387,3388,3600
265,3600,3599,3387
266,3608,3607,3395
267,3395,3396,3608
268,3624,3623,3411
269,3411,3412,3624
270,3640,3639,3427
271,3427,3428,3640
272,3656,3655,3443
273,3443,3444,3656
274,3459,3460,3672
275,3672,3671,3459
276,3475,3476,3688
277,3688,3687,3475
278,413,312,9
279,9,7,413
280,2555,2762,2761
281,2761,2553,2555
282,2558,2765,2764
283,2764,2557,2558
284,27,25,320
285,320,321,27
286,2569,2570,2777
287,2777,2776,2569
288,2567,2774,2773
289,2773,2566,2567
290,2873,2661,2660
291,2660,2872,2873
292,3185,3502,3503
293,3503,3186,3185
294,3291,3392,3391
295,3391,3290,3291
296,2658,2657,2869
297,2869,2870,2658
298,3505,3506,3189
299,3189,3188,3505
300,2670,2669,2881
301,2881,2882,2670
302,3300,3401,3400
303,3400,3299,3300
304,3200,3517,3518
305,3518,3201,3200
306,3197,3514,3515
307,3515,3198,3197
308,2885,2673,2672
309,2672,2884,2885
310,41,39,327
311,327,328,41
312,2571,2778,2777
313,2777,2570,2571
314,2573,2574,2781
315,2781,2780,2573
316,90,88,336
317,336,337,90
318,2586,2793,2792
319,2792,2585,2586
320,2582,2583,2790
321,2790,2789,2582
322,2889,2677,2676
323,2676,2888,2889
324,3201,3518,3519
325,3519,3202,3201
326,3307,3408,3407
327,3407,3306,3307
328,3204,3521,3522
329,3522,3205,3204
330,2674,2673,2885
331,2885,2886,2674
332,2686,2685,2897
333,2897,2898,2686
334,3417,3416,3315
335,3315,3316,3417
336,3533,3534,3217
337,3217,3216,3533
338,3214,3213,3530
339,3530,3531,3214
340,2688,2900,2901
341,2901,2689,2688
342,45,44,343
343,343,344,45
344,2586,2587,2794
345,2794,2793,2586
346,2589,2590,2797
347,2797,2796,2589
348,54,53,352
349,352,353,54
350,2809,2808,2601
351,2601,2602,2809
352,2598,2599,2806
353,2806,2805,2598
354,2905,2693,2692
355,2692,2904,2905
356,3535,3218,3217
357,3217,3534,3535
358,3323,3424,3423
359,3423,3322,3323
360,3537,3538,3221
361,3221,3220,3537
362,2690,2689,2901
363,2901,2902,2690
364,2702,2701,2913
365,2913,2914,2702
366,3433,3432,3331
367,3331,3332,3433
368,3549,3550,3233
369,3233,3232,3549
370,3229,3546,3547
371,3547,3230,3229
372,2705,2704,2916
373,2916,2917,2705
374,61,60,359
375,359,360,61
376,2602,2603,2810
377,2810,2809,2602
378,2606,2813,2812
379,2812,2605,2606
380,369,70,69
381,69,368,369
382,2618,2825,2824
383,2824,2617,2618
384,2614,2615,2822
385,2822,2821,2614
386,2921,2709,2708
387,2708,2920,2921
388,3233,3550,3551
389,3551,3234,3233
390,3339,3440,3439
391,3439,3338,3339
392,3553,3554,3237
393,3237,3236,3553
394,2917,2918,2706
395,2706,2705,2917
396,2718,2717,2929
397,2929,2930,2718
398,3449,3448,3347
399,3347,3348,3449
400,3565,3566,3249
401,3249,3248,3565
402,3246,3245,3562
403,3562,3563,3246
404,2933,2721,2720
405,2720,2932,2933
406,91,375,376
407,376,89,91
408,2619,2826,2825
409,2825,2618,2619
410,2828,2621,2622
411,2622,2829,2828
412,42,384,385
413,385,40,42
414,2633,2634,2841
415,2841,2840,2633
416,2838,2837,2630
417,2630,2631,2838
418,2936,2937,2725
419,2725,2724,2936
420,3567,3250,3249
421,3249,3566,3567
422,3354,3355,3456
423,3456,3455,3354
424,3252,3569,3570
425,3570,3253,3252
426,2722,2721,2933
427,2933,2934,2722
428,2946,2734,2733
429,2733,2945,2946
430,3465,3464,3363
431,3363,3364,3465
432,3264,3581,3582
433,3582,3265,3264
434,3262,3261,3578
435,3578,3579,3262
436,2949,2737,2736
437,2736,2948,2949
438,28,391,392
439,392,26,28
440,2842,2841,2634
441,2634,2635,2842
442,2844,2637,2638
443,2638,2845,2844
444,414,8,10
445,10,400,414
446,2649,2554,2857
447,2857,2856,2649
448,2646,2647,2854
449,2854,2853,2646
450,2953,2741,2740
451,2740,2952,2953
452,3265,3582,3583
453,3583,3266,3265
454,3371,3472,3471
455,3471,3370,3371
456,3585,3586,3269
457,3269,3268,3585
458,2738,2737,2949
459,2949,2950,2738
460,2750,2749,2961
461,2961,2962,2750
462,3380,3481,3480
463,3480,3379,3380
464,3499,3281,3280
465,3280,3500,3499
466,3496,3278,3277
467,3277,3594,3496
468,2964,2965,2753
469,2753,2752,2964
470,1893,1891,2101
471,2101,2106,1893
472,3397,3609,3608
473,3608,3396,3397
474,3413,3625,3624
475,3624,3412,3413
476,3640,3428,3429
477,3429,3641,3640
478,3656,3444,3445
479,3445,3657,3656
480,3672,3460,3461
481,3461,3673,3672
482,3689,3688,3476
483,3476,3477,3689
484,1894,2107,2102
485,2102,1892,1894
486,1890,1886,2108
487,2108,2104,1890
488,11,9,312
489,312,313,11
490,2545,2462,2555
491,2555,2553,2545
492,2458,2456,2558
493,2558,2557,2458
494,2562,2769,2768
495,2768,2561,2562
496,2558,2559,2766
497,2766,2765,2558
498,2450,2448,2562
499,2562,2561,2450
500,2456,2454,2559
501,2559,2558,2456
502,25,23,319
503,319,320,25
504,2562,2563,2770
505,2770,2769,2562
506,2566,2773,2772
507,2772,2565,2566
508,2570,2569,2471
509,2471,2472,2570
510,2566,2468,2469
511,2469,2567,2566
512,2448,2446,2563
513,2563,2562,2448
514,2467,2468,2566
515,2566,2565,2467
516,2662,2661,2873
517,2873,2874,2662
518,3393,3392,3291
519,3291,3292,3393
520,3509,3510,3193
521,3193,3192,3509
522,3189,3506,3507
523,3507,3190,3189
524,2877,2665,2664
525,2664,2876,2877
526,2881,2669,2668
527,2668,2880,2881
528,3299,3400,3399
529,3399,3298,3299
530,3193,3510,3511
531,3511,3194,3193
532,3196,3513,3514
533,3514,3197,3196
534,2666,2665,2877
535,2877,2878,2666
536,72,41,328
537,328,329,72
538,2570,2472,2473
539,2473,2571,2570
540,2574,2573,2475
541,2475,2476,2574
542,2577,2578,2785
543,2785,2784,2577
544,2782,2781,2574
545,2574,2575,2782
546,2578,2577,2479
547,2479,2480,2578
548,2574,2476,2477
549,2477,2575,2574
550,88,86,335
551,335,336,88
552,2578,2579,2786
553,2786,2785,2578
554,2788,2581,2582
555,2582,2789,2788
556,2487,2488,2586
557,2586,2585,2487
558,2582,2484,2485
559,2485,2583,2582
560,2578,2480,2481
561,2481,2579,2578
562,2483,2484,2582
563,2582,2581,2483
564,2678,2677,2889
565,2889,2890,2678
566,3409,3408,3307
567,3307,3308,3409
568,3208,3525,3526
569,3526,3209,3208
570,3523,3206,3205
571,3205,3522,3523
572,2893,2681,2680
573,2680,2892,2893
574,2897,2685,2684
575,2684,2896,2897
576,3315,3416,3415
577,3415,3314,3315
578,3209,3526,3527
579,3527,3210,3209
580,3212,3529,3530
581,3530,3213,3212
582,2682,2681,2893
583,2893,2894,2682
584,46,45,344
585,344,345,46
586,2586,2488,2489
587,2489,2587,2586
588,2590,2589,2491
589,2491,2492,2590
590,2594,2801,2800
591,2800,2593,2594
592,2590,2591,2798
593,2798,2797,2590
594,2594,2593,2495
595,2495,2496,2594
596,2590,2492,2493
597,2493,2591,2590
598,53,52,351
599,351,352,53
600,2594,2595,2802
601,2802,2801,2594
602,2598,2805,2804
603,2804,2597,2598
604,2504,2602,2601
605,2601,2503,2504
606,2598,2500,2501
607,2501,2599,2598
608,2594,2496,2497
609,2497,2595,2594
610,2598,2597,2499
611,2499,2500,2598
612,2694,2693,2905
613,2905,2906,2694
614,3425,3424,3323
615,3323,3324,3425
616,3541,3542,3225
617,3225,3224,3541
618,3221,3538,3539
619,3539,3222,3221
620,2909,2697,2696
621,2696,2908,2909
622,2913,2701,2700
623,2700,2912,2913
624,3331,3432,3431
625,3431,3330,3331
626,3225,3542,3543
627,3543,3226,3225
628,3545,3546,3229
629,3229,3228,3545
630,2698,2697,2909
631,2909,2910,2698
632,62,61,360
633,360,361,62
634,2602,2504,2505
635,2505,2603,2602
636,2606,2605,2507
637,2507,2508,2606
638,2610,2817,2816
639,2816,2609,2610
640,2606,2607,2814
641,2814,2813,2606
642,2610,2609,2511
643,2511,2512,2610
644,2606,2508,2509
645,2509,2607,2606
646,69,68,367
647,367,368,69
648,2610,2611,2818
649,2818,2817,2610
650,2614,2821,2820
651,2820,2613,2614
652,2519,2520,2618
653,2618,2617,2519
654,2615,2614,2516
655,2516,2517,2615
656,2610,2512,2513
657,2513,2611,2610
658,2614,2613,2515
659,2515,2516,2614
660,2710,2709,2921
661,2921,2922,2710
662,3441,3440,3339
663,3339,3340,3441
664,3557,3558,3241
665,3241,3240,3557
666,3237,3554,3555
667,3555,3238,3237
668,2925,2713,2712
669,2712,2924,2925
670,2929,2717,2716
671,2716,2928,2929
672,3347,3448,3447
673,3447,3346,3347
674,3241,3558,3559
675,3559,3242,3241
676,3561,3562,3245
677,3245,3244,3561
678,2714,2713,2925
679,2925,2926,2714
680,89,376,377
681,377,87,89
682,2618,2520,2521
683,2521,2619,2618
684,2622,2621,2523
685,2523,2524,2622
686,2626,2833,2832
687,2832,2625,2626
688,2622,2623,2830
689,2830,2829,2622
690,2626,2625,2527
691,2527,2528,2626
692,2525,2623,2622
693,2622,2524,2525
694,73,383,384
695,384,42,73
696,2626,2627,2834
697,2834,2833,2626
698,2629,2630,2837
699,2837,2836,2629
700,2634,2633,2535
701,2535,2536,2634
702,2630,2532,2533
703,2533,2631,2630
704,2626,2528,2529
705,2529,2627,2626
706,2630,2629,2531
707,2531,2532,2630
708,2726,2725,2937
709,2937,2938,2726
710,3457,3456,3355
711,3355,3356,3457
712,3573,3574,3257
713,3257,3256,3573
714,3571,3254,3253
715,3253,3570,3571
716,2941,2729,2728
717,2728,2940,2941
718,2945,2733,2732
719,2732,2944,2945
720,3362,3363,3464
721,3464,3463,3362
722,3257,3574,3575
723,3575,3258,3257
724,3577,3578,3261
725,3261,3260,3577
726,2730,2729,2941
727,2941,2942,2730
728,26,392,393
729,393,24,26
730,2634,2536,2537
731,2537,2635,2634
732,2638,2637,2539
733,2539,2540,2638
734,2848,2641,2642
735,2642,2849,2848
736,2638,2639,2846
737,2846,2845,2638
738,2449,2642,2641
739,2641,2447,2449
740,2541,2639,2638
741,2638,2540,2541
742,12,399,400
743,400,10,12
744,2850,2849,2642
745,2642,2643,2850
746,2646,2853,2852
747,2852,2645,2646
748,2546,2554,2649
749,2649,2463,2546
750,2459,2647,2646
751,2646,2457,2459
752,2451,2643,2642
753,2642,2449,2451
754,2457,2646,2645
755,2645,2455,2457
756,2742,2741,2953
757,2953,2954,2742
758,3473,3472,3371
759,3371,3372,3473
760,3589,3590,3273
761,3273,3272,3589
762,3587,3270,3269
763,3269,3586,3587
764,2957,2745,2744
765,2744,2956,2957
766,2961,2749,2748
767,2748,2960,2961
768,3479,3378,3379
769,3379,3480,3479
770,3591,3274,3273
771,3273,3590,3591
772,3593,3594,3277
773,3277,3276,3593
774,2746,2745,2957
775,2957,2958,2746
776,409,407,496
777,496,498,409
778,411,409,498
779,498,500,411
780,3787,3789,3503
781,3503,3502,3787
782,3604,3603,3391
783,3391,3392,3604
784,3794,3796,3506
785,3506,3505,3794
786,4514,4133,4132
787,4132,4629,4514
788,4132,4512,4629
789,4510,4129,4127
790,4127,4626,4510
791,4127,4509,4626
792,422,423,325
793,325,324,422
794,424,326,325
795,325,423,424
796,3714,3715,3519
797,3519,3518,3714
798,3620,3619,3407
799,3407,3408,3620
800,3521,3717,3718
801,3718,3522,3521
802,4554,4445,4167
803,4444,4554,4167
804,4167,4165,4444
805,4551,4442,4161
806,4441,4551,4161
807,4161,4159,4441
808,438,439,341
809,341,340,438
810,440,342,341
811,341,439,440
812,3535,3534,3730
813,3730,3731,3535
814,3636,3635,3423
815,3423,3424,3636
816,3537,3733,3734
817,3734,3538,3537
818,4570,4461,4199
819,4460,4570,4199
820,4199,4197,4460
821,4567,4458,4193
822,4457,4567,4193
823,4193,4191,4457
824,454,455,357
825,357,356,454
826,456,358,357
827,357,455,456
828,3746,3747,3551
829,3551,3550,3746
830,3652,3651,3439
831,3439,3440,3652
832,3553,3749,3750
833,3750,3554,3553
834,4326,4123,4122
835,4122,4328,4326
836,4319,4320,4120
837,4120,4119,4319
838,470,471,373
839,373,372,470
840,472,374,373
841,373,471,472
842,3762,3763,3567
843,3567,3566,3762
844,3668,3667,3455
845,3455,3456,3668
846,3569,3765,3766
847,3766,3570,3569
848,4602,4493,4184
849,4492,4602,4184
850,4184,4186,4492
851,4599,4490,4190
852,4489,4599,4190
853,4190,4192,4489
854,487,389,388
855,388,486,487
856,389,487,488
857,488,390,389
858,3779,3583,3582
859,3582,3778,3779
860,3684,3683,3471
861,3471,3472,3684
862,3585,3781,3782
863,3782,3586,3585
864,4618,4531,4152
865,4533,4618,4152
866,4152,4154,4533
867,4615,4506,4158
868,4505,4615,4158
869,4158,4160,4505
870,411,5,3
871,3,409,411
872,31,29,322
873,322,323,31
874,3288,3287,2974
875,2974,2975,3288
876,3289,3390,3389
877,3389,3288,3289
878,3301,3302,3403
879,3403,3402,3301
880,2990,3303,3302
881,3302,2989,2990
882,2988,2989,3302
883,3302,3301,2988
884,37,35,325
885,325,326,37
886,94,92,338
887,338,339,94
888,3304,3303,2990
889,2990,2991,3304
890,3305,3406,3405
891,3405,3304,3305
892,2992,3305,3304
893,3304,2991,2992
894,3419,3418,3317
895,3317,3318,3419
896,3318,3005,3006
897,3006,3319,3318
898,3005,3318,3317
899,3317,3004,3005
900,100,98,341
901,341,342,100
902,354,355,56
903,56,55,354
904,3007,3320,3319
905,3319,3006,3007
906,3320,3321,3422
907,3422,3421,3320
908,3333,3334,3435
909,3435,3434,3333
910,3022,3335,3334
911,3334,3021,3022
912,3020,3021,3334
913,3334,3333,3020
914,357,358,59
915,59,58,357
916,101,370,371
917,371,99,101
918,3336,3335,3022
919,3022,3023,3336
920,3337,3438,3437
921,3437,3336,3337
922,3024,3337,3336
923,3336,3023,3024
924,3350,3451,3450
925,3450,3349,3350
926,3351,3350,3037
927,3037,3038,3351
928,3036,3037,3350
929,3350,3349,3036
930,95,373,374
931,374,93,95
932,38,386,387
933,387,36,38
934,3039,3352,3351
935,3351,3038,3039
936,3352,3353,3454
937,3454,3453,3352
938,3365,3366,3467
939,3467,3466,3365
940,3054,3367,3366
941,3366,3053,3054
942,3052,3053,3366
943,3366,3365,3052
944,32,389,390
945,390,30,32
946,412,410,4
947,4,6,412
948,3368,3367,3054
949,3054,3055,3368
950,3368,3369,3470
951,3470,3469,3368
952,3056,3369,3368
953,3368,3055,3056
954,3381,3382,3483
955,3483,3482,3381
956,3069,3070,3383
957,3383,3382,3069
958,3382,3381,3068
959,3068,3069,3382
960,2650,2553,2761
961,2761,2759,2650
962,3501,3502,3185
963,3185,3184,3501
964,2868,2869,2657
965,2657,2656,2868
966,615,617,316
967,316,315,615
968,512,615,315
969,315,314,512
970,3612,3400,3401
971,3401,3613,3612
972,3713,3714,3518
973,3518,3517,3713
974,3515,3514,3710
975,3710,3711,3515
976,4547,4532,4153
977,4530,4547,4153
978,4153,4151,4530
979,4550,4441,4159
980,4440,4550,4159
981,4159,4157,4440
982,430,332,331
983,331,429,430
984,428,429,331
985,331,330,428
986,3417,3629,3628
987,3628,3416,3417
988,3533,3729,3730
989,3730,3534,3533
990,3727,3531,3530
991,3530,3726,3727
992,4563,4454,4185
993,4453,4563,4185
994,4185,4183,4453
995,4566,4457,4191
996,4456,4566,4191
997,4191,4189,4456
998,446,348,347
999,347,445,446
1000,444,445,347
1001,347,346,444
1002,3644,3432,3433
1003,3433,3645,3644
1004,3746,3550,3549
1005,3549,3745,3746
1006,3547,3546,3742
1007,3742,3743,3547
1008,4325,4327,4116
1009,4116,4115,4325
1010,4119,4118,4318
1011,4318,4319,4119
1012,462,364,363
1013,363,461,462
1014,460,461,363
1015,363,362,460
1016,3661,3660,3448
1017,3448,3449,3661
1018,3762,3566,3565
1019,3565,3761,3762
1020,3759,3563,3562
1021,3562,3758,3759
1022,4595,4486,4198
1023,4485,4595,4198
1024,4198,4200,4485
1025,4598,4489,4192
1026,4488,4598,4192
1027,4192,4194,4488
1028,478,380,379
1029,379,477,478
1030,476,477,379
1031,379,378,476
1032,3465,3677,3676
1033,3676,3464,3465
1034,3778,3582,3581
1035,3581,3777,3778
1036,3775,3579,3578
1037,3578,3774,3775
1038,4611,4502,4166
1039,4501,4611,4166
1040,4166,4168,4501
1041,4614,4505,4160
1042,4504,4614,4160
1043,4160,4162,4504
1044,618,396,395
1045,395,620,618
1046,620,395,394
1047,394,622,620
1048,3692,3480,3481
1049,3481,3693,3692
1050,3788,3499,3500
1051,3500,3790,3788
1052,3793,3496,3594
1053,3594,3795,3793
1054,4438,4130,4135
1055,4135,4630,4438
1056,4135,4513,4630
1057,4539,4535,4010
1058,4436,4539,4010
1059,4010,4011,4436
1060,2651,2760,2857
1061,2857,2554,2651
1062,3497,3282,3281
1063,3281,3499,3497
1064,2754,2753,2965
1065,2965,2966,2754
1066,1477,1259,1260
1067,1260,1479,1477
1068,15,13,314
1069,314,315,15
1070,1264,1265,1490
1071,1490,1489,1264
1072,1266,1491,1490
1073,1490,1265,1266
1074,2222,2226,1899
1075,1899,1903,2222
1076,1908,1909,2135
1077,2135,2134,1908
1078,21,19,317
1079,317,318,21
1080,1498,1497,1272
1081,1272,1273,1498
1082,1274,1499,1498
1083,1498,1273,1274
1084,1493,1492,1267
1085,1267,1268,1493
1086,1916,1917,2143
1087,2143,2142,1916
1088,2137,1911,1912
1089,1912,2138,2137
1090,2103,1895,2123
1091,2127,2119,2103
1092,2103,2123,2127
1093,3293,3294,3395
1094,3395,3394,3293
1095,3295,3294,2981
1096,2981,2982,3295
1097,3297,3398,3397
1098,3397,3296,3297
1099,3296,3295,2982
1100,2982,2983,3296
1101,2984,3297,3296
1102,3296,2983,2984
1103,1501,1500,1275
1104,1275,1276,1501
1105,1274,1275,1500
1106,1500,1499,1274
1107,76,74,330
1108,330,331,76
1109,1506,1505,1280
1110,1280,1281,1506
1111,1281,1282,1507
1112,1507,1506,1281
1113,2145,1919,1920
1114,1920,2146,2145
1115,1924,1925,2151
1116,2151,2150,1924
1117,84,80,333
1118,333,334,84
1119,1289,1514,1513
1120,1513,1288,1289
1121,1508,1283,1284
1122,1284,1509,1508
1123,1933,2159,2158
1124,2158,1932,1933
1125,2153,1927,1928
1126,1928,2154,2153
1127,3309,3310,3411
1128,3411,3410,3309
1129,3311,3310,2997
1130,2997,2998,3311
1131,2996,2997,3310
1132,3310,3309,2996
1133,3313,3414,3413
1134,3413,3312,3313
1135,3312,3311,2998
1136,2998,2999,3312
1137,1517,1516,1291
1138,1291,1292,1517
1139,48,47,346
1140,346,347,48
1141,1522,1521,1296
1142,1296,1297,1522
1143,2161,1935,1936
1144,1936,2162,2161
1145,1940,1941,2167
1146,2167,2166,1940
1147,349,350,51
1148,51,50,349
1149,1530,1529,1304
1150,1304,1305,1530
1151,1525,1524,1299
1152,1299,1300,1525
1153,1948,1949,2175
1154,2175,2174,1948
1155,2169,1943,1944
1156,1944,2170,2169
1157,3325,3326,3427
1158,3427,3426,3325
1159,3327,3326,3013
1160,3013,3014,3327
1161,3329,3430,3429
1162,3429,3328,3329
1163,3328,3327,3014
1164,3014,3015,3328
1165,3016,3329,3328
1166,3328,3015,3016
1167,1533,1532,1307
1168,1307,1308,1533
1169,1531,1306,1307
1170,1307,1532,1531
1171,64,63,362
1172,362,363,64
1173,1538,1537,1312
1174,1312,1313,1538
1175,1314,1539,1538
1176,1538,1313,1314
1177,2177,1951,1952
1178,1952,2178,2177
1179,1956,1957,2183
1180,2183,2182,1956
1181,67,66,365
1182,365,366,67
1183,1546,1545,1320
1184,1320,1321,1546
1185,1541,1540,1315
1186,1315,1316,1541
1187,1965,2191,2190
1188,2190,1964,1965
1189,2185,1959,1960
1190,1960,2186,2185
1191,3341,3342,3443
1192,3443,3442,3341
1193,3343,3342,3029
1194,3029,3030,3343
1195,3028,3029,3342
1196,3342,3341,3028
1197,3345,3446,3445
1198,3445,3344,3345
1199,3344,3343,3030
1200,3030,3031,3344
1201,1549,1548,1323
1202,1323,1324,1549
1203,85,378,379
1204,379,81,85
1205,1554,1553,1328
1206,1328,1329,1554
1207,2193,1967,1968
1208,1968,2194,2193
1209,1973,2199,2198
1210,2198,1972,1973
1211,77,381,382
1212,382,75,77
1213,1562,1561,1336
1214,1336,1337,1562
1215,1556,1331,1332
1216,1332,1557,1556
1217,1981,2207,2206
1218,2206,1980,1981
1219,1975,1976,2202
1220,2202,2201,1975
1221,3358,3459,3458
1222,3458,3357,3358
1223,3045,3046,3359
1224,3359,3358,3045
1225,3361,3462,3461
1226,3461,3360,3361
1227,3360,3359,3046
1228,3046,3047,3360
1229,3048,3361,3360
1230,3360,3047,3048
1231,1339,1340,1565
1232,1565,1564,1339
1233,1564,1563,1338
1234,1338,1339,1564
1235,22,394,395
1236,395,20,22
1237,1345,1570,1569
1238,1569,1344,1345
1239,1570,1345,1346
1240,1346,1571,1570
1241,2209,1983,1984
1242,1984,2210,2209
1243,1988,1989,2215
1244,2215,2214,1988
1245,16,397,398
1246,398,14,16
1247,1478,1480,1352
1248,1352,1353,1478
1249,1573,1572,1347
1250,1347,1348,1573
1251,2223,1904,1900
1252,1900,2227,2223
1253,2217,1991,1992
1254,1992,2218,2217
1255,3374,3475,3474
1256,3474,3373,3374
1257,3061,3062,3375
1258,3375,3374,3061
1259,3374,3373,3060
1260,3060,3061,3374
1261,3377,3478,3477
1262,3477,3376,3377
1263,3376,3375,3062
1264,3062,3063,3376
1265,496,731,732
1266,732,498,496
1267,413,502,506
1268,506,312,413
1269,413,411,500
1270,500,502,413
1271,3604,3392,3393
1272,3393,3605,3604
1273,3706,3510,3509
1274,3509,3801,3706
1275,3796,3798,3507
1276,3507,3506,3796
1277,4515,4136,4133
1278,4133,4632,4515
1279,4133,4514,4632
1280,4542,4521,4142
1281,4519,4542,4142
1282,4142,4140,4519
1283,4629,4940,4844
1284,4844,4514,4629
1285,4626,4509,4840
1286,4840,4937,4626
1287,4632,4514,4844
1288,4844,4941,4632
1289,4542,4944,4848
1290,4848,4521,4542
1291,422,747,748
1292,748,423,422
1293,424,423,748
1294,748,749,424
1295,426,328,327
1296,327,425,426
1297,424,425,327
1298,327,326,424
1299,426,425,750
1300,750,751,426
1301,424,749,750
1302,750,425,424
1303,3620,3408,3409
1304,3409,3621,3620
1305,3721,3722,3526
1306,3526,3525,3721
1307,3523,3522,3718
1308,3718,3719,3523
1309,4555,4446,4169
1310,4445,4555,4169
1311,4169,4167,4445
1312,4558,4449,4175
1313,4448,4558,4175
1314,4175,4173,4448
1315,4554,4956,4860
1316,4860,4445,4554
1317,4551,4441,4856
1318,4856,4953,4551
1319,4555,4445,4860
1320,4860,4957,4555
1321,4558,4960,4864
1322,4864,4449,4558
1323,438,763,764
1324,764,439,438
1325,343,441,442
1326,442,344,343
1327,441,343,342
1328,342,440,441
1329,3636,3424,3425
1330,3425,3637,3636
1331,3541,3737,3738
1332,3738,3542,3541
1333,3539,3538,3734
1334,3734,3735,3539
1335,4571,4462,4201
1336,4461,4571,4201
1337,4201,4199,4461
1338,4574,4465,4207
1339,4464,4574,4207
1340,4207,4205,4464
1341,4570,4972,4876
1342,4876,4461,4570
1343,4567,4457,4872
1344,4872,4969,4567
1345,4571,4461,4876
1346,4876,4973,4571
1347,4574,4976,4880
1348,4880,4465,4574
1349,456,455,780
1350,780,781,456
1351,458,360,359
1352,359,457,458
1353,456,457,359
1354,359,358,456
1355,456,781,782
1356,782,457,456
1357,3652,3440,3441
1358,3441,3653,3652
1359,3557,3753,3754
1360,3754,3558,3557
1361,3555,3554,3750
1362,3750,3751,3555
1363,4324,4124,4123
1364,4123,4326,4324
1365,4590,4481,4208
1366,4480,4590,4208
1367,4208,4210,4480
1368,4586,4988,4892
1369,4892,4477,4586
1370,4583,4473,4888
1371,4888,4985,4583
1372,4587,4477,4892
1373,4892,4989,4587
1374,4590,4992,4896
1375,4896,4481,4590
1376,796,471,470
1377,470,795,796
1378,474,376,375
1379,375,473,474
1380,472,473,375
1381,375,374,472
1382,474,473,798
1383,798,799,474
1384,472,797,798
1385,798,473,472
1386,3668,3456,3457
1387,3457,3669,3668
1388,3573,3769,3770
1389,3770,3574,3573
1390,3571,3570,3766
1391,3766,3767,3571
1392,4603,4494,4182
1393,4493,4603,4182
1394,4182,4184,4493
1395,4606,4497,4176
1396,4496,4606,4176
1397,4176,4178,4496
1398,4602,5004,4908
1399,4908,4493,4602
1400,4599,4489,4904
1401,4904,5001,4599
1402,4603,4493,4908
1403,4908,5005,4603
1404,4606,5008,4912
1405,4912,4497,4606
1406,490,392,391
1407,391,489,490
1408,488,489,391
1409,391,390,488
1410,814,815,490
1411,490,489,814
1412,489,488,813
1413,813,814,489
1414,3473,3685,3684
1415,3684,3472,3473
1416,3589,3785,3786
1417,3786,3590,3589
1418,3587,3586,3782
1419,3782,3783,3587
1420,4619,4529,4150
1421,4531,4619,4150
1422,4150,4152,4531
1423,4622,4522,4143
1424,4525,4622,4143
1425,4143,4145,4525
1426,4618,5020,4924
1427,4924,4531,4618
1428,4615,4505,4920
1429,4920,5017,4615
1430,4619,4531,4924
1431,4924,5021,4619
1432,4622,5024,4928
1433,4928,4522,4622
1434,519,520,631
1435,631,630,519
1436,840,839,631
1437,631,632,840
1438,838,630,631
1439,631,839,838
1440,521,632,631
1441,631,520,521
1442,413,7,5
1443,5,411,413
1444,2974,2761,2762
1445,2762,2975,2974
1446,2556,2763,2762
1447,2762,2555,2556
1448,2976,2975,2762
1449,2762,2763,2976
1450,2556,2557,2764
1451,2764,2763,2556
1452,2978,2977,2764
1453,2764,2765,2978
1454,2976,2763,2764
1455,2764,2977,2976
1456,531,642,641
1457,641,530,531
1458,848,640,641
1459,641,849,848
1460,529,530,641
1461,641,640,529
1462,850,849,641
1463,641,642,850
1464,29,27,321
1465,321,322,29
1466,2989,2776,2777
1467,2777,2990,2989
1468,2776,2775,2568
1469,2568,2569,2776
1470,2776,2989,2988
1471,2988,2775,2776
1472,2987,2986,2773
1473,2773,2774,2987
1474,2774,2567,2568
1475,2568,2775,2774
1476,2774,2775,2988
1477,2988,2987,2774
1478,2660,2659,2871
1479,2871,2872,2660
1480,2873,2872,3080
1481,3080,3081,2873
1482,3078,3077,3185
1483,3185,3186,3078
1484,3187,3186,3503
1485,3503,3504,3187
1486,3391,3390,3289
1487,3289,3290,3391
1488,3291,3290,2977
1489,2977,2978,3291
1490,2658,2870,2871
1491,2871,2659,2658
1492,2869,3077,3078
1493,3078,2870,2869
1494,3080,3188,3189
1495,3189,3081,3080
1496,3505,3188,3187
1497,3187,3504,3505
1498,2881,3089,3090
1499,3090,2882,2881
1500,2670,2882,2883
1501,2883,2671,2670
1502,3401,3300,3301
1503,3301,3402,3401
1504,3299,2986,2987
1505,2987,3300,3299
1506,3517,3200,3199
1507,3199,3516,3517
1508,3201,3093,3092
1509,3092,3200,3201
1510,3197,3198,3090
1511,3090,3089,3197
1512,3515,3516,3199
1513,3199,3198,3515
1514,2883,2884,2672
1515,2672,2671,2883
1516,2885,2884,3092
1517,3092,3093,2885
1518,535,536,647
1519,647,646,535
1520,856,855,647
1521,647,648,856
1522,854,646,647
1523,647,855,854
1524,537,648,647
1525,647,536,537
1526,39,37,326
1527,326,327,39
1528,2991,2990,2777
1529,2777,2778,2991
1530,2778,2571,2572
1531,2572,2779,2778
1532,2778,2779,2992
1533,2992,2991,2778
1534,2780,2779,2572
1535,2572,2573,2780
1536,2994,2993,2780
1537,2780,2781,2994
1538,2992,2779,2780
1539,2780,2993,2992
1540,547,658,657
1541,657,546,547
1542,864,656,657
1543,657,865,864
1544,545,546,657
1545,657,656,545
1546,866,865,657
1547,657,658,866
1548,92,90,337
1549,337,338,92
1550,3006,3005,2792
1551,2792,2793,3006
1552,2584,2585,2792
1553,2792,2791,2584
1554,3004,2791,2792
1555,2792,3005,3004
1556,3002,2789,2790
1557,2790,3003,3002
1558,2584,2791,2790
1559,2790,2583,2584
1560,3004,3003,2790
1561,2790,2791,3004
1562,2889,2888,3096
1563,3096,3097,2889
1564,2676,2675,2887
1565,2887,2888,2676
1566,3203,3202,3519
1567,3519,3520,3203
1568,3094,3093,3201
1569,3201,3202,3094
1570,3407,3406,3305
1571,3305,3306,3407
1572,3306,2993,2994
1573,2994,3307,3306
1574,3096,3204,3205
1575,3205,3097,3096
1576,3521,3204,3203
1577,3203,3520,3521
1578,2674,2886,2887
1579,2887,2675,2674
1580,3094,2886,2885
1581,2885,3093,3094
1582,3106,2898,2897
1583,2897,3105,3106
1584,2898,2899,2687
1585,2687,2686,2898
1586,3316,3317,3418
1587,3418,3417,3316
1588,3003,3316,3315
1589,3315,3002,3003
1590,3215,3532,3533
1591,3533,3216,3215
1592,3216,3217,3109
1593,3109,3108,3216
1594,3213,3214,3106
1595,3106,3105,3213
1596,3531,3532,3215
1597,3215,3214,3531
1598,2900,2688,2687
1599,2687,2899,2900
1600,2901,2900,3108
1601,3108,3109,2901
1602,551,552,663
1603,663,662,551
1604,663,664,872
1605,872,871,663
1606,871,870,662
1607,662,663,871
1608,553,664,663
1609,663,552,553
1610,100,342,343
1611,343,44,100
1612,3006,2793,2794
1613,2794,3007,3006
1614,2588,2795,2794
1615,2794,2587,2588
1616,3008,3007,2794
1617,2794,2795,3008
1618,2796,2795,2588
1619,2588,2589,2796
1620,3010,3009,2796
1621,2796,2797,3010
1622,3008,2795,2796
1623,2796,3009,3008
1624,563,674,673
1625,673,562,563
1626,880,672,673
1627,673,881,880
1628,561,562,673
1629,673,672,561
1630,882,881,673
1631,673,674,882
1632,353,354,55
1633,55,54,353
1634,2809,3022,3021
1635,3021,2808,2809
1636,2600,2601,2808
1637,2808,2807,2600
1638,3020,2807,2808
1639,2808,3021,3020
1640,3018,2805,2806
1641,2806,3019,3018
1642,2600,2807,2806
1643,2806,2599,2600
1644,3020,3019,2806
1645,2806,2807,3020
1646,2905,2904,3112
1647,3112,3113,2905
1648,2692,2691,2903
1649,2903,2904,2692
1650,3218,3535,3536
1651,3536,3219,3218
1652,3110,3109,3217
1653,3217,3218,3110
1654,3423,3422,3321
1655,3321,3322,3423
1656,3322,3009,3010
1657,3010,3323,3322
1658,3112,3220,3221
1659,3221,3113,3112
1660,3537,3220,3219
1661,3219,3536,3537
1662,2902,2903,2691
1663,2691,2690,2902
1664,3110,2902,2901
1665,2901,3109,3110
1666,2913,3121,3122
1667,3122,2914,2913
1668,2702,2914,2915
1669,2915,2703,2702
1670,3333,3434,3433
1671,3433,3332,3333
1672,3331,3018,3019
1673,3019,3332,3331
1674,3231,3548,3549
1675,3549,3232,3231
1676,3233,3125,3124
1677,3124,3232,3233
1678,3229,3230,3122
1679,3122,3121,3229
1680,3547,3548,3231
1681,3231,3230,3547
1682,2915,2916,2704
1683,2704,2703,2915
1684,2917,2916,3124
1685,3124,3125,2917
1686,567,568,679
1687,679,678,567
1688,888,887,679
1689,679,680,888
1690,886,678,679
1691,679,887,886
1692,569,680,679
1693,679,568,569
1694,358,359,60
1695,60,59,358
1696,3022,2809,2810
1697,2810,3023,3022
1698,2604,2811,2810
1699,2810,2603,2604
1700,3024,3023,2810
1701,2810,2811,3024
1702,2604,2605,2812
1703,2812,2811,2604
1704,3026,3025,2812
1705,2812,2813,3026
1706,3024,2811,2812
1707,2812,3025,3024
1708,578,579,690
1709,690,689,578
1710,689,897,896
1711,896,688,689
1712,689,688,577
1713,577,578,689
1714,897,689,690
1715,690,898,897
1716,101,70,369
1717,369,370,101
1718,3038,3037,2824
1719,2824,2825,3038
1720,2616,2617,2824
1721,2824,2823,2616
1722,3036,2823,2824
1723,2824,3037,3036
1724,3034,2821,2822
1725,2822,3035,3034
1726,2616,2823,2822
1727,2822,2615,2616
1728,3036,3035,2822
1729,2822,2823,3036
1730,2921,2920,3128
1731,3128,3129,2921
1732,2708,2707,2919
1733,2919,2920,2708
1734,3235,3234,3551
1735,3551,3552,3235
1736,3126,3125,3233
1737,3233,3234,3126
1738,3439,3438,3337
1739,3337,3338,3439
1740,3339,3338,3025
1741,3025,3026,3339
1742,3128,3236,3237
1743,3237,3129,3128
1744,3553,3236,3235
1745,3235,3552,3553
1746,2706,2918,2919
1747,2919,2707,2706
1748,2917,3125,3126
1749,3126,2918,2917
1750,3138,2930,2929
1751,2929,3137,3138
1752,2718,2930,2931
1753,2931,2719,2718
1754,3349,3450,3449
1755,3449,3348,3349
1756,3035,3348,3347
1757,3347,3034,3035
1758,3247,3564,3565
1759,3565,3248,3247
1760,3249,3141,3140
1761,3140,3248,3249
1762,3245,3246,3138
1763,3138,3137,3245
1764,3563,3564,3247
1765,3247,3246,3563
1766,2931,2932,2720
1767,2720,2719,2931
1768,2933,2932,3140
1769,3140,3141,2933
1770,583,584,695
1771,695,694,583
1772,904,903,695
1773,695,696,904
1774,902,694,695
1775,695,903,902
1776,585,696,695
1777,695,584,585
1778,93,374,375
1779,375,91,93
1780,3039,3038,2825
1781,2825,2826,3039
1782,2826,2619,2620
1783,2620,2827,2826
1784,2826,2827,3040
1785,3040,3039,2826
1786,2621,2828,2827
1787,2827,2620,2621
1788,2828,2829,3042
1789,3042,3041,2828
1790,3041,3040,2827
1791,2827,2828,3041
1792,595,706,705
1793,705,594,595
1794,913,912,704
1795,704,705,913
1796,593,594,705
1797,705,704,593
1798,705,706,914
1799,914,913,705
1800,40,385,386
1801,386,38,40
1802,3053,2840,2841
1803,2841,3054,3053
1804,2840,2839,2632
1805,2632,2633,2840
1806,2840,3053,3052
1807,3052,2839,2840
1808,3050,2837,2838
1809,2838,3051,3050
1810,2631,2632,2839
1811,2839,2838,2631
1812,3052,3051,2838
1813,2838,2839,3052
1814,2937,2936,3144
1815,3144,3145,2937
1816,2724,2723,2935
1817,2935,2936,2724
1818,3250,3567,3568
1819,3568,3251,3250
1820,3142,3141,3249
1821,3249,3250,3142
1822,3455,3454,3353
1823,3353,3354,3455
1824,3354,3041,3042
1825,3042,3355,3354
1826,3144,3252,3253
1827,3253,3145,3144
1828,3569,3252,3251
1829,3251,3568,3569
1830,2722,2934,2935
1831,2935,2723,2722
1832,2933,3141,3142
1833,3142,2934,2933
1834,2945,3153,3154
1835,3154,2946,2945
1836,2734,2946,2947
1837,2947,2735,2734
1838,3365,3466,3465
1839,3465,3364,3365
1840,3363,3050,3051
1841,3051,3364,3363
1842,3581,3264,3263
1843,3263,3580,3581
1844,3264,3265,3157
1845,3157,3156,3264
1846,3261,3262,3154
1847,3154,3153,3261
1848,3579,3580,3263
1849,3263,3262,3579
1850,2947,2948,2736
1851,2736,2735,2947
1852,2948,3156,3157
1853,3157,2949,2948
1854,599,600,711
1855,711,710,599
1856,919,711,712
1857,712,920,919
1858,711,919,918
1859,918,710,711
1860,601,712,711
1861,711,600,601
1862,30,390,391
1863,391,28,30
1864,2842,3055,3054
1865,3054,2841,2842
1866,2635,2636,2843
1867,2843,2842,2635
1868,3055,2842,2843
1869,2843,3056,3055
1870,2637,2844,2843
1871,2843,2636,2637
1872,3058,3057,2844
1873,2844,2845,3058
1874,3056,2843,2844
1875,2844,3057,3056
1876,611,722,721
1877,721,610,611
1878,928,720,721
1879,721,929,928
1880,609,610,721
1881,721,720,609
1882,930,929,721
1883,721,722,930
1884,414,412,6
1885,6,8,414
1886,3070,3069,2856
1887,2856,2857,3070
1888,2648,2649,2856
1889,2856,2855,2648
1890,3068,2855,2856
1891,2856,3069,3068
1892,3066,2853,2854
1893,2854,3067,3066
1894,2648,2855,2854
1895,2854,2647,2648
1896,3068,3067,2854
1897,2854,2855,3068
1898,2952,3160,3161
1899,3161,2953,2952
1900,2740,2739,2951
1901,2951,2952,2740
1902,3267,3266,3583
1903,3583,3584,3267
1904,3158,3157,3265
1905,3265,3266,3158
1906,3471,3470,3369
1907,3369,3370,3471
1908,3057,3058,3371
1909,3371,3370,3057
1910,3160,3268,3269
1911,3269,3161,3160
1912,3585,3268,3267
1913,3267,3584,3585
1914,2950,2951,2739
1915,2739,2738,2950
1916,2949,3157,3158
1917,3158,2950,2949
1918,2961,3169,3170
1919,3170,2962,2961
1920,2962,2963,2751
1921,2751,2750,2962
1922,3481,3380,3381
1923,3381,3482,3481
1924,3379,3066,3067
1925,3067,3380,3379
1926,3498,3500,3280
1927,3280,3279,3498
1928,3172,3280,3281
1929,3281,3173,3172
1930,3277,3278,3170
1931,3170,3169,3277
1932,3278,3496,3498
1933,3498,3279,3278
1934,2752,2751,2963
1935,2963,2964,2752
1936,2965,2964,3172
1937,3172,3173,2965
1938,2545,2553,2650
1939,2650,2543,2545
1940,1146,1247,1365
1941,1365,1366,1146
1942,506,508,313
1943,313,312,506
1944,508,512,314
1945,314,313,508
1946,615,738,739
1947,739,617,615
1948,512,737,738
1949,738,615,512
1950,1149,1148,1368
1951,1368,1369,1149
1952,3399,3400,3612
1953,3612,3611,3399
1954,3511,3510,3706
1955,3706,3707,3511
1956,3710,3514,3513
1957,3513,3709,3710
1958,4546,4530,4151
1959,4528,4546,4151
1960,4151,4149,4528
1961,4543,4524,4144
1962,4521,4543,4144
1963,4144,4142,4521
1964,4547,4530,4852
1965,4852,4949,4547
1966,4550,4952,4856
1967,4856,4441,4550
1968,4546,4948,4852
1969,4852,4530,4546
1970,4543,4521,4848
1971,4848,4945,4543
1972,1380,1381,1161
1973,1161,1160,1380
1974,426,427,329
1975,329,328,426
1976,428,330,329
1977,329,427,428
1978,430,429,754
1979,754,755,430
1980,428,753,754
1981,754,429,428
1982,3415,3416,3628
1983,3628,3627,3415
1984,3527,3526,3722
1985,3722,3723,3527
1986,3726,3530,3529
1987,3529,3725,3726
1988,4562,4453,4183
1989,4452,4562,4183
1990,4183,4181,4452
1991,4559,4450,4177
1992,4449,4559,4177
1993,4177,4175,4449
1994,4563,4453,4868
1995,4868,4965,4563
1996,4566,4968,4872
1997,4872,4457,4566
1998,4562,4964,4868
1999,4868,4453,4562
2000,4559,4449,4864
2001,4864,4961,4559
2002,1398,1178,1177
2003,1177,1397,1398
2004,442,443,345
2005,345,344,442
2006,444,346,345
2007,345,443,444
2008,3431,3432,3644
2009,3644,3643,3431
2010,3543,3542,3738
2011,3738,3739,3543
2012,3742,3546,3545
2013,3545,3741,3742
2014,4323,4325,4115
2015,4115,4114,4323
2016,4575,4466,4209
2017,4465,4575,4209
2018,4209,4207,4465
2019,4579,4469,4884
2020,4884,4981,4579
2021,4582,4984,4888
2022,4888,4473,4582
2023,4578,4980,4884
2024,4884,4469,4578
2025,4575,4465,4880
2026,4880,4977,4575
2027,458,459,361
2028,361,360,458
2029,460,362,361
2030,361,459,460
2031,462,461,786
2032,786,787,462
2033,460,785,786
2034,786,461,460
2035,3447,3448,3660
2036,3660,3659,3447
2037,3559,3558,3754
2038,3754,3755,3559
2039,3758,3562,3561
2040,3561,3757,3758
2041,4594,4485,4200
2042,4484,4594,4200
2043,4200,4202,4484
2044,4591,4482,4206
2045,4481,4591,4206
2046,4206,4208,4481
2047,4595,4485,4900
2048,4900,4997,4595
2049,4598,5000,4904
2050,4904,4489,4598
2051,4594,4996,4900
2052,4900,4485,4594
2053,4591,4481,4896
2054,4896,4993,4591
2055,1210,1209,1429
2056,1429,1430,1210
2057,377,376,474
2058,474,475,377
2059,475,476,378
2060,378,377,475
2061,476,801,802
2062,802,477,476
2063,3675,3463,3464
2064,3464,3676,3675
2065,3575,3574,3770
2066,3770,3771,3575
2067,3577,3773,3774
2068,3774,3578,3577
2069,4610,4501,4168
2070,4500,4610,4168
2071,4168,4170,4500
2072,4607,4498,4174
2073,4497,4607,4174
2074,4174,4176,4497
2075,4611,4501,4916
2076,4916,5013,4611
2077,4614,5016,4920
2078,4920,4505,4614
2079,4610,5012,4916
2080,4916,4501,4610
2081,4607,4497,4912
2082,4912,5009,4607
2083,1444,1445,1225
2084,1225,1224,1444
2085,1226,1225,1445
2086,1445,1446,1226
2087,490,491,393
2088,393,392,490
2089,394,393,491
2090,491,622,394
2091,618,620,818
2092,818,819,618
2093,818,620,622
2094,622,817,818
2095,1230,1229,1449
2096,1449,1450,1230
2097,3479,3480,3692
2098,3692,3691,3479
2099,3786,3802,3591
2100,3591,3590,3786
2101,3795,3594,3593
2102,3593,3797,3795
2103,4633,4513,4135
2104,4516,4633,4135
2105,4135,4137,4516
2106,4623,4520,4141
2107,4522,4623,4141
2108,4141,4143,4522
2109,4630,4513,4932
2110,4932,5029,4630
2111,4633,5028,4932
2112,4932,4513,4633
2113,4623,4522,4928
2114,4928,5025,4623
2115,2546,2544,2651
2116,2651,2554,2546
2117,1049,1261,1260
2118,1260,1048,1049
2119,839,840,1050
2120,1050,1049,839
2121,1049,1048,838
2122,838,839,1049
2123,1261,1049,1050
2124,1050,1262,1261
2125,1479,1260,1261
2126,1261,1473,1479
2127,1473,1261,1262
2128,1262,1471,1473
2129,523,634,633
2130,633,522,523
2131,840,632,633
2132,633,841,840
2133,521,522,633
2134,633,632,521
2135,842,841,633
2136,633,634,842
2137,13,11,313
2138,313,314,13
2139,1264,1263,1051
2140,1051,1052,1264
2141,840,841,1051
2142,1051,1050,840
2143,1262,1050,1051
2144,1051,1263,1262
2145,842,1052,1051
2146,1051,841,842
2147,1263,1264,1489
2148,1489,1469,1263
2149,1262,1263,1469
2150,1469,1471,1262
2151,2230,2226,2462
2152,2462,2545,2230
2153,2462,2460,2556
2154,2556,2555,2462
2155,2226,2222,2460
2156,2460,2462,2226
2157,2131,2222,1903
2158,1903,1905,2131
2159,2460,2458,2557
2160,2557,2556,2460
2161,2982,2981,2768
2162,2768,2769,2982
2163,2560,2561,2768
2164,2768,2767,2560
2165,2980,2767,2768
2166,2768,2981,2980
2167,2978,2765,2766
2168,2766,2979,2978
2169,2560,2767,2766
2170,2766,2559,2560
2171,2980,2979,2766
2172,2766,2767,2980
2173,2133,1907,1908
2174,1908,2134,2133
2175,2452,2450,2561
2176,2561,2560,2452
2177,2452,2134,2135
2178,2135,2450,2452
2179,2456,2132,2133
2180,2133,2454,2456
2181,2454,2452,2560
2182,2560,2559,2454
2183,2454,2133,2134
2184,2134,2452,2454
2185,527,528,639
2186,639,638,527
2187,848,847,639
2188,639,640,848
2189,529,640,639
2190,639,528,529
2191,846,638,639
2192,639,847,846
2193,23,21,318
2194,318,319,23
2195,1059,1060,1272
2196,1272,1271,1059
2197,849,1059,1058
2198,1058,848,849
2199,1059,849,850
2200,850,1060,1059
2201,1271,1270,1058
2202,1058,1059,1271
2203,1272,1497,1496
2204,1496,1271,1272
2205,1270,1271,1496
2206,1496,1495,1270
2207,1268,1056,1057
2208,1057,1269,1268
2209,848,1058,1057
2210,1057,847,848
2211,846,847,1057
2212,1057,1056,846
2213,1270,1269,1057
2214,1057,1058,1270
2215,1494,1493,1268
2216,1268,1269,1494
2217,1270,1495,1494
2218,1494,1269,1270
2219,2982,2769,2770
2220,2770,2983,2982
2221,2564,2771,2770
2222,2770,2563,2564
2223,2984,2983,2770
2224,2770,2771,2984
2225,2986,2985,2772
2226,2772,2773,2986
2227,2564,2565,2772
2228,2772,2771,2564
2229,2984,2771,2772
2230,2772,2985,2984
2231,2568,2470,2471
2232,2471,2569,2568
2233,2471,2470,2142
2234,2142,2143,2471
2235,2141,1915,1916
2236,1916,2142,2141
2237,2568,2567,2469
2238,2469,2470,2568
2239,2469,2468,2140
2240,2140,2141,2469
2241,2470,2469,2141
2242,2141,2142,2470
2243,2563,2446,2466
2244,2466,2564,2563
2245,2137,2138,2466
2246,2466,2446,2137
2247,1913,2139,2138
2248,2138,1912,1913
2249,2565,2564,2466
2250,2466,2467,2565
2251,2323,2321,2412
2252,2412,2414,2323
2253,2325,2323,2414
2254,2414,2416,2325
2255,3082,2874,2873
2256,2873,3081,3082
2257,2662,2874,2875
2258,2875,2663,2662
2259,3293,3394,3393
2260,3393,3292,3293
2261,3292,3291,2978
2262,2978,2979,3292
2263,3191,3508,3509
2264,3509,3192,3191
2265,3193,3085,3084
2266,3084,3192,3193
2267,3189,3190,3082
2268,3082,3081,3189
2269,3507,3508,3191
2270,3191,3190,3507
2271,2875,2876,2664
2272,2664,2663,2875
2273,2877,2876,3084
2274,3084,3085,2877
2275,2330,2327,2418
2276,2418,2420,2330
2277,2327,2325,2416
2278,2416,2418,2327
2279,2418,2662,2663
2280,2663,2420,2418
2281,1153,1152,1372
2282,1372,1373,1153
2283,3088,3089,2881
2284,2881,2880,3088
2285,2668,2667,2879
2286,2879,2880,2668
2287,3297,3298,3399
2288,3399,3398,3297
2289,3298,2985,2986
2290,2986,3299,3298
2291,2985,3298,3297
2292,3297,2984,2985
2293,3195,3194,3511
2294,3511,3512,3195
2295,3194,3086,3085
2296,3085,3193,3194
2297,3196,3197,3089
2298,3089,3088,3196
2299,3513,3196,3195
2300,3195,3512,3513
2301,2666,2878,2879
2302,2879,2667,2666
2303,2878,2877,3085
2304,3085,3086,2878
2305,2434,2436,2241
2306,2241,2240,2434
2307,2432,2434,2240
2308,2240,2239,2432
2309,2428,2430,2238
2310,2238,2237,2428
2311,2430,2432,2239
2312,2239,2238,2430
2313,1277,1276,1064
2314,1064,1065,1277
2315,856,1066,1065
2316,1065,855,856
2317,854,855,1065
2318,1065,1064,854
2319,1065,1066,1278
2320,1278,1277,1065
2321,1502,1501,1276
2322,1276,1277,1502
2323,539,650,649
2324,649,538,539
2325,857,856,648
2326,648,649,857
2327,537,538,649
2328,649,648,537
2329,649,650,858
2330,858,857,649
2331,74,72,329
2332,329,330,74
2333,1067,1068,1280
2334,1280,1279,1067
2335,857,1067,1066
2336,1066,856,857
2337,1279,1278,1066
2338,1066,1067,1279
2339,1067,857,858
2340,858,1068,1067
2341,1505,1504,1279
2342,1279,1280,1505
2343,1278,1279,1504
2344,1504,1503,1278
2345,2572,2571,2473
2346,2473,2474,2572
2347,2147,2146,1920
2348,1920,1921,2147
2349,2572,2474,2475
2350,2475,2573,2572
2351,2475,2147,2148
2352,2148,2476,2475
2353,2147,2475,2474
2354,2474,2146,2147
2355,2997,2784,2785
2356,2785,2998,2997
2357,2784,2783,2576
2358,2576,2577,2784
2359,2784,2997,2996
2360,2996,2783,2784
2361,2994,2781,2782
2362,2782,2995,2994
2363,2575,2576,2783
2364,2783,2782,2575
2365,2996,2995,2782
2366,2782,2783,2996
2367,2149,1923,1924
2368,1924,2150,2149
2369,2480,2479,2151
2370,2151,2152,2480
2371,2576,2478,2479
2372,2479,2577,2576
2373,2479,2478,2150
2374,2150,2151,2479
2375,2576,2575,2477
2376,2477,2478,2576
2377,2477,2149,2150
2378,2150,2478,2477
2379,544,655,654
2380,654,543,544
2381,864,863,655
2382,655,656,864
2383,655,544,545
2384,545,656,655
2385,862,654,655
2386,655,863,862
2387,86,84,334
2388,334,335,86
2389,1288,1287,1075
2390,1075,1076,1288
2391,865,1075,1074
2392,1074,864,865
2393,1075,865,866
2394,866,1076,1075
2395,1286,1074,1075
2396,1075,1287,1286
2397,1287,1288,1513
2398,1513,1512,1287
2399,1285,1284,1072
2400,1072,1073,1285
2401,864,1074,1073
2402,1073,863,864
2403,862,863,1073
2404,1073,1072,862
2405,1073,1074,1286
2406,1286,1285,1073
2407,1285,1510,1509
2408,1509,1284,1285
2409,1510,1285,1286
2410,1286,1511,1510
2411,2998,2785,2786
2412,2786,2999,2998
2413,2580,2787,2786
2414,2786,2579,2580
2415,3000,2999,2786
2416,2786,2787,3000
2417,2788,2789,3002
2418,3002,3001,2788
2419,2581,2788,2787
2420,2787,2580,2581
2421,3001,3000,2787
2422,2787,2788,3001
2423,2488,2487,2159
2424,2159,2160,2488
2425,2585,2584,2486
2426,2486,2487,2585
2427,2487,2486,2158
2428,2158,2159,2487
2429,2157,1931,1932
2430,1932,2158,2157
2431,2584,2583,2485
2432,2485,2486,2584
2433,2485,2484,2156
2434,2156,2157,2485
2435,2157,2158,2486
2436,2486,2485,2157
2437,2580,2579,2481
2438,2481,2482,2580
2439,2155,2154,1928
2440,1928,1929,2155
2441,2581,2580,2482
2442,2482,2483,2581
2443,2155,2483,2482
2444,2482,2154,2155
2445,2245,2343,2344
2446,2344,2246,2245
2447,2345,2344,2676
2448,2676,2677,2345
2449,2344,2343,2675
2450,2675,2676,2344
2451,2247,2246,2344
2452,2344,2345,2247
2453,3098,2890,2889
2454,2889,3097,3098
2455,2678,2890,2891
2456,2891,2679,2678
2457,3308,3309,3410
2458,3410,3409,3308
2459,2995,3308,3307
2460,3307,2994,2995
2461,3525,3208,3207
2462,3207,3524,3525
2463,3209,3101,3100
2464,3100,3208,3209
2465,3205,3206,3098
2466,3098,3097,3205
2467,3206,3523,3524
2468,3524,3207,3206
2469,2891,2892,2680
2470,2680,2679,2891
2471,2893,2892,3100
2472,3100,3101,2893
2473,2346,2347,2249
2474,2249,2248,2346
2475,2248,2247,2345
2476,2345,2346,2248
2477,3104,3105,2897
2478,2897,2896,3104
2479,2684,2683,2895
2480,2895,2896,2684
2481,3313,3314,3415
2482,3415,3414,3313
2483,3314,3001,3002
2484,3002,3315,3314
2485,3211,3210,3527
2486,3527,3528,3211
2487,3102,3101,3209
2488,3209,3210,3102
2489,3104,3212,3213
2490,3213,3105,3104
2491,3529,3212,3211
2492,3211,3528,3529
2493,2682,2894,2895
2494,2895,2683,2682
2495,2893,3101,3102
2496,3102,2894,2893
2497,2257,2256,2354
2498,2354,2355,2257
2499,2255,2353,2354
2500,2354,2256,2255
2501,2254,2253,2351
2502,2351,2352,2254
2503,2352,2353,2255
2504,2255,2254,2352
2505,1292,1080,1081
2506,1081,1293,1292
2507,872,1082,1081
2508,1081,871,872
2509,870,871,1081
2510,1081,1080,870
2511,1294,1293,1081
2512,1081,1082,1294
2513,1293,1518,1517
2514,1517,1292,1293
2515,1518,1293,1294
2516,1294,1519,1518
2517,555,666,665
2518,665,554,555
2519,872,664,665
2520,665,873,872
2521,553,554,665
2522,665,664,553
2523,874,873,665
2524,665,666,874
2525,47,46,345
2526,345,346,47
2527,1296,1295,1083
2528,1083,1084,1296
2529,872,873,1083
2530,1083,1082,872
2531,1294,1082,1083
2532,1083,1295,1294
2533,874,1084,1083
2534,1083,873,874
2535,1521,1520,1295
2536,1295,1296,1521
2537,1294,1295,1520
2538,1520,1519,1294
2539,2489,2488,2160
2540,2160,2161,2489
2541,2588,2587,2489
2542,2489,2490,2588
2543,2161,2162,2490
2544,2490,2489,2161
2545,1937,2163,2162
2546,2162,1936,1937
2547,2588,2490,2491
2548,2491,2589,2588
2549,3014,3013,2800
2550,2800,2801,3014
2551,2592,2593,2800
2552,2800,2799,2592
2553,3012,2799,2800
2554,2800,3013,3012
2555,3010,2797,2798
2556,2798,3011,3010
2557,2592,2799,2798
2558,2798,2591,2592
2559,3012,3011,2798
2560,2798,2799,3012
2561,2165,1939,1940
2562,1940,2166,2165
2563,2592,2494,2495
2564,2495,2593,2592
2565,2495,2494,2166
2566,2166,2167,2495
2567,2493,2492,2164
2568,2164,2165,2493
2569,2592,2591,2493
2570,2493,2494,2592
2571,2494,2493,2165
2572,2165,2166,2494
2573,559,560,671
2574,671,670,559
2575,880,879,671
2576,671,672,880
2577,561,672,671
2578,671,560,561
2579,878,670,671
2580,671,879,878
2581,52,51,350
2582,350,351,52
2583,1304,1303,1091
2584,1091,1092,1304
2585,880,881,1091
2586,1091,1090,880
2587,882,1092,1091
2588,1091,881,882
2589,1302,1090,1091
2590,1091,1303,1302
2591,1304,1529,1528
2592,1528,1303,1304
2593,1302,1303,1528
2594,1528,1527,1302
2595,1300,1088,1089
2596,1089,1301,1300
2597,880,1090,1089
2598,1089,879,880
2599,878,879,1089
2600,1089,1088,878
2601,1302,1301,1089
2602,1089,1090,1302
2603,1526,1525,1300
2604,1300,1301,1526
2605,1302,1527,1526
2606,1526,1301,1302
2607,3014,2801,2802
2608,2802,3015,3014
2609,2596,2803,2802
2610,2802,2595,2596
2611,3016,3015,2802
2612,2802,2803,3016
2613,3018,3017,2804
2614,2804,2805,3018
2615,2596,2597,2804
2616,2804,2803,2596
2617,3016,2803,2804
2618,2804,3017,3016
2619,2600,2502,2503
2620,2503,2601,2600
2621,2503,2502,2174
2622,2174,2175,2503
2623,2173,1947,1948
2624,1948,2174,2173
2625,2600,2599,2501
2626,2501,2502,2600
2627,2501,2500,2172
2628,2172,2173,2501
2629,2502,2501,2173
2630,2173,2174,2502
2631,2596,2595,2497
2632,2497,2498,2596
2633,2498,2497,2169
2634,2169,2170,2498
2635,1944,1945,2171
2636,2171,2170,1944
2637,2596,2498,2499
2638,2499,2597,2596
2639,2360,2262,2261
2640,2261,2359,2360
2641,2262,2360,2361
2642,2361,2263,2262
2643,3114,2906,2905
2644,2905,3113,3114
2645,2694,2906,2907
2646,2907,2695,2694
2647,3325,3426,3425
2648,3425,3324,3325
2649,3324,3323,3010
2650,3010,3011,3324
2651,3223,3540,3541
2652,3541,3224,3223
2653,3225,3117,3116
2654,3116,3224,3225
2655,3221,3222,3114
2656,3114,3113,3221
2657,3539,3540,3223
2658,3223,3222,3539
2659,2907,2908,2696
2660,2696,2695,2907
2661,2909,2908,3116
2662,3116,3117,2909
2663,2265,2264,2362
2664,2362,2363,2265
2665,2263,2361,2362
2666,2362,2264,2263
2667,2363,2362,2694
2668,2694,2695,2363
2669,1185,1184,1404
2670,1404,1405,1185
2671,3120,3121,2913
2672,2913,2912,3120
2673,2700,2699,2911
2674,2911,2912,2700
2675,3329,3330,3431
2676,3431,3430,3329
2677,3331,3330,3017
2678,3017,3018,3331
2679,3016,3017,3330
2680,3330,3329,3016
2681,3227,3226,3543
2682,3543,3544,3227
2683,3118,3117,3225
2684,3225,3226,3118
2685,3120,3228,3229
2686,3229,3121,3120
2687,3545,3228,3227
2688,3227,3544,3545
2689,2698,2910,2911
2690,2911,2699,2698
2691,2909,3117,3118
2692,3118,2910,2909
2693,2273,2272,2370
2694,2370,2371,2273
2695,2271,2369,2370
2696,2370,2272,2271
2697,2269,2367,2368
2698,2368,2270,2269
2699,2271,2270,2368
2700,2368,2369,2271
2701,1308,1096,1097
2702,1097,1309,1308
2703,888,1098,1097
2704,1097,887,888
2705,886,887,1097
2706,1097,1096,886
2707,1310,1309,1097
2708,1097,1098,1310
2709,1534,1533,1308
2710,1308,1309,1534
2711,571,682,681
2712,681,570,571
2713,888,680,681
2714,681,889,888
2715,569,570,681
2716,681,680,569
2717,890,889,681
2718,681,682,890
2719,63,62,361
2720,361,362,63
2721,1312,1311,1099
2722,1099,1100,1312
2723,888,889,1099
2724,1099,1098,888
2725,1310,1098,1099
2726,1099,1311,1310
2727,890,1100,1099
2728,1099,889,890
2729,1537,1536,1311
2730,1311,1312,1537
2731,1310,1311,1536
2732,1536,1535,1310
2733,2604,2603,2505
2734,2505,2506,2604
2735,1952,1953,2179
2736,2179,2178,1952
2737,2604,2506,2507
2738,2507,2605,2604
2739,2508,2507,2179
2740,2179,2180,2508
2741,2507,2506,2178
2742,2178,2179,2507
2743,3030,3029,2816
2744,2816,2817,3030
2745,2608,2609,2816
2746,2816,2815,2608
2747,3028,2815,2816
2748,2816,3029,3028
2749,3026,2813,2814
2750,2814,3027,3026
2751,2608,2815,2814
2752,2814,2607,2608
2753,3028,3027,2814
2754,2814,2815,3028
2755,2181,1955,1956
2756,1956,2182,2181
2757,2512,2511,2183
2758,2183,2184,2512
2759,2608,2510,2511
2760,2511,2609,2608
2761,2511,2510,2182
2762,2182,2183,2511
2763,2608,2607,2509
2764,2509,2510,2608
2765,2510,2509,2181
2766,2181,2182,2510
2767,575,576,687
2768,687,686,575
2769,896,895,687
2770,687,688,896
2771,577,688,687
2772,687,576,577
2773,894,686,687
2774,687,895,894
2775,68,67,366
2776,366,367,68
2777,1319,1107,1108
2778,1108,1320,1319
2779,1107,1106,896
2780,896,897,1107
2781,897,898,1108
2782,1108,1107,897
2783,1107,1319,1318
2784,1318,1106,1107
2785,1319,1320,1545
2786,1545,1544,1319
2787,1316,1104,1105
2788,1105,1317,1316
2789,896,1106,1105
2790,1105,895,896
2791,894,895,1105
2792,1105,1104,894
2793,1318,1317,1105
2794,1105,1106,1318
2795,1542,1541,1316
2796,1316,1317,1542
2797,1318,1543,1542
2798,1542,1317,1318
2799,3030,2817,2818
2800,2818,3031,3030
2801,2612,2819,2818
2802,2818,2611,2612
2803,3032,3031,2818
2804,2818,2819,3032
2805,3034,3033,2820
2806,2820,2821,3034
2807,2612,2613,2820
2808,2820,2819,2612
2809,3032,2819,2820
2810,2820,3033,3032
2811,2520,2519,2191
2812,2191,2192,2520
2813,2617,2616,2518
2814,2518,2519,2617
2815,2519,2518,2190
2816,2190,2191,2519
2817,2189,1963,1964
2818,1964,2190,2189
2819,2517,2518,2616
2820,2616,2615,2517
2821,2517,2516,2188
2822,2188,2189,2517
2823,2518,2517,2189
2824,2189,2190,2518
2825,2612,2611,2513
2826,2513,2514,2612
2827,1960,1961,2187
2828,2187,2186,1960
2829,2612,2514,2515
2830,2515,2613,2612
2831,2515,2514,2186
2832,2186,2187,2515
2833,2277,2375,2376
2834,2376,2278,2277
2835,2377,2376,2708
2836,2708,2709,2377
2837,2376,2375,2707
2838,2707,2708,2376
2839,2279,2278,2376
2840,2376,2377,2279
2841,3130,2922,2921
2842,2921,3129,3130
2843,2710,2922,2923
2844,2923,2711,2710
2845,3341,3442,3441
2846,3441,3340,3341
2847,3340,3339,3026
2848,3026,3027,3340
2849,3239,3556,3557
2850,3557,3240,3239
2851,3241,3133,3132
2852,3132,3240,3241
2853,3237,3238,3130
2854,3130,3129,3237
2855,3555,3556,3239
2856,3239,3238,3555
2857,2923,2924,2712
2858,2712,2711,2923
2859,2925,2924,3132
2860,3132,3133,2925
2861,2281,2280,2378
2862,2378,2379,2281
2863,2279,2377,2378
2864,2378,2280,2279
2865,3136,3137,2929
2866,2929,2928,3136
2867,2716,2715,2927
2868,2927,2928,2716
2869,3345,3346,3447
2870,3447,3446,3345
2871,3347,3346,3033
2872,3033,3034,3347
2873,3243,3242,3559
2874,3559,3560,3243
2875,3134,3133,3241
2876,3241,3242,3134
2877,3136,3244,3245
2878,3245,3137,3136
2879,3561,3244,3243
2880,3243,3560,3561
2881,2714,2926,2927
2882,2927,2715,2714
2883,2925,3133,3134
2884,3134,2926,2925
2885,2288,2386,2387
2886,2387,2289,2288
2887,2386,2288,2287
2888,2287,2385,2386
2889,2285,2383,2384
2890,2384,2286,2285
2891,2287,2286,2384
2892,2384,2385,2287
2893,1324,1112,1113
2894,1113,1325,1324
2895,903,904,1114
2896,1114,1113,903
2897,1113,1112,902
2898,902,903,1113
2899,1326,1325,1113
2900,1113,1114,1326
2901,1325,1550,1549
2902,1549,1324,1325
2903,1550,1325,1326
2904,1326,1551,1550
2905,587,698,697
2906,697,586,587
2907,697,905,904
2908,904,696,697
2909,585,586,697
2910,697,696,585
2911,905,697,698
2912,698,906,905
2913,87,377,378
2914,378,85,87
2915,1328,1327,1115
2916,1115,1116,1328
2917,1115,1114,904
2918,904,905,1115
2919,1326,1114,1115
2920,1115,1327,1326
2921,905,906,1116
2922,1116,1115,905
2923,1553,1552,1327
2924,1327,1328,1553
2925,1326,1327,1552
2926,1552,1551,1326
2927,2521,2520,2192
2928,2192,2193,2521
2929,2620,2619,2521
2930,2521,2522,2620
2931,2193,2194,2522
2932,2522,2521,2193
2933,1968,1969,2195
2934,2195,2194,1968
2935,2620,2522,2523
2936,2523,2621,2620
2937,3045,2832,2833
2938,2833,3046,3045
2939,2624,2625,2832
2940,2832,2831,2624
2941,2832,3045,3044
2942,3044,2831,2832
2943,3042,2829,2830
2944,2830,3043,3042
2945,2624,2831,2830
2946,2830,2623,2624
2947,3044,3043,2830
2948,2830,2831,3044
2949,2197,1971,1972
2950,1972,2198,2197
2951,2624,2526,2527
2952,2527,2625,2624
2953,2527,2526,2198
2954,2198,2199,2527
2955,2525,2524,2196
2956,2196,2197,2525
2957,2623,2525,2526
2958,2526,2624,2623
2959,2197,2198,2526
2960,2526,2525,2197
2961,591,592,703
2962,703,702,591
2963,912,911,703
2964,703,704,912
2965,593,704,703
2966,703,592,593
2967,910,702,703
2968,703,911,910
2969,75,382,383
2970,383,73,75
2971,1335,1123,1124
2972,1124,1336,1335
2973,912,913,1123
2974,1123,1122,912
2975,914,1124,1123
2976,1123,913,914
2977,1123,1335,1334
2978,1334,1122,1123
2979,1335,1336,1561
2980,1561,1560,1335
2981,1560,1559,1334
2982,1334,1335,1560
2983,1332,1120,1121
2984,1121,1333,1332
2985,1121,911,912
2986,912,1122,1121
2987,911,1121,1120
2988,1120,910,911
2989,1334,1333,1121
2990,1121,1122,1334
2991,1558,1557,1332
2992,1332,1333,1558
2993,1333,1334,1559
2994,1559,1558,1333
2995,2834,3047,3046
2996,3046,2833,2834
2997,2628,2835,2834
2998,2834,2627,2628
2999,3047,2834,2835
3000,2835,3048,3047
3001,3049,2836,2837
3002,2837,3050,3049
3003,2836,2835,2628
3004,2628,2629,2836
3005,2836,3049,3048
3006,3048,2835,2836
3007,2632,2534,2535
3008,2535,2633,2632
3009,2535,2534,2206
3010,2206,2207,2535
3011,2205,1979,1980
3012,1980,2206,2205
3013,2632,2631,2533
3014,2533,2534,2632
3015,2533,2532,2204
3016,2204,2205,2533
3017,2534,2533,2205
3018,2205,2206,2534
3019,2628,2627,2529
3020,2529,2530,2628
3021,2530,2529,2201
3022,2201,2202,2530
3023,1977,2203,2202
3024,2202,1976,1977
3025,2628,2530,2531
3026,2531,2629,2628
3027,2294,2293,2391
3028,2391,2392,2294
3029,2392,2393,2295
3030,2295,2294,2392
3031,3146,2938,2937
3032,2937,3145,3146
3033,2938,2939,2727
3034,2727,2726,2938
3035,3357,3458,3457
3036,3457,3356,3357
3037,3356,3355,3042
3038,3042,3043,3356
3039,3255,3572,3573
3040,3573,3256,3255
3041,3257,3149,3148
3042,3148,3256,3257
3043,3253,3254,3146
3044,3146,3145,3253
3045,3254,3571,3572
3046,3572,3255,3254
3047,2939,2940,2728
3048,2728,2727,2939
3049,2941,2940,3148
3050,3148,3149,2941
3051,2394,2395,2297
3052,2297,2296,2394
3053,2296,2295,2393
3054,2393,2394,2296
3055,2394,2726,2727
3056,2727,2395,2394
3057,1217,1216,1436
3058,1436,1437,1217
3059,3152,3153,2945
3060,2945,2944,3152
3061,2732,2731,2943
3062,2943,2944,2732
3063,3463,3462,3361
3064,3361,3362,3463
3065,3363,3362,3049
3066,3049,3050,3363
3067,3048,3049,3362
3068,3362,3361,3048
3069,3259,3258,3575
3070,3575,3576,3259
3071,3150,3149,3257
3072,3257,3258,3150
3073,3152,3260,3261
3074,3261,3153,3152
3075,3260,3259,3576
3076,3576,3577,3260
3077,2730,2942,2943
3078,2943,2731,2730
3079,3150,2942,2941
3080,2941,3149,3150
3081,2304,2402,2403
3082,2403,2305,2304
3083,2402,2304,2303
3084,2303,2401,2402
3085,2301,2399,2400
3086,2400,2302,2301
3087,2303,2302,2400
3088,2400,2401,2303
3089,1340,1128,1129
3090,1129,1341,1340
3091,920,1130,1129
3092,1129,919,920
3093,918,919,1129
3094,1129,1128,918
3095,1342,1341,1129
3096,1129,1130,1342
3097,1566,1565,1340
3098,1340,1341,1566
3099,603,714,713
3100,713,602,603
3101,713,921,920
3102,920,712,713
3103,601,602,713
3104,713,712,601
3105,921,713,714
3106,714,922,921
3107,24,393,394
3108,394,22,24
3109,1344,1343,1131
3110,1131,1132,1344
3111,1131,1130,920
3112,920,921,1131
3113,1342,1130,1131
3114,1131,1343,1342
3115,921,922,1132
3116,1132,1131,921
3117,1568,1343,1344
3118,1344,1569,1568
3119,1343,1568,1567
3120,1567,1342,1343
3121,2636,2635,2537
3122,2537,2538,2636
3123,1984,1985,2211
3124,2211,2210,1984
3125,2636,2538,2539
3126,2539,2637,2636
3127,2540,2539,2211
3128,2211,2212,2540
3129,2539,2538,2210
3130,2210,2211,2539
3131,3062,3061,2848
3132,2848,2849,3062
3133,2641,2848,2847
3134,2847,2640,2641
3135,3060,2847,2848
3136,2848,3061,3060
3137,3059,3058,2845
3138,2845,2846,3059
3139,2640,2847,2846
3140,2846,2639,2640
3141,2846,2847,3060
3142,3060,3059,2846
3143,2213,1987,1988
3144,1988,2214,2213
3145,2449,2447,2215
3146,2215,2216,2449
3147,2641,2640,2542
3148,2542,2447,2641
3149,2215,2447,2542
3150,2542,2214,2215
3151,2639,2541,2542
3152,2542,2640,2639
3153,2213,2214,2542
3154,2542,2541,2213
3155,607,608,719
3156,719,718,607
3157,927,719,720
3158,720,928,927
3159,609,720,719
3160,719,608,609
3161,719,927,926
3162,926,718,719
3163,14,398,399
3164,399,12,14
3165,1351,1139,1140
3166,1140,1352,1351
3167,928,929,1139
3168,1139,1138,928
3169,930,1140,1139
3170,1139,929,930
3171,1139,1351,1350
3172,1350,1138,1139
3173,1480,1474,1351
3174,1351,1352,1480
3175,1349,1348,1136
3176,1136,1137,1349
3177,928,1138,1137
3178,1137,927,928
3179,926,927,1137
3180,1137,1136,926
3181,1137,1138,1350
3182,1350,1349,1137
3183,1349,1470,1573
3184,1573,1348,1349
3185,1350,1472,1470
3186,1470,1349,1350
3187,2850,3063,3062
3188,3062,2849,2850
3189,2643,2644,2851
3190,2851,2850,2643
3191,3063,2850,2851
3192,2851,3064,3063
3193,3065,2852,2853
3194,2853,3066,3065
3195,2644,2645,2852
3196,2852,2851,2644
3197,2852,3065,3064
3198,3064,2851,2852
3199,2231,2546,2463
3200,2463,2227,2231
3201,2463,2649,2648
3202,2648,2461,2463
3203,2227,2463,2461
3204,2461,2223,2227
3205,2221,1995,1904
3206,1904,2223,2221
3207,2461,2648,2647
3208,2647,2459,2461
3209,2459,2457,2220
3210,2220,2221,2459
3211,2223,2461,2459
3212,2459,2221,2223
3213,2453,2644,2643
3214,2643,2451,2453
3215,1992,1993,2219
3216,2219,2218,1992
3217,2455,2645,2644
3218,2644,2453,2455
3219,2455,2453,2218
3220,2218,2219,2455
3221,2435,2310,2309
3222,2309,2437,2435
3223,2433,2435,2740
3224,2740,2741,2433
3225,2435,2437,2739
3226,2739,2740,2435
3227,2433,2311,2310
3228,2310,2435,2433
3229,2954,2953,3161
3230,3161,3162,2954
3231,2742,2954,2955
3232,2955,2743,2742
3233,3372,3373,3474
3234,3474,3473,3372
3235,3059,3372,3371
3236,3371,3058,3059
3237,3271,3588,3589
3238,3589,3272,3271
3239,3272,3273,3165
3240,3165,3164,3272
3241,3269,3270,3162
3242,3162,3161,3269
3243,3270,3587,3588
3244,3588,3271,3270
3245,2955,2956,2744
3246,2744,2743,2955
3247,2957,2956,3164
3248,3164,3165,2957
3249,2429,2313,2312
3250,2312,2431,2429
3251,2431,2312,2311
3252,2311,2433,2431
3253,3168,3169,2961
3254,2961,2960,3168
3255,2748,2747,2959
3256,2959,2960,2748
3257,3378,3479,3478
3258,3478,3377,3378
3259,3065,3066,3379
3260,3379,3378,3065
3261,3274,3591,3592
3262,3592,3275,3274
3263,3166,3165,3273
3264,3273,3274,3166
3265,3168,3276,3277
3266,3277,3169,3168
3267,3592,3593,3276
3268,3276,3275,3592
3269,2746,2958,2959
3270,2959,2747,2746
3271,2957,3165,3166
3272,3166,2958,2957
3273,2324,2415,2413
3274,2413,2322,2324
3275,2326,2417,2415
3276,2415,2324,2326
3277,2331,2421,2419
3278,2419,2328,2331
3279,2328,2419,2417
3280,2417,2326,2328
3281,3389,3390,3602
3282,3602,3601,3389
3283,3405,3406,3618
3284,3618,3617,3405
3285,3934,3617,3618
3286,3618,3935,3934
3287,3617,3934,3933
3288,3933,3616,3617
3289,3633,3421,3422
3290,3422,3634,3633
3291,3951,3950,3633
3292,3633,3634,3951
3293,3437,3438,3650
3294,3650,3649,3437
3295,3648,3649,3966
3296,3966,3965,3648
3297,3665,3453,3454
3298,3454,3666,3665
3299,3469,3470,3682
3300,3682,3681,3469
3301,408,497,495
3302,495,404,408
3303,404,495,493
3304,493,402,404
3305,3705,3497,3499
3306,3499,3788,3705
3307,4538,4009,4010
3308,4010,4535,4538
3309,82,401,403
3310,403,43,82
3311,3287,3286,2973
3312,2973,2974,3287
3313,3387,3486,3284
3314,3284,3286,3387
3315,2973,3286,3284
3316,3284,2971,2973
3317,3614,3402,3403
3318,3403,3615,3614
3319,3931,3614,3615
3320,3615,3932,3931
3321,3933,3932,3615
3322,3615,3616,3933
3323,3630,3418,3419
3324,3419,3631,3630
3325,3646,3434,3435
3326,3435,3647,3646
3327,3963,3646,3647
3328,3647,3964,3963
3329,3662,3450,3451
3330,3451,3663,3662
3331,3980,3979,3662
3332,3662,3663,3980
3333,3678,3466,3467
3334,3467,3679,3678
3335,3997,3996,3679
3336,3679,3680,3997
3337,3483,3695,3694
3338,3694,3482,3483
3339,83,71,404
3340,404,402,83
3341,3071,3384,3383
3342,3383,3070,3071
3343,3485,3384,3285
3344,3285,3487,3485
3345,3704,3787,3502
3346,3502,3501,3704
3347,4509,4127,4126
3348,4126,4625,4509
3349,4126,4508,4625
3350,3395,3607,3606
3351,3606,3394,3395
3352,3411,3623,3622
3353,3622,3410,3411
3354,3939,3622,3623
3355,3623,3940,3939
3356,3941,3940,3623
3357,3623,3624,3941
3358,3427,3639,3638
3359,3638,3426,3427
3360,3955,3638,3639
3361,3639,3956,3955
3362,3443,3655,3654
3363,3654,3442,3443
3364,3973,3972,3655
3365,3655,3656,3973
3366,3671,3670,3458
3367,3458,3459,3671
3368,3687,3686,3474
3369,3474,3475,3687
3370,1257,1483,1485
3371,1485,1255,1257
3372,2117,2106,2101
3373,2101,2224,2117
3374,2224,2127,2117
3375,2129,1996,1901
3376,1901,2228,2129
3377,1891,1883,1996
3378,1996,2101,1891
3379,3609,3397,3398
3380,3398,3610,3609
3381,3926,3925,3608
3382,3608,3609,3926
3383,3625,3413,3414
3384,3414,3626,3625
3385,3642,3641,3429
3386,3429,3430,3642
3387,3959,3958,3641
3388,3641,3642,3959
3389,3957,3640,3641
3390,3641,3958,3957
3391,3658,3657,3445
3392,3445,3446,3658
3393,3975,3974,3657
3394,3657,3658,3975
3395,3973,3656,3657
3396,3657,3974,3973
3397,3674,3673,3461
3398,3461,3462,3674
3399,3477,3478,3690
3400,3690,3689,3477
3401,4006,3689,3690
3402,3690,4007,4006
3403,1355,1256,1486
3404,1486,1484,1355
3405,2118,2128,2225
3406,2118,2225,2102
3407,2102,2107,2118
3408,2130,2229,1902
3409,1902,1997,2130
3410,1892,2102,1997
3411,1997,1884,1892
3412,2130,1997,2102
3413,2102,2225,2130
3414,2225,2340,2130
3415,2120,2104,2108
3416,2108,2122,2120
3417,3789,3791,3504
3418,3504,3503,3789
3419,3789,3787,3854
3420,3854,3856,3789
3421,3391,3603,3602
3422,3602,3390,3391
3423,3912,3602,3603
3424,3603,3910,3912
3425,3791,3794,3505
3426,3505,3504,3791
3427,3796,3794,3859
3428,3859,3862,3796
3429,3862,3859,4132
3430,4132,4133,3862
3431,4512,4132,4131
3432,4131,4628,4512
3433,4131,4511,4628
3434,3915,3912,4018
3435,4018,4017,3915
3436,4338,4220,4016
3437,4221,4338,4016
3438,4016,4017,4221
3439,3917,3915,4017
3440,4017,4016,3917
3441,4221,4017,4018
3442,4018,4339,4221
3443,4018,4222,4339
3444,3856,3854,4127
3445,4127,4129,3856
3446,4511,4131,4129
3447,4129,4627,4511
3448,4129,4510,4627
3449,3716,3520,3519
3450,3519,3715,3716
3451,3887,3889,3715
3452,3715,3714,3887
3453,3407,3619,3618
3454,3618,3406,3407
3455,3935,3618,3619
3456,3619,3936,3935
3457,3521,3520,3716
3458,3716,3717,3521
3459,3893,3895,3718
3460,3718,3717,3893
3461,3895,3893,4165
3462,4165,4167,3895
3463,4553,4444,4165
3464,4443,4553,4165
3465,4165,4163,4443
3466,3935,4034,4033
3467,4033,3934,3935
3468,4354,4236,4032
3469,4237,4354,4032
3470,4032,4033,4237
3471,3933,3934,4033
3472,4033,4032,3933
3473,4355,4237,4033
3474,4238,4355,4033
3475,4033,4034,4238
3476,4159,4161,3889
3477,3889,3887,4159
3478,4552,4443,4163
3479,4442,4552,4163
3480,4163,4161,4442
3481,3731,3732,3536
3482,3536,3535,3731
3483,3730,3813,3814
3484,3814,3731,3730
3485,3423,3635,3634
3486,3634,3422,3423
3487,3951,3634,3635
3488,3635,3952,3951
3489,3953,3952,3635
3490,3635,3636,3953
3491,3733,3537,3536
3492,3536,3732,3733
3493,3816,3817,3734
3494,3734,3733,3816
3495,4197,4199,3817
3496,3817,3816,4197
3497,4569,4460,4197
3498,4459,4569,4197
3499,4197,4195,4459
3500,3950,3951,4050
3501,4050,4049,3950
3502,4252,4048,4049
3503,4049,4370,4252
3504,4049,4253,4370
3505,4049,4048,3949
3506,3949,3950,4049
3507,4253,4049,4050
3508,4050,4371,4253
3509,4050,4254,4371
3510,4191,4193,3814
3511,3814,3813,4191
3512,4568,4459,4195
3513,4458,4568,4195
3514,4195,4193,4458
3515,3748,3552,3551
3516,3551,3747,3748
3517,3746,3829,3830
3518,3830,3747,3746
3519,3439,3651,3650
3520,3650,3438,3439
3521,3967,3650,3651
3522,3651,3968,3967
3523,3969,3968,3651
3524,3651,3652,3969
3525,3553,3552,3748
3526,3748,3749,3553
3527,3750,3749,3832
3528,3832,3833,3750
3529,3832,4122,4123
3530,4123,3833,3832
3531,4328,4122,4121
3532,4121,4330,4328
3533,3967,4066,4065
3534,4065,3966,3967
3535,4386,4268,4064
3536,4269,4386,4064
3537,4064,4065,4269
3538,4064,3965,3966
3539,3966,4065,4064
3540,4387,4269,4065
3541,4270,4387,4065
3542,4065,4066,4270
3543,3829,4119,4120
3544,4120,3830,3829
3545,4475,4330,4121
3546,4121,4584,4475
3547,4474,4584,4121
3548,4320,4474,4121
3549,4121,4120,4320
3550,3764,3568,3567
3551,3567,3763,3764
3552,3762,3845,3846
3553,3846,3763,3762
3554,3455,3667,3666
3555,3666,3454,3455
3556,3569,3568,3764
3557,3764,3765,3569
3558,3848,3849,3766
3559,3766,3765,3848
3560,4184,3849,3848
3561,3848,4186,4184
3562,4601,4492,4186
3563,4491,4601,4186
3564,4186,4188,4491
3565,3983,4082,4081
3566,4081,3982,3983
3567,4402,4284,4080
3568,4285,4402,4080
3569,4080,4081,4285
3570,3981,3982,4081
3571,4081,4080,3981
3572,4403,4285,4081
3573,4286,4403,4081
3574,4081,4082,4286
3575,4190,3846,3845
3576,3845,4192,4190
3577,4600,4491,4188
3578,4490,4600,4188
3579,4188,4190,4490
3580,3583,3779,3780
3581,3780,3584,3583
3582,3886,3779,3778
3583,3778,3888,3886
3584,3471,3683,3682
3585,3682,3470,3471
3586,3585,3584,3780
3587,3780,3781,3585
3588,3880,3782,3781
3589,3781,3882,3880
3590,3882,4154,4152
3591,4152,3880,3882
3592,4617,4533,4154
3593,4507,4617,4154
3594,4154,4156,4507
3595,3999,4098,4097
3596,4097,3998,3999
3597,4418,4300,4096
3598,4301,4418,4096
3599,4096,4097,4301
3600,3997,3998,4097
3601,4097,4096,3997
3602,4419,4301,4097
3603,4302,4419,4097
3604,4097,4098,4302
3605,3888,4160,4158
3606,4158,3886,3888
3607,4616,4507,4156
3608,4506,4616,4156
3609,4156,4158,4506
3610,495,497,827
3611,827,828,495
3612,416,406,402
3613,402,493,416
3614,726,728,510
3615,510,514,726
3616,934,938,728
3617,728,726,934
3618,209,405,401
3619,209,401,82
3620,82,102,209
3621,2761,2974,2973
3622,2973,2759,2761
3623,2652,2650,2759
3624,2759,2859,2652
3625,2859,2759,2973
3626,2973,2971,2859
3627,2859,2862,2654
3628,2654,2652,2859
3629,2969,2862,2859
3630,2859,2971,2969
3631,3185,3077,3076
3632,3076,3184,3185
3633,3184,3182,3494
3634,3494,3501,3184
3635,2869,2868,3076
3636,3076,3077,2869
3637,2755,2866,2868
3638,2868,2656,2755
3639,2757,2864,2866
3640,2866,2755,2757
3641,3486,3492,3385
3642,3385,3284,3486
3643,3489,3494,3182
3644,3182,3179,3489
3645,3401,3402,3614
3646,3614,3613,3401
3647,3931,3930,3613
3648,3613,3614,3931
3649,3517,3516,3712
3650,3712,3713,3517
3651,3885,3887,3714
3652,3714,3713,3885
3653,3515,3711,3712
3654,3712,3516,3515
3655,3879,3881,3711
3656,3711,3710,3879
3657,3881,3879,4151
3658,4151,4153,3881
3659,4548,4439,4155
3660,4532,4548,4155
3661,4155,4153,4532
3662,3931,3932,4031
3663,4031,4030,3931
3664,4353,4235,4031
3665,4236,4353,4031
3666,4031,4032,4236
3667,3933,4032,4031
3668,4031,3932,3933
3669,4352,4234,4030
3670,4235,4352,4030
3671,4030,4031,4235
3672,3887,3885,4157
3673,4157,4159,3887
3674,4549,4440,4157
3675,4439,4549,4157
3676,4157,4155,4439
3677,3629,3417,3418
3678,3418,3630,3629
3679,3947,3946,3629
3680,3629,3630,3947
3681,3945,3628,3629
3682,3629,3946,3945
3683,3729,3533,3532
3684,3532,3728,3729
3685,3812,3813,3730
3686,3730,3729,3812
3687,3531,3727,3728
3688,3728,3532,3531
3689,3726,3809,3810
3690,3810,3727,3726
3691,4183,4185,3810
3692,3810,3809,4183
3693,4564,4455,4187
3694,4454,4564,4187
3695,4187,4185,4454
3696,3947,3948,4047
3697,4047,4046,3947
3698,4251,4047,4048
3699,4048,4369,4251
3700,4048,4252,4369
3701,3949,4048,4047
3702,4047,3948,3949
3703,4368,4250,4046
3704,4251,4368,4046
3705,4046,4047,4251
3706,4189,4191,3813
3707,3813,3812,4189
3708,4565,4456,4189
3709,4455,4565,4189
3710,4189,4187,4455
3711,3433,3434,3646
3712,3646,3645,3433
3713,3963,3962,3645
3714,3645,3646,3963
3715,3961,3644,3645
3716,3645,3962,3961
3717,3549,3548,3744
3718,3744,3745,3549
3719,3828,3829,3746
3720,3746,3745,3828
3721,3547,3743,3744
3722,3744,3548,3547
3723,3742,3825,3826
3724,3826,3743,3742
3725,4115,4116,3826
3726,3826,3825,4115
3727,4327,4329,4117
3728,4117,4116,4327
3729,3963,3964,4063
3730,4063,4062,3963
3731,4385,4267,4063
3732,4268,4385,4063
3733,4063,4064,4268
3734,3965,4064,4063
3735,4063,3964,3965
3736,4384,4266,4062
3737,4267,4384,4062
3738,4062,4063,4267
3739,4119,3829,3828
3740,3828,4118,4119
3741,4472,4318,4118
3742,4118,4581,4472
3743,4471,4581,4118
3744,4329,4471,4118
3745,4118,4117,4329
3746,3449,3450,3662
3747,3662,3661,3449
3748,3565,3564,3760
3749,3760,3761,3565
3750,3844,3845,3762
3751,3762,3761,3844
3752,3563,3759,3760
3753,3760,3564,3563
3754,3758,3841,3842
3755,3842,3759,3758
3756,4198,3842,3841
3757,3841,4200,4198
3758,4596,4487,4196
3759,4486,4596,4196
3760,4196,4198,4486
3761,3979,3980,4079
3762,4079,4078,3979
3763,4283,4079,4080
3764,4080,4401,4283
3765,4080,4284,4401
3766,3981,4080,4079
3767,4079,3980,3981
3768,4400,4282,4078
3769,4283,4400,4078
3770,4078,4079,4283
3771,4192,3845,3844
3772,3844,4194,4192
3773,4597,4488,4194
3774,4487,4597,4194
3775,4194,4196,4487
3776,3677,3465,3466
3777,3466,3678,3677
3778,3581,3580,3776
3779,3776,3777,3581
3780,3888,3778,3777
3781,3777,3890,3888
3782,3579,3775,3776
3783,3776,3580,3579
3784,3894,3775,3774
3785,3774,3896,3894
3786,3896,4168,4166
3787,4166,3894,3896
3788,4612,4503,4164
3789,4502,4612,4164
3790,4164,4166,4502
3791,4095,4094,3995
3792,3995,3996,4095
3793,4299,4095,4096
3794,4096,4417,4299
3795,4096,4300,4417
3796,3996,3997,4096
3797,4096,4095,3996
3798,4416,4298,4094
3799,4299,4416,4094
3800,4094,4095,4299
3801,4160,3888,3890
3802,3890,4162,4160
3803,4613,4504,4162
3804,4503,4613,4162
3805,4162,4164,4503
3806,3481,3482,3694
3807,3694,3693,3481
3808,3790,3500,3498
3809,3498,3792,3790
3810,3790,3861,3858
3811,3858,3788,3790
3812,3792,3498,3496
3813,3496,3793,3792
3814,3795,3863,3860
3815,3860,3793,3795
3816,4130,3860,3863
3817,3863,4135,4130
3818,4437,4113,4130
3819,4130,4540,4437
3820,4130,4438,4540
3821,3916,4013,4014
3822,4014,3913,3916
3823,4332,4013,4110
3824,4110,4333,4332
3825,4013,3916,3918
3826,3918,4110,4013
3827,4317,4014,4013
3828,4013,4332,4317
3829,4010,3858,3861
3830,3861,4011,4010
3831,4537,4436,4011
3832,4437,4537,4011
3833,4011,4113,4437
3834,727,515,511
3835,511,729,727
3836,935,727,729
3837,729,939,935
3838,210,103,83
3839,210,83,402
3840,402,406,210
3841,2857,2760,3071
3842,3071,3070,2857
3843,2653,2860,2760
3844,2760,2651,2653
3845,2860,2972,3071
3846,3071,2760,2860
3847,2860,2653,2655
3848,2655,2863,2860
3849,2970,2972,2860
3850,2860,2863,2970
3851,3174,3173,3281
3852,3281,3282,3174
3853,3282,3497,3495
3854,3495,3183,3282
3855,3174,2966,2965
3856,2965,3173,3174
3857,2756,2754,2966
3858,2966,2867,2756
3859,2758,2756,2867
3860,2867,2865,2758
3861,3487,3285,3386
3862,3386,3493,3487
3863,3490,3180,3183
3864,3183,3495,3490
3865,4625,4936,4840
3866,4840,4509,4625
3867,3606,3605,3393
3868,3393,3394,3606
3869,3605,3606,3923
3870,3923,3905,3605
3871,3907,3604,3605
3872,3605,3905,3907
3873,3799,3801,3509
3874,3509,3508,3799
3875,3801,3869,3871
3876,3871,3706,3801
3877,3798,3799,3508
3878,3508,3507,3798
3879,3798,3796,3862
3880,3862,3866,3798
3881,3866,3862,4133
3882,4133,4136,3866
3883,4517,4138,4136
3884,4136,4634,4517
3885,4136,4515,4634
3886,3923,3924,4023
3887,4023,4022,3923
3888,4345,4227,4023
3889,4228,4345,4023
3890,4023,4024,4228
3891,4344,4226,4022
3892,4227,4344,4022
3893,4022,4023,4227
3894,3925,4024,4023
3895,4023,3924,3925
3896,3871,3869,4140
3897,4140,4142,3871
3898,4519,4140,4138
3899,4138,4636,4519
3900,4138,4517,4636
3901,4628,4511,4842
3902,4842,4939,4628
3903,4341,4224,4646
3904,4646,4741,4341
3905,6180,5590,5589
3906,5589,6178,6180
3907,6173,6175,5585
3908,5585,5581,6173
3909,6663,6166,6076
3910,6076,6661,6663
3911,6669,6173,6171
3912,6171,6667,6669
3913,4627,4938,4842
3914,4842,4511,4627
3915,4338,4738,4642
3916,4642,4220,4338
3917,6076,6166,5577
3918,5577,5576,6076
3919,4339,4222,4644
3920,4644,4739,4339
3921,6171,6173,5581
3922,5581,5579,6171
3923,6677,6180,6178
3924,6178,6675,6677
3925,6671,6175,6173
3926,6173,6669,6671
3927,6182,5592,5590
3928,5590,6180,6182
3929,4634,4942,4846
3930,4846,4517,4634
3931,4343,4226,4648
3932,4648,4743,4343
3933,5596,6186,6188
3934,6188,5598,5596
3935,6194,6486,6487
3936,6487,6196,6194
3937,6188,6483,6484
3938,6484,6190,6188
3939,6677,6480,6182
3940,6182,6180,6677
3941,6186,6482,6483
3942,6483,6188,6186
3943,4636,4517,4846
3944,4846,4943,4636
3945,5606,5604,6194
3946,6194,6196,5606
3947,6190,5600,5598
3948,5598,6188,6190
3949,3622,3621,3409
3950,3409,3410,3622
3951,3525,3524,3720
3952,3720,3721,3525
3953,3901,3903,3722
3954,3722,3721,3901
3955,3523,3719,3720
3956,3720,3524,3523
3957,3895,3897,3719
3958,3719,3718,3895
3959,4167,4169,3897
3960,3897,3895,4167
3961,4556,4447,4171
3962,4446,4556,4171
3963,4171,4169,4446
3964,3939,3940,4039
3965,4039,4038,3939
3966,4361,4243,4039
3967,4244,4361,4039
3968,4039,4040,4244
3969,4360,4242,4038
3970,4243,4360,4038
3971,4038,4039,4243
3972,3941,4040,4039
3973,4039,3940,3941
3974,4173,4175,3903
3975,3903,3901,4173
3976,4557,4448,4173
3977,4447,4557,4173
3978,4173,4171,4447
3979,4553,4443,4858
3980,4858,4955,4553
3981,6242,6244,5459
3982,5459,5654,6242
3983,4356,4756,4660
3984,4660,4238,4356
3985,5650,5648,6236
3986,6236,6238,5650
3987,6228,6503,6504
3988,6504,6230,6228
3989,6234,6506,6507
3990,6507,6236,6234
3991,4552,4954,4858
3992,4858,4443,4552
3993,4354,4754,4658
3994,4658,4236,4354
3995,5642,5640,6228
3996,6228,6230,5642
3997,4355,4238,4660
3998,4660,4755,4355
3999,6234,6236,5648
4000,5648,5646,6234
4001,6242,6510,6511
4002,6511,6244,6242
4003,6236,6507,6508
4004,6508,6238,6236
4005,6244,6246,5460
4006,5460,5459,6244
4007,4556,4958,4862
4008,4862,4447,4556
4009,6250,6252,5463
4010,5463,5462,6250
4011,6518,6519,6260
4012,6260,6258,6518
4013,6252,6515,6516
4014,6516,6254,6252
4015,6244,6511,6512
4016,6512,6246,6244
4017,6250,6514,6515
4018,6515,6252,6250
4019,4557,4447,4862
4020,4862,4959,4557
4021,6258,6260,5467
4022,5467,5466,6258
4023,4360,4760,4664
4024,4664,4242,4360
4025,6252,6254,5464
4026,5464,5463,6252
4027,3638,3637,3425
4028,3425,3426,3638
4029,3953,3636,3637
4030,3637,3954,3953
4031,3541,3540,3736
4032,3736,3737,3541
4033,3738,3737,3820
4034,3820,3821,3738
4035,3539,3735,3736
4036,3736,3540,3539
4037,3818,3735,3734
4038,3734,3817,3818
4039,4199,4201,3818
4040,3818,3817,4199
4041,4572,4463,4203
4042,4462,4572,4203
4043,4203,4201,4462
4044,3955,3956,4055
4045,4055,4054,3955
4046,4377,4259,4055
4047,4260,4377,4055
4048,4055,4056,4260
4049,4376,4258,4054
4050,4259,4376,4054
4051,4054,4055,4259
4052,3957,4056,4055
4053,4055,3956,3957
4054,4205,4207,3821
4055,3821,3820,4205
4056,4573,4464,4205
4057,4463,4573,4205
4058,4205,4203,4463
4059,4569,4459,4874
4060,4874,4971,4569
4061,6096,6097,5491
4062,5491,5490,6096
4063,5487,6093,6094
4064,6094,5488,5487
4065,6090,6089,6535
4066,6535,6536,6090
4067,6539,6093,6092
4068,6092,6538,6539
4069,4568,4970,4874
4070,4874,4459,4568
4071,5483,6089,6090
4072,6090,5484,5483
4073,6092,6093,5487
4074,5487,5486,6092
4075,6542,6543,6097
4076,6097,6096,6542
4077,6094,6093,6539
4078,6539,6540,6094
4079,4374,4774,4678
4080,4678,4256,4374
4081,5491,6097,6098
4082,6098,5492,5491
4083,4572,4974,4878
4084,4878,4463,4572
4085,6100,6101,5495
4086,5495,5494,6100
4087,6551,6105,6104
4088,6104,6550,6551
4089,6102,6101,6547
4090,6547,6548,6102
4091,6098,6097,6543
4092,6543,6544,6098
4093,6546,6547,6101
4094,6101,6100,6546
4095,4573,4463,4878
4096,4878,4975,4573
4097,4377,4260,4682
4098,4682,4777,4377
4099,6104,6105,5499
4100,5499,5498,6104
4101,4376,4776,4680
4102,4680,4258,4376
4103,5496,5495,6101
4104,6101,6102,5496
4105,3654,3653,3441
4106,3441,3442,3654
4107,3971,3970,3653
4108,3653,3654,3971
4109,3557,3556,3752
4110,3752,3753,3557
4111,3754,3753,3836
4112,3836,3837,3754
4113,3555,3751,3752
4114,3752,3556,3555
4115,3834,3751,3750
4116,3750,3833,3834
4117,4123,4124,3834
4118,3834,3833,4123
4119,4588,4479,4322
4120,4588,4322,4324
4121,4324,4478,4588
4122,3971,3972,4071
4123,4071,4070,3971
4124,4393,4275,4071
4125,4276,4393,4071
4126,4071,4072,4276
4127,4392,4274,4070
4128,4275,4392,4070
4129,4070,4071,4275
4130,3973,4072,4071
4131,4071,3972,3973
4132,4208,3837,3836
4133,3836,4210,4208
4134,4589,4480,4210
4135,4322,4479,4589
4136,4322,4589,4210
4137,4210,4212,4322
4138,4585,4475,4890
4139,4890,4987,4585
4140,4389,4272,4694
4141,4694,4789,4389
4142,6128,6129,5523
4143,5523,5522,6128
4144,5519,6125,6126
4145,6126,5520,5519
4146,6121,6567,6568
4147,6568,6122,6121
4148,6571,6125,6124
4149,6124,6570,6571
4150,4584,4986,4890
4151,4890,4475,4584
4152,4386,4786,4690
4153,4690,4268,4386
4154,6121,6122,5516
4155,5516,5515,6121
4156,4387,4270,4692
4157,4692,4787,4387
4158,6124,6125,5519
4159,5519,5518,6124
4160,6575,6129,6128
4161,6128,6574,6575
4162,6126,6125,6571
4163,6571,6572,6126
4164,6130,5524,5523
4165,5523,6129,6130
4166,4588,4990,4894
4167,4894,4479,4588
4168,4391,4274,4696
4169,4696,4791,4391
4170,6132,6133,5527
4171,5527,5526,6132
4172,6583,6137,6136
4173,6136,6582,6583
4174,6134,6133,6579
4175,6579,6580,6134
4176,6130,6129,6575
4177,6575,6576,6130
4178,6579,6133,6132
4179,6132,6578,6579
4180,4589,4479,4894
4181,4894,4991,4589
4182,4393,4276,4698
4183,4698,4793,4393
4184,6136,6137,5531
4185,5531,5530,6136
4186,6134,5528,5527
4187,5527,6133,6134
4188,3670,3669,3457
4189,3457,3458,3670
4190,3573,3572,3768
4191,3768,3769,3573
4192,3770,3769,3852
4193,3852,3904,3770
4194,3767,3768,3572
4195,3572,3571,3767
4196,3850,3767,3766
4197,3766,3849,3850
4198,4182,3850,3849
4199,3849,4184,4182
4200,4604,4495,4180
4201,4494,4604,4180
4202,4180,4182,4494
4203,4087,4086,3987
4204,3987,3988,4087
4205,4291,4087,4088
4206,4088,4409,4291
4207,4088,4292,4409
4208,4290,4086,4087
4209,4087,4408,4290
4210,4087,4291,4408
4211,3988,3989,4088
4212,4088,4087,3988
4213,4176,3904,3852
4214,3852,4178,4176
4215,4605,4496,4178
4216,4495,4605,4178
4217,4178,4180,4495
4218,4601,4491,4906
4219,4906,5003,4601
4220,6160,6161,5555
4221,5555,5554,6160
4222,4404,4804,4708
4223,4708,4286,4404
4224,5551,6157,6158
4225,6158,5552,5551
4226,6154,6153,6599
4227,6599,6600,6154
4228,6603,6157,6156
4229,6156,6602,6603
4230,4600,5002,4906
4231,4906,4491,4600
4232,5547,6153,6154
4233,6154,5548,5547
4234,6156,6157,5551
4235,5551,5550,6156
4236,6607,6161,6160
4237,6160,6606,6607
4238,6158,6157,6603
4239,6603,6604,6158
4240,5555,6161,6162
4241,6162,5556,5555
4242,4604,5006,4910
4243,4910,4495,4604
4244,6164,6165,5559
4245,5559,5558,6164
4246,6261,6263,6614
4247,6614,6615,6261
4248,6612,6267,6165
4249,6165,6611,6612
4250,6162,6161,6607
4251,6607,6608,6162
4252,6611,6165,6164
4253,6164,6610,6611
4254,4605,4495,4910
4255,4910,5007,4605
4256,5563,5562,6263
4257,6263,6261,5563
4258,5560,5559,6165
4259,6165,6267,5560
4260,3685,3473,3474
4261,3474,3686,3685
4262,4003,4002,3685
4263,3685,3686,4003
4264,4001,3684,3685
4265,3685,4002,4001
4266,3589,3588,3784
4267,3784,3785,3589
4268,3872,3786,3785
4269,3785,3874,3872
4270,3587,3783,3784
4271,3784,3588,3587
4272,3878,3783,3782
4273,3782,3880,3878
4274,3880,4152,4150
4275,4150,3878,3880
4276,4620,4527,4147
4277,4529,4620,4147
4278,4147,4150,4529
4279,4003,4004,4103
4280,4103,4102,4003
4281,4307,4103,4104
4282,4104,4425,4307
4283,4104,4308,4425
4284,4306,4102,4103
4285,4103,4424,4306
4286,4103,4307,4424
4287,4005,4104,4103
4288,4103,4004,4005
4289,4143,3872,3874
4290,3874,4145,4143
4291,4621,4525,4145
4292,4527,4621,4145
4293,4145,4147,4527
4294,4617,4507,4922
4295,4922,5019,4617
4296,5625,6215,6213
4297,6213,5623,5625
4298,5631,6221,6219
4299,6219,5629,5631
4300,6227,6229,6631
4301,6631,6632,6227
4302,6221,6223,6634
4303,6634,6635,6221
4304,4616,5018,4922
4305,4922,4507,4616
4306,4418,4818,4722
4307,4722,4300,4418
4308,5641,6229,6227
4309,6227,5638,5641
4310,6221,5631,5634
4311,5634,6223,6221
4312,6213,6215,6638
4313,6638,6639,6213
4314,6219,6221,6635
4315,6635,6636,6219
4316,4422,4822,4726
4317,4726,4304,4422
4318,6211,5621,5623
4319,5623,6213,6211
4320,4620,5022,4926
4321,4926,4527,4620
4322,5617,6207,6205
4323,6205,5615,5617
4324,6197,6199,6646
4325,6646,6647,6197
4326,6203,6205,6643
4327,6643,6644,6203
4328,6211,6213,6639
4329,6639,6640,6211
4330,6205,6207,6642
4331,6642,6643,6205
4332,4621,4527,4926
4333,4926,5023,4621
4334,4425,4308,4730
4335,4730,4825,4425
4336,6197,5607,5609
4337,5609,6199,6197
4338,4424,4824,4728
4339,4728,4306,4424
4340,5615,6205,6203
4341,6203,5613,5615
4342,1253,1241,1144
4343,1144,1255,1253
4344,1144,1241,938
4345,938,934,1144
4346,1360,1253,1255
4347,1360,1255,1485
4348,1485,1487,1360
4349,2230,2545,2543
4350,2543,2228,2230
4351,2650,2652,2464
4352,2464,2543,2650
4353,2652,2654,2547
4354,2547,2464,2652
4355,2464,2547,2337
4356,2337,2339,2464
4357,1362,1239,1237
4358,1237,1461,1362
4359,1356,1463,1461
4360,1356,1461,1237
4361,1237,1043,1356
4362,2234,2232,2341
4363,2341,2406,2234
4364,2549,2757,2755
4365,2549,2755,2406
4366,2406,2341,2549
4367,1887,1675,1780
4368,1887,1780,2109
4369,2109,2113,1887
4370,3611,3610,3398
4371,3398,3399,3611
4372,3929,3928,3611
4373,3611,3612,3929
4374,3708,3512,3511
4375,3511,3707,3708
4376,3871,3873,3707
4377,3707,3706,3871
4378,3513,3512,3708
4379,3708,3709,3513
4380,3877,3879,3710
4381,3710,3709,3877
4382,3879,3877,4149
4383,4149,4151,3879
4384,4545,4528,4149
4385,4526,4545,4149
4386,4149,4146,4526
4387,3927,4026,4025
4388,4025,3926,3927
4389,4346,4228,4024
4390,4229,4346,4024
4391,4024,4025,4229
4392,3925,3926,4025
4393,4025,4024,3925
4394,4229,4025,4026
4395,4026,4347,4229
4396,4026,4230,4347
4397,4142,4144,3873
4398,3873,3871,4142
4399,4544,4526,4146
4400,4524,4544,4146
4401,4146,4144,4524
4402,4548,4950,4854
4403,4854,4439,4548
4404,4350,4750,4654
4405,4654,4232,4350
4406,5624,5622,6212
4407,6212,6214,5624
4408,4351,4234,4656
4409,4656,4751,4351
4410,5630,5628,6218
4411,6218,6220,5630
4412,6226,6502,6503
4413,6503,6228,6226
4414,6220,6499,6500
4415,6500,6222,6220
4416,4549,4439,4854
4417,4854,4951,4549
4418,5640,5637,6226
4419,6226,6228,5640
4420,4352,4752,4656
4421,4656,4234,4352
4422,6220,6222,5633
4423,5633,5630,6220
4424,6212,6495,6496
4425,6496,6214,6212
4426,6218,6498,6499
4427,6499,6220,6218
4428,4545,4526,4850
4429,4850,4947,4545
4430,6210,6212,5622
4431,5622,5620,6210
4432,4348,4748,4652
4433,4652,4230,4348
4434,5616,5614,6204
4435,6204,6206,5616
4436,6196,6487,6488
4437,6488,6198,6196
4438,6202,6490,6491
4439,6491,6204,6202
4440,4544,4946,4850
4441,4850,4526,4544
4442,4346,4746,4650
4443,4650,4228,4346
4444,6196,6198,5608
4445,5608,5606,6196
4446,5614,5612,6202
4447,6202,6204,5614
4448,6210,6494,6495
4449,6495,6212,6210
4450,6204,6491,6492
4451,6492,6206,6204
4452,3627,3626,3414
4453,3414,3415,3627
4454,3724,3528,3527
4455,3527,3723,3724
4456,3722,3903,3806
4457,3806,3723,3722
4458,3529,3528,3724
4459,3724,3725,3529
4460,3808,3809,3726
4461,3726,3725,3808
4462,4181,4183,3809
4463,3809,3808,4181
4464,4561,4452,4181
4465,4451,4561,4181
4466,4181,4179,4451
4467,3942,3943,4042
4468,4042,4041,3942
4469,4362,4244,4040
4470,4245,4362,4040
4471,4040,4041,4245
4472,4041,4040,3941
4473,3941,3942,4041
4474,4245,4041,4042
4475,4042,4363,4245
4476,4042,4246,4363
4477,4175,4177,3806
4478,3806,3903,4175
4479,4560,4451,4179
4480,4450,4560,4179
4481,4179,4177,4450
4482,4564,4966,4870
4483,4870,4455,4564
4484,5475,6081,6082
4485,6082,5476,5475
4486,6084,6085,5479
4487,5479,5478,6084
4488,6535,6089,6088
4489,6088,6534,6535
4490,6086,6085,6531
4491,6531,6532,6086
4492,4565,4455,4870
4493,4870,4967,4565
4494,6088,6089,5483
4495,5483,5482,6088
4496,5479,6085,6086
4497,6086,5480,5479
4498,6082,6081,6527
4499,6527,6528,6082
4500,6531,6085,6084
4501,6084,6530,6531
4502,4561,4451,4866
4503,4866,4963,4561
4504,6080,6081,5475
4505,5475,5474,6080
4506,4364,4764,4668
4507,4668,4246,4364
4508,5471,6077,6078
4509,6078,5472,5471
4510,6260,6519,6520
4511,6520,6262,6260
4512,6522,6523,6077
4513,6077,6266,6522
4514,4560,4962,4866
4515,4866,4451,4560
4516,5467,6260,6262
4517,6262,5468,5467
4518,5470,6266,6077
4519,6077,5471,5470
4520,6527,6081,6080
4521,6080,6526,6527
4522,6078,6077,6523
4523,6523,6524,6078
4524,3431,3643,3642
4525,3642,3430,3431
4526,3959,3642,3643
4527,3643,3960,3959
4528,3961,3960,3643
4529,3643,3644,3961
4530,3740,3544,3543
4531,3543,3739,3740
4532,3822,3739,3738
4533,3738,3821,3822
4534,3545,3544,3740
4535,3740,3741,3545
4536,3824,3825,3742
4537,3742,3741,3824
4538,4115,3825,3824
4539,3824,4114,4115
4540,4321,4323,4114
4541,4114,4211,4321
4542,3959,4058,4057
4543,4057,3958,3959
4544,4378,4260,4056
4545,4261,4378,4056
4546,4056,4057,4261
4547,3957,3958,4057
4548,4057,4056,3957
4549,4379,4261,4057
4550,4262,4379,4057
4551,4057,4058,4262
4552,4207,4209,3822
4553,3822,3821,4207
4554,4321,4211,4576
4555,4576,4467,4321
4556,4466,4576,4211
4557,4211,4209,4466
4558,4580,4982,4886
4559,4886,4471,4580
4560,4382,4782,4686
4561,4686,4264,4382
4562,5508,5507,6113
4563,6113,6114,5508
4564,6116,6117,5511
4565,5511,5510,6116
4566,6567,6121,6120
4567,6120,6566,6567
4568,6118,6117,6563
4569,6563,6564,6118
4570,4581,4471,4886
4571,4886,4983,4581
4572,4385,4268,4690
4573,4690,4785,4385
4574,5515,5514,6120
4575,6120,6121,5515
4576,4384,4784,4688
4577,4688,4266,4384
4578,5511,6117,6118
4579,6118,5512,5511
4580,6114,6113,6559
4581,6559,6560,6114
4582,6562,6563,6117
4583,6117,6116,6562
4584,4577,4467,4882
4585,4882,4979,4577
4586,4381,4264,4686
4587,4686,4781,4381
4588,5506,6112,6113
4589,6113,5507,5506
4590,5503,6109,6110
4591,6110,5504,5503
4592,6106,6105,6551
4593,6551,6552,6106
4594,6555,6109,6108
4595,6108,6554,6555
4596,4576,4978,4882
4597,4882,4467,4576
4598,5500,5499,6105
4599,6105,6106,5500
4600,4379,4262,4684
4601,4684,4779,4379
4602,6108,6109,5503
4603,5503,5502,6108
4604,6558,6559,6113
4605,6113,6112,6558
4606,6110,6109,6555
4607,6555,6556,6110
4608,3447,3659,3658
4609,3658,3446,3447
4610,3756,3560,3559
4611,3559,3755,3756
4612,3838,3755,3754
4613,3754,3837,3838
4614,3561,3560,3756
4615,3756,3757,3561
4616,3840,3841,3758
4617,3758,3757,3840
4618,4200,3841,3840
4619,3840,4202,4200
4620,4593,4484,4202
4621,4483,4593,4202
4622,4202,4204,4483
4623,3975,4074,4073
4624,4073,3974,3975
4625,4394,4276,4072
4626,4277,4394,4072
4627,4072,4073,4277
4628,3973,3974,4073
4629,4073,4072,3973
4630,4395,4277,4073
4631,4278,4395,4073
4632,4073,4074,4278
4633,4206,3838,3837
4634,3837,4208,4206
4635,4592,4483,4204
4636,4482,4592,4204
4637,4204,4206,4482
4638,4596,4998,4902
4639,4902,4487,4596
4640,6146,5540,5539
4641,5539,6145,6146
4642,4399,4282,4704
4643,4704,4799,4399
4644,6148,6149,5543
4645,5543,5542,6148
4646,6599,6153,6152
4647,6152,6598,6599
4648,6150,6149,6595
4649,6595,6596,6150
4650,4597,4487,4902
4651,4902,4999,4597
4652,6152,6153,5547
4653,5547,5546,6152
4654,5543,6149,6150
4655,6150,5544,5543
4656,6146,6145,6591
4657,6591,6592,6146
4658,6595,6149,6148
4659,6148,6594,6595
4660,4593,4483,4898
4661,4898,4995,4593
4662,4397,4280,4702
4663,4702,4797,4397
4664,6144,6145,5539
4665,5539,5538,6144
4666,5535,6141,6142
4667,6142,5536,5535
4668,6138,6137,6583
4669,6583,6584,6138
4670,6586,6587,6141
4671,6141,6140,6586
4672,4592,4994,4898
4673,4898,4483,4592
4674,4394,4794,4698
4675,4698,4276,4394
4676,6138,5532,5531
4677,5531,6137,6138
4678,4395,4278,4700
4679,4700,4795,4395
4680,5534,6140,6141
4681,6141,5535,5534
4682,6591,6145,6144
4683,6144,6590,6591
4684,6142,6141,6587
4685,6587,6588,6142
4686,3463,3675,3674
4687,3674,3462,3463
4688,3772,3576,3575
4689,3575,3771,3772
4690,3902,3771,3770
4691,3770,3904,3902
4692,3773,3577,3576
4693,3576,3772,3773
4694,3896,3774,3773
4695,3773,3898,3896
4696,4168,3896,3898
4697,3898,4170,4168
4698,4609,4500,4170
4699,4499,4609,4170
4700,4170,4172,4499
4701,3991,4090,4089
4702,4089,3990,3991
4703,4410,4292,4088
4704,4293,4410,4088
4705,4088,4089,4293
4706,3989,3990,4089
4707,4089,4088,3989
4708,4293,4089,4090
4709,4090,4411,4293
4710,4090,4294,4411
4711,4174,3902,3904
4712,3904,4176,4174
4713,4608,4499,4172
4714,4498,4608,4172
4715,4172,4174,4498
4716,4612,5014,4918
4717,4918,4503,4612
4718,6243,5655,5571
4719,5571,6245,6243
4720,5651,6239,6237
4721,6237,5649,5651
4722,6229,6231,6630
4723,6630,6631,6229
4724,6235,6237,6627
4725,6627,6628,6235
4726,4613,4503,4918
4727,4918,5015,4613
4728,5643,6231,6229
4729,6229,5641,5643
4730,6235,5647,5649
4731,5649,6237,6235
4732,6243,6245,6623
4733,6623,6624,6243
4734,6237,6239,6626
4735,6626,6627,6237
4736,4609,4499,4914
4737,4914,5011,4609
4738,6245,5571,5570
4739,5570,6247,6245
4740,6251,5568,5567
4741,5567,6253,6251
4742,6616,6259,6261
4743,6261,6615,6616
4744,6253,6255,6618
4745,6618,6619,6253
4746,4608,5010,4914
4747,4914,4499,4608
4748,4410,4810,4714
4749,4714,4292,4410
4750,6259,5564,5563
4751,5563,6261,6259
4752,6253,5567,5566
4753,5566,6255,6253
4754,6245,6247,6622
4755,6622,6623,6245
4756,6251,6253,6619
4757,6619,6620,6251
4758,3691,3690,3478
4759,3478,3479,3691
4760,3691,3906,4007
4761,4007,3690,3691
4762,3908,3906,3691
4763,3691,3692,3908
4764,3800,3592,3591
4765,3591,3802,3800
4766,3802,3786,3872
4767,3872,3870,3802
4768,3797,3593,3592
4769,3592,3800,3797
4770,3797,3865,3863
4771,3863,3795,3797
4772,4135,3863,3865
4773,3865,4137,4135
4774,4635,4516,4137
4775,4518,4635,4137
4776,4137,4139,4518
4777,4007,4106,4105
4778,4105,4006,4007
4779,4426,4308,4104
4780,4309,4426,4104
4781,4104,4105,4309
4782,4005,4006,4105
4783,4105,4104,4005
4784,4427,4309,4105
4785,4310,4427,4105
4786,4105,4106,4310
4787,3872,4143,4141
4788,4141,3870,3872
4789,4637,4518,4139
4790,4520,4637,4139
4791,4139,4141,4520
4792,4540,5030,4934
4793,4934,4437,4540
4794,4430,4830,4734
4795,4734,4312,4430
4796,6181,6179,5588
4797,5588,5591,6181
4798,4431,4317,4834
4799,4834,4831,4431
4800,6172,5580,5584
4801,5584,6174,6172
4802,6664,6662,6075
4803,6075,6167,6664
4804,6670,6668,6170
4805,6170,6172,6670
4806,4537,4437,4934
4807,4934,5033,4537
4808,5854,5850,6167
4809,6167,6075,5854
4810,5583,5580,6172
4811,6172,6170,5583
4812,6678,6676,6179
4813,6179,6181,6678
4814,6672,6670,6172
4815,6172,6174,6672
4816,4635,4518,4930
4817,4930,5027,4635
4818,6183,6181,5591
4819,5591,5593,6183
4820,4428,4828,4732
4821,4732,4310,4428
4822,5597,5599,6189
4823,6189,6187,5597
4824,6195,6197,6647
4825,6647,6648,6195
4826,6189,6191,6650
4827,6650,6651,6189
4828,4637,5026,4930
4829,4930,4518,4637
4830,5607,6197,6195
4831,6195,5605,5607
4832,4427,4310,4732
4833,4732,4827,4427
4834,6191,6189,5599
4835,5599,5601,6191
4836,6678,6181,6183
4837,6183,6654,6678
4838,6187,6189,6651
4839,6651,6652,6187
4840,1254,1256,1145
4841,1145,1242,1254
4842,1145,935,939
4843,939,1242,1145
4844,1361,1488,1486
4845,1486,1256,1361
4846,1256,1254,1361
4847,2231,2229,2544
4848,2544,2546,2231
4849,2651,2544,2465
4850,2465,2653,2651
4851,2653,2465,2548
4852,2548,2655,2653
4853,2465,2340,2338
4854,2338,2548,2465
4855,2235,2407,2342
4856,2342,2233,2235
4857,3487,3597,3697
4858,3697,3485,3487
4859,3486,3387,3599
4860,3599,3598,3486
4861,7088,7087,6684
4862,6684,6685,7088
4863,7020,7019,7086
4864,7086,7087,7020
4865,6690,7093,7092
4866,7092,6689,6690
4867,7026,7093,7094
4868,7094,6882,7026
4869,6698,7101,7100
4870,7100,6697,6698
4871,6898,6896,7101
4872,7101,7102,6898
4873,6693,7096,7095
4874,7095,6692,6693
4875,6884,6882,7094
4876,7094,7095,6884
4877,7120,7119,6716
4878,6716,6717,7120
4879,6932,6930,7118
4880,7118,7119,6932
4881,7124,6721,6722
4882,6722,7125,7124
4883,6946,6944,7125
4884,7125,7126,6946
4885,6729,6730,7133
4886,7133,7132,6729
4887,6962,6960,7133
4888,7133,7134,6962
4889,7128,7127,6724
4890,6724,6725,7128
4891,6948,6946,7126
4892,7126,7127,6948
4893,7152,7151,6748
4894,6748,6749,7152
4895,6996,6994,7150
4896,7150,7151,6996
4897,7156,6753,6754
4898,6754,7157,7156
4899,7010,7008,7157
4900,7157,7158,7010
4901,6762,7165,7164
4902,7164,6761,6762
4903,7031,7165,7166
4904,7166,7032,7031
4905,7159,6756,6757
4906,6757,7160,7159
4907,7012,7010,7158
4908,7158,7159,7012
4909,7184,7183,6780
4910,6780,6781,7184
4911,7048,7182,7183
4912,7183,7049,7048
4913,6786,7189,7188
4914,7188,6785,6786
4915,7189,7190,7056
4916,7056,7055,7189
4917,6794,7197,7196
4918,7196,6793,6794
4919,7063,7197,7198
4920,7198,7064,7063
4921,7192,7191,6788
4922,6788,6789,7192
4923,7057,7056,7190
4924,7190,7191,7057
4925,7216,7215,6812
4926,6812,6813,7216
4927,6995,7214,7215
4928,7215,6993,6995
4929,6817,6818,7221
4930,7221,7220,6817
4931,6981,7221,7222
4932,7222,6979,6981
4933,6826,7229,7228
4934,7228,6825,6826
4935,6965,7229,7230
4936,7230,6963,6965
4937,7224,7223,6820
4938,6820,6821,7224
4939,6979,7222,7223
4940,7223,6977,6979
4941,7248,7247,6844
4942,6844,6845,7248
4943,6931,7246,7247
4944,7247,6929,6931
4945,6850,7253,7252
4946,7252,6849,6850
4947,6917,7253,7254
4948,7254,6915,6917
4949,7260,6857,6858
4950,6858,7261,7260
4951,6901,7261,7262
4952,7262,6899,6901
4953,7256,7255,6852
4954,6852,6853,7256
4955,6915,7254,7255
4956,7255,6913,6915
4957,6714,7117,7116
4958,7116,6713,6714
4959,6930,6928,7117
4960,7117,7118,6930
4961,6709,7112,7111
4962,7111,6708,6709
4963,6916,6914,7110
4964,7110,7111,6916
4965,6701,7104,7103
4966,7103,6700,6701
4967,6900,6898,7102
4968,7102,7103,6900
4969,6706,7109,7108
4970,7108,6705,6706
4971,6914,6912,7109
4972,7109,7110,6914
4973,7148,6745,6746
4974,6746,7149,7148
4975,6994,6992,7149
4976,7149,7150,6994
4977,7144,7143,6740
4978,6740,6741,7144
4979,6980,6978,7142
4980,7142,7143,6980
4981,6733,7136,7135
4982,7135,6732,6733
4983,6964,6962,7134
4984,7134,7135,6964
4985,6738,7141,7140
4986,7140,6737,6738
4987,6978,6976,7141
4988,7141,7142,6978
4989,6778,7181,7180
4990,7180,6777,6778
4991,7182,7048,7047
4992,7047,7181,7182
4993,7176,7175,6772
4994,6772,6773,7176
4995,7041,7040,7174
4996,7174,7175,7041
4997,7168,7167,6764
4998,6764,6765,7168
4999,7033,7032,7166
5000,7166,7167,7033
5001,6770,7173,7172
5002,7172,6769,6770
5003,7173,7174,7040
5004,7040,7039,7173
5005,6810,7213,7212
5006,7212,6809,6810
5007,6997,7213,7214
5008,7214,6995,6997
5009,7207,6804,6805
5010,6805,7208,7207
5011,7011,7206,7207
5012,7207,7009,7011
5013,6796,6797,7200
5014,7200,7199,6796
5015,7065,7064,7198
5016,7198,7199,7065
5017,7205,7204,6801
5018,6801,6802,7205
5019,7013,7205,7206
5020,7206,7011,7013
5021,6841,6842,7245
5022,7245,7244,6841
5023,6933,7245,7246
5024,7246,6931,6933
5025,7240,7239,6836
5026,6836,6837,7240
5027,6947,7238,7239
5028,7239,6945,6947
5029,6829,7232,7231
5030,7231,6828,6829
5031,6963,7230,7231
5032,7231,6961,6963
5033,6834,7237,7236
5034,7236,6833,6834
5035,6949,7237,7238
5036,7238,6947,6949
5037,6874,7277,7276
5038,7276,6873,6874
5039,7076,7277,7278
5040,7278,7077,7076
5041,7272,7271,6868
5042,6868,6869,7272
5043,7070,6883,7270
5044,7270,7271,7070
5045,6861,7264,7263
5046,7263,6860,6861
5047,6899,7262,7263
5048,7263,6897,6899
5049,6866,7269,7268
5050,7268,6865,6866
5051,6885,7269,7270
5052,7270,6883,6885
5053,3788,3858,3855
5054,3855,3705,3788
5055,3497,3705,3703
5056,3703,3495,3497
5057,4111,4334,4333
5058,4333,4110,4111
5059,3920,4111,4110
5060,4110,3918,3920
5061,4111,3920,3922
5062,3922,4125,4111
5063,4331,4334,4111
5064,4111,4125,4331
5065,3493,3595,3597
5066,3597,3487,3493
5067,3699,3803,3922
5068,3597,3595,3699
5069,3699,3922,3597
5070,4009,3855,3858
5071,3858,4010,4009
5072,4012,4009,4538
5073,4538,4541,4012
5074,3701,3490,3495
5075,3495,3703,3701
5076,4434,4213,4012
5077,4012,4536,4434
5078,4631,4536,4012
5079,4012,4541,4631
5080,3787,3704,3853
5081,3853,3854,3787
5082,3501,3494,3702
5083,3702,3704,3501
5084,3492,3486,3598
5085,3598,3596,3492
5086,4337,4219,4015
5087,4220,4337,4015
5088,4015,4016,4220
5089,3919,3917,4016
5090,4016,4015,3919
5091,4015,4112,3921
5092,3921,3919,4015
5093,4336,4313,4112
5094,4219,4336,4112
5095,4112,4015,4219
5096,3854,3853,4126
5097,4126,4127,3854
5098,4508,4126,4215
5099,4215,4624,4508
5100,4215,4523,4624
5101,3700,3702,3494
5102,3494,3489,3700
5103,4638,4523,4215
5104,4217,4433,4534
5105,4217,4534,4638
5106,4638,4215,4217
5107,4215,4128,4217
5108,6662,6660,6073
5109,6073,6075,6662
5110,6479,6068,6070
5111,6070,6656,6479
5112,5855,5854,6075
5113,6075,6073,5855
5114,6068,5851,5853
5115,5853,6070,6068
5116,5851,6068,6065
5117,6065,5656,5851
5118,6068,6479,6477
5119,6477,6065,6068
5120,6661,6076,6074
5121,6074,6659,6661
5122,6478,6655,6069
5123,6069,6067,6478
5124,6074,6076,5576
5125,5576,5575,6074
5126,4624,4523,4838
5127,4838,4935,4624
5128,6067,6069,5573
5129,5573,5572,6067
5130,4638,5032,4838
5131,4838,4523,4638
5132,4335,4313,4640
5133,4640,4639,4335
5134,6067,5572,5458
5135,5458,6268,6067
5136,7322,7320,7295
5137,7295,7297,7322
5138,7303,7328,7326
5139,7326,7301,7303
5140,7309,7336,7334
5141,7334,7285,7309
5142,7330,7328,7303
5143,7303,7305,7330
5144,6476,6478,6067
5145,6067,6268,6476
5146,5440,5589,5590
5147,5590,5247,5440
5148,5587,6176,6178
5149,6178,5589,5587
5150,5436,5434,5581
5151,5581,5585,5436
5152,6176,5587,5585
5153,5585,6175,6176
5154,5867,6282,6281
5155,6281,5866,5867
5156,5865,5866,6281
5157,6281,6280,5865
5158,6280,6685,6684
5159,6684,6279,6280
5160,6663,6661,7019
5161,7019,7020,6663
5162,6665,6169,6166
5163,6166,6663,6665
5164,6685,6686,7089
5165,7089,7088,6685
5166,7090,7023,7022
5167,7022,7089,7090
5168,6685,6280,6281
5169,6281,6686,6685
5170,6667,6171,6169
5171,6169,6665,6667
5172,6669,6667,7022
5173,7022,7023,6669
5174,5429,5428,5576
5175,5576,5577,5429
5176,6166,6169,5578
5177,5578,5577,6166
5178,5434,5432,5579
5179,5579,5581,5434
5180,6169,6171,5579
5181,5579,5578,6169
5182,5867,5868,6283
5183,6283,6282,5867
5184,5869,6284,6283
5185,6283,5868,5869
5186,6285,6690,6689
5187,6689,6284,6285
5188,6882,6677,6675
5189,6675,7026,6882
5190,6675,6178,6176
5191,6176,6673,6675
5192,7092,7091,6688
5193,6688,6689,7092
5194,7024,7023,7090
5195,7090,7091,7024
5196,6283,6284,6689
5197,6689,6688,6283
5198,6673,6176,6175
5199,6175,6671,6673
5200,6671,6669,7023
5201,7023,7024,6671
5202,5590,5592,5248
5203,5248,5247,5590
5204,5592,6182,6184
5205,6184,5594,5592
5206,6186,5596,5594
5207,5594,6184,6186
5208,5596,5598,5251
5209,5251,5250,5596
5210,5875,5876,6291
5211,6291,6290,5875
5212,5877,6292,6291
5213,6291,5876,5877
5214,7100,7099,6696
5215,6696,6697,7100
5216,6892,6890,7098
5217,7098,7099,6892
5218,6293,6698,6697
5219,6697,6292,6293
5220,6896,6898,6487
5221,6487,6486,6896
5222,6192,6485,6486
5223,6486,6194,6192
5224,6696,6291,6292
5225,6292,6697,6696
5226,6484,6483,6890
5227,6890,6892,6484
5228,6190,6484,6485
5229,6485,6192,6190
5230,5875,6290,6289
5231,6289,5874,5875
5232,5873,5874,6289
5233,6289,6288,5873
5234,6692,6287,6288
5235,6288,6693,6692
5236,6882,6884,6480
5237,6480,6677,6882
5238,6182,6480,6481
5239,6481,6184,6182
5240,7096,6693,6694
5241,6694,7097,7096
5242,6890,6888,7097
5243,7097,7098,6890
5244,6289,6694,6693
5245,6693,6288,6289
5246,6184,6481,6482
5247,6482,6186,6184
5248,6888,6890,6483
5249,6483,6482,6888
5250,5604,5606,5255
5251,5255,5254,5604
5252,6192,6194,5604
5253,5604,5602,6192
5254,5598,5600,5252
5255,5252,5251,5598
5256,6192,5602,5600
5257,5600,6190,6192
5258,5278,5654,5459
5259,5459,5279,5278
5260,6240,6242,5654
5261,5654,5652,6240
5262,5275,5648,5650
5263,5650,5276,5275
5264,5652,5650,6238
5265,6238,6240,5652
5266,5899,6314,6313
5267,6313,5898,5899
5268,5897,5898,6313
5269,6313,6312,5897
5270,6311,6312,6717
5271,6717,6716,6311
5272,6930,6932,6504
5273,6504,6503,6930
5274,6230,6504,6505
5275,6505,6232,6230
5276,6718,7121,7120
5277,7120,6717,6718
5278,6938,6936,7121
5279,7121,7122,6938
5280,6313,6718,6717
5281,6717,6312,6313
5282,6232,6505,6506
5283,6506,6234,6232
5284,6936,6938,6507
5285,6507,6506,6936
5286,5640,5642,5272
5287,5272,5271,5640
5288,6230,6232,5644
5289,5644,5642,6230
5290,5646,5648,5275
5291,5275,5274,5646
5292,5646,5644,6232
5293,6232,6234,5646
5294,5899,5900,6315
5295,6315,6314,5899
5296,5901,6316,6315
5297,6315,5900,5901
5298,6317,6722,6721
5299,6721,6316,6317
5300,6944,6946,6511
5301,6511,6510,6944
5302,6240,6509,6510
5303,6510,6242,6240
5304,6721,7124,7123
5305,7123,6720,6721
5306,6940,6938,7122
5307,7122,7123,6940
5308,6315,6316,6721
5309,6721,6720,6315
5310,6238,6508,6509
5311,6509,6240,6238
5312,6938,6940,6508
5313,6508,6507,6938
5314,5280,5279,5459
5315,5459,5460,5280
5316,6246,6248,5461
5317,5461,5460,6246
5318,6248,6250,5462
5319,5462,5461,6248
5320,5282,5462,5463
5321,5463,5283,5282
5322,5907,5908,6323
5323,6323,6322,5907
5324,5909,6324,6323
5325,6323,5908,5909
5326,7132,7131,6728
5327,6728,6729,7132
5328,6956,6954,7130
5329,7130,7131,6956
5330,6325,6730,6729
5331,6729,6324,6325
5332,6960,6962,6519
5333,6519,6518,6960
5334,6256,6517,6518
5335,6518,6258,6256
5336,6728,6323,6324
5337,6324,6729,6728
5338,6954,6956,6516
5339,6516,6515,6954
5340,6254,6516,6517
5341,6517,6256,6254
5342,5907,6322,6321
5343,6321,5906,5907
5344,5905,5906,6321
5345,6321,6320,5905
5346,6724,6319,6320
5347,6320,6725,6724
5348,6946,6948,6512
5349,6512,6511,6946
5350,6246,6512,6513
5351,6513,6248,6246
5352,6725,6726,7129
5353,7129,7128,6725
5354,6954,6952,7129
5355,7129,7130,6954
5356,6321,6726,6725
5357,6725,6320,6321
5358,6513,6514,6250
5359,6250,6248,6513
5360,6952,6954,6515
5361,6515,6514,6952
5362,5467,5287,5286
5363,5286,5466,5467
5364,6256,6258,5466
5365,5466,5465,6256
5366,5463,5464,5284
5367,5284,5283,5463
5368,6254,6256,5465
5369,5465,5464,6254
5370,5310,5490,5491
5371,5491,5311,5310
5372,6096,5490,5489
5373,5489,6095,6096
5374,5487,5488,5308
5375,5308,5307,5487
5376,6094,6095,5489
5377,5489,5488,6094
5378,5931,6346,6345
5379,6345,5930,5931
5380,5929,5930,6345
5381,6345,6344,5929
5382,6343,6344,6749
5383,6749,6748,6343
5384,6994,6996,6536
5385,6536,6535,6994
5386,6090,6536,6537
5387,6537,6091,6090
5388,6750,7153,7152
5389,7152,6749,6750
5390,7002,7000,7153
5391,7153,7154,7002
5392,6345,6750,6749
5393,6749,6344,6345
5394,6092,6091,6537
5395,6537,6538,6092
5396,7000,7002,6539
5397,6539,6538,7000
5398,5483,5484,5304
5399,5304,5303,5483
5400,5485,5484,6090
5401,6090,6091,5485
5402,5306,5486,5487
5403,5487,5307,5306
5404,6091,6092,5486
5405,5486,5485,6091
5406,5931,5932,6347
5407,6347,6346,5931
5408,5933,6348,6347
5409,6347,5932,5933
5410,6349,6754,6753
5411,6753,6348,6349
5412,7008,7010,6543
5413,6543,6542,7008
5414,6096,6095,6541
5415,6541,6542,6096
5416,6753,7156,7155
5417,7155,6752,6753
5418,7004,7002,7154
5419,7154,7155,7004
5420,6347,6348,6753
5421,6753,6752,6347
5422,6094,6540,6541
5423,6541,6095,6094
5424,7002,7004,6540
5425,6540,6539,7002
5426,5312,5311,5491
5427,5491,5492,5312
5428,6098,6099,5493
5429,5493,5492,6098
5430,6100,5494,5493
5431,5493,6099,6100
5432,5314,5494,5495
5433,5495,5315,5314
5434,6355,6354,5939
5435,5939,5940,6355
5436,5940,5941,6356
5437,6356,6355,5940
5438,6760,6761,7164
5439,7164,7163,6760
5440,7162,7163,7029
5441,7029,7028,7162
5442,6357,6762,6761
5443,6761,6356,6357
5444,6551,6550,7031
5445,7031,7032,6551
5446,6104,6103,6549
5447,6549,6550,6104
5448,6760,6355,6356
5449,6356,6761,6760
5450,7029,6548,6547
5451,6547,7028,7029
5452,6102,6548,6549
5453,6549,6103,6102
5454,5938,5939,6354
5455,6354,6353,5938
5456,6353,6352,5937
5457,5937,5938,6353
5458,6756,6351,6352
5459,6352,6757,6756
5460,7010,7012,6544
5461,6544,6543,7010
5462,6544,6545,6099
5463,6099,6098,6544
5464,6758,7161,7160
5465,7160,6757,6758
5466,7027,7161,7162
5467,7162,7028,7027
5468,6353,6758,6757
5469,6757,6352,6353
5470,6100,6099,6545
5471,6545,6546,6100
5472,6547,6546,7027
5473,7027,7028,6547
5474,5499,5319,5318
5475,5318,5498,5499
5476,5498,5497,6103
5477,6103,6104,5498
5478,5495,5496,5316
5479,5316,5315,5495
5480,6102,6103,5497
5481,5497,5496,6102
5482,5342,5522,5523
5483,5523,5343,5342
5484,6128,5522,5521
5485,5521,6127,6128
5486,5519,5520,5340
5487,5340,5339,5519
5488,6126,6127,5521
5489,5521,5520,6126
5490,5963,6378,6377
5491,6377,5962,5963
5492,5961,5962,6377
5493,6377,6376,5961
5494,6375,6376,6781
5495,6781,6780,6375
5496,7048,7049,6568
5497,6568,6567,7048
5498,6122,6568,6569
5499,6569,6123,6122
5500,6782,7185,7184
5501,7184,6781,6782
5502,7186,7052,7051
5503,7051,7185,7186
5504,6377,6782,6781
5505,6781,6376,6377
5506,6124,6123,6569
5507,6569,6570,6124
5508,6571,6570,7051
5509,7051,7052,6571
5510,5335,5515,5516
5511,5516,5336,5335
5512,5517,5516,6122
5513,6122,6123,5517
5514,5338,5518,5519
5515,5519,5339,5338
5516,6124,5518,5517
5517,5517,6123,6124
5518,5963,5964,6379
5519,6379,6378,5963
5520,5965,6380,6379
5521,6379,5964,5965
5522,6381,6786,6785
5523,6785,6380,6381
5524,6575,6574,7055
5525,7055,7056,6575
5526,6573,6574,6128
5527,6128,6127,6573
5528,7187,6784,6785
5529,6785,7188,7187
5530,7053,7052,7186
5531,7186,7187,7053
5532,6379,6380,6785
5533,6785,6784,6379
5534,6126,6572,6573
5535,6573,6127,6126
5536,7053,6572,6571
5537,6571,7052,7053
5538,5344,5343,5523
5539,5523,5524,5344
5540,5524,6130,6131
5541,6131,5525,5524
5542,5526,5525,6131
5543,6131,6132,5526
5544,5346,5526,5527
5545,5527,5347,5346
5546,5971,5972,6387
5547,6387,6386,5971
5548,5973,6388,6387
5549,6387,5972,5973
5550,6792,6793,7196
5551,7196,7195,6792
5552,7194,7195,7061
5553,7061,7060,7194
5554,6794,6793,6388
5555,6388,6389,6794
5556,7063,7064,6583
5557,6583,6582,7063
5558,6136,6135,6581
5559,6581,6582,6136
5560,6792,6387,6388
5561,6388,6793,6792
5562,7061,6580,6579
5563,6579,7060,7061
5564,6134,6580,6581
5565,6581,6135,6134
5566,5971,6386,6385
5567,6385,5970,5971
5568,5969,5970,6385
5569,6385,6384,5969
5570,6788,6383,6384
5571,6384,6789,6788
5572,7057,6576,6575
5573,6575,7056,7057
5574,6576,6577,6131
5575,6131,6130,6576
5576,7193,7192,6789
5577,6789,6790,7193
5578,7059,7193,7194
5579,7194,7060,7059
5580,6385,6790,6789
5581,6789,6384,6385
5582,6577,6578,6132
5583,6132,6131,6577
5584,6578,7059,7060
5585,7060,6579,6578
5586,5531,5351,5350
5587,5350,5530,5531
5588,5529,6135,6136
5589,6136,5530,5529
5590,5348,5347,5527
5591,5527,5528,5348
5592,5528,6134,6135
5593,6135,5529,5528
5594,5555,5375,5374
5595,5374,5554,5555
5596,5553,6159,6160
5597,6160,5554,5553
5598,5551,5552,5372
5599,5372,5371,5551
5600,6159,5553,5552
5601,5552,6158,6159
5602,5995,6410,6409
5603,6409,5994,5995
5604,5993,5994,6409
5605,6409,6408,5993
5606,6407,6408,6813
5607,6813,6812,6407
5608,6993,6600,6599
5609,6599,6995,6993
5610,6154,6600,6601
5611,6601,6155,6154
5612,6814,7217,7216
5613,7216,6813,6814
5614,6989,7217,7218
5615,7218,6987,6989
5616,6409,6814,6813
5617,6813,6408,6409
5618,6156,6155,6601
5619,6601,6602,6156
5620,6987,6603,6602
5621,6602,6989,6987
5622,5547,5548,5368
5623,5368,5367,5547
5624,6155,5549,5548
5625,5548,6154,6155
5626,5370,5550,5551
5627,5551,5371,5370
5628,5549,6155,6156
5629,6156,5550,5549
5630,5995,5996,6411
5631,6411,6410,5995
5632,5997,6412,6411
5633,6411,5996,5997
5634,6413,6818,6817
5635,6817,6412,6413
5636,6979,6607,6606
5637,6606,6981,6979
5638,6605,6606,6160
5639,6160,6159,6605
5640,7220,7219,6816
5641,6816,6817,7220
5642,6987,7218,7219
5643,7219,6985,6987
5644,6411,6412,6817
5645,6817,6816,6411
5646,6159,6158,6604
5647,6604,6605,6159
5648,6985,6604,6603
5649,6603,6987,6985
5650,5376,5375,5555
5651,5555,5556,5376
5652,6162,6163,5557
5653,5557,5556,6162
5654,6164,5558,5557
5655,5557,6163,6164
5656,5378,5558,5559
5657,5559,5379,5378
5658,6003,6004,6419
5659,6419,6418,6003
5660,6005,6420,6419
5661,6419,6004,6005
5662,7228,7227,6824
5663,6824,6825,7228
5664,6971,7226,7227
5665,7227,6969,6971
5666,6420,6421,6826
5667,6826,6825,6420
5668,6963,6615,6614
5669,6614,6965,6963
5670,6263,6265,6613
5671,6613,6614,6263
5672,6825,6824,6419
5673,6419,6420,6825
5674,6969,6612,6611
5675,6611,6971,6969
5676,6613,6265,6267
5677,6267,6612,6613
5678,6003,6418,6417
5679,6417,6002,6003
5680,6001,6002,6417
5681,6417,6416,6001
5682,6820,6415,6416
5683,6416,6821,6820
5684,6977,6608,6607
5685,6607,6979,6977
5686,6609,6163,6162
5687,6162,6608,6609
5688,6821,6822,7225
5689,7225,7224,6821
5690,6973,7225,7226
5691,7226,6971,6973
5692,6417,6822,6821
5693,6821,6416,6417
5694,6163,6609,6610
5695,6610,6164,6163
5696,6971,6611,6610
5697,6610,6973,6971
5698,5563,5383,5382
5699,5382,5562,5563
5700,5562,5561,6265
5701,6265,6263,5562
5702,5559,5560,5380
5703,5380,5379,5559
5704,6265,5561,5560
5705,5560,6267,6265
5706,5623,5407,5406
5707,5406,5625,5623
5708,5627,6217,6215
5709,6215,5625,5627
5710,5629,5404,5403
5711,5403,5631,5629
5712,6217,5627,5629
5713,5629,6219,6217
5714,6027,6442,6441
5715,6441,6026,6027
5716,6025,6026,6441
5717,6441,6440,6025
5718,6439,6440,6845
5719,6845,6844,6439
5720,6929,6632,6631
5721,6631,6931,6929
5722,6225,6227,6632
5723,6632,6633,6225
5724,6846,7249,7248
5725,7248,6845,6846
5726,6925,7249,7250
5727,7250,6923,6925
5728,6441,6846,6845
5729,6845,6440,6441
5730,6223,6225,6633
5731,6633,6634,6223
5732,6923,6635,6634
5733,6634,6925,6923
5734,5638,5400,5399
5735,5399,5641,5638
5736,6225,5636,5638
5737,5638,6227,6225
5738,5631,5403,5402
5739,5402,5634,5631
5740,5636,6225,6223
5741,6223,5634,5636
5742,6027,6028,6443
5743,6443,6442,6027
5744,6029,6444,6443
5745,6443,6028,6029
5746,6445,6850,6849
5747,6849,6444,6445
5748,6915,6639,6638
5749,6638,6917,6915
5750,6215,6217,6637
5751,6637,6638,6215
5752,7252,7251,6848
5753,6848,6849,7252
5754,6923,7250,7251
5755,7251,6921,6923
5756,6443,6444,6849
5757,6849,6848,6443
5758,6217,6219,6636
5759,6636,6637,6217
5760,6921,6636,6635
5761,6635,6923,6921
5762,5621,5408,5407
5763,5407,5623,5621
5764,5621,6211,6209
5765,6209,5619,5621
5766,6207,5617,5619
5767,5619,6209,6207
5768,5615,5411,5410
5769,5410,5617,5615
5770,6035,6036,6451
5771,6451,6450,6035
5772,6037,6452,6451
5773,6451,6036,6037
5774,6857,7260,7259
5775,7259,6856,6857
5776,6907,7258,7259
5777,7259,6905,6907
5778,6453,6858,6857
5779,6857,6452,6453
5780,6899,6647,6646
5781,6646,6901,6899
5782,6199,6201,6645
5783,6645,6646,6199
5784,6856,6451,6452
5785,6452,6857,6856
5786,6905,6644,6643
5787,6643,6907,6905
5788,6201,6203,6644
5789,6644,6645,6201
5790,6035,6450,6449
5791,6449,6034,6035
5792,6448,6033,6034
5793,6034,6449,6448
5794,6852,6447,6448
5795,6448,6853,6852
5796,6913,6640,6639
5797,6639,6915,6913
5798,6209,6211,6640
5799,6640,6641,6209
5800,6853,6854,7257
5801,7257,7256,6853
5802,6909,7257,7258
5803,7258,6907,6909
5804,6449,6854,6853
5805,6853,6448,6449
5806,6207,6209,6641
5807,6641,6642,6207
5808,6907,6643,6642
5809,6642,6909,6907
5810,5607,5415,5414
5811,5414,5609,5607
5812,5611,6201,6199
5813,6199,5609,5611
5814,5613,5412,5411
5815,5411,5615,5613
5816,6201,5611,5613
5817,5613,6203,6201
5818,5622,5624,5264
5819,5264,5263,5622
5820,5626,5624,6214
5821,6214,6216,5626
5822,5628,5630,5267
5823,5267,5266,5628
5824,6216,6218,5628
5825,5628,5626,6216
5826,5891,5892,6307
5827,6307,6306,5891
5828,5893,6308,6307
5829,6307,5892,5893
5830,6308,6309,6714
5831,6714,6713,6308
5832,6928,6930,6503
5833,6503,6502,6928
5834,6224,6501,6502
5835,6502,6226,6224
5836,7116,7115,6712
5837,6712,6713,7116
5838,6924,6922,7114
5839,7114,7115,6924
5840,6307,6308,6713
5841,6713,6712,6307
5842,6222,6500,6501
5843,6501,6224,6222
5844,6922,6924,6500
5845,6500,6499,6922
5846,5637,5640,5271
5847,5271,5270,5637
5848,6224,6226,5637
5849,5637,5635,6224
5850,5630,5633,5268
5851,5268,5267,5630
5852,5635,5633,6222
5853,6222,6224,5635
5854,5891,6306,6305
5855,6305,5890,5891
5856,5889,5890,6305
5857,6305,6304,5889
5858,6303,6304,6709
5859,6709,6708,6303
5860,6914,6916,6496
5861,6496,6495,6914
5862,6214,6496,6497
5863,6497,6216,6214
5864,7112,6709,6710
5865,6710,7113,7112
5866,6922,6920,7113
5867,7113,7114,6922
5868,6305,6710,6709
5869,6709,6304,6305
5870,6216,6497,6498
5871,6498,6218,6216
5872,6920,6922,6499
5873,6499,6498,6920
5874,5620,5622,5263
5875,5263,5262,5620
5876,5620,5618,6208
5877,6208,6210,5620
5878,5614,5616,5260
5879,5260,5259,5614
5880,6206,6208,5618
5881,5618,5616,6206
5882,5883,6298,6297
5883,6297,5882,5883
5884,5881,5882,6297
5885,6297,6296,5881
5886,6700,6295,6296
5887,6296,6701,6700
5888,6898,6900,6488
5889,6488,6487,6898
5890,6198,6488,6489
5891,6489,6200,6198
5892,7104,6701,6702
5893,6702,7105,7104
5894,6906,6904,7105
5895,7105,7106,6906
5896,6702,6701,6296
5897,6296,6297,6702
5898,6200,6489,6490
5899,6490,6202,6200
5900,6904,6906,6491
5901,6491,6490,6904
5902,5606,5608,5256
5903,5256,5255,5606
5904,5610,5608,6198
5905,6198,6200,5610
5906,5612,5614,5259
5907,5259,5258,5612
5908,6200,6202,5612
5909,5612,5610,6200
5910,5883,5884,6299
5911,6299,6298,5883
5912,6300,6299,5884
5913,5884,5885,6300
5914,6706,6705,6300
5915,6300,6301,6706
5916,6912,6914,6495
5917,6495,6494,6912
5918,6208,6493,6494
5919,6494,6210,6208
5920,7108,7107,6704
5921,6704,6705,7108
5922,6908,6906,7106
5923,7106,7107,6908
5924,6705,6704,6299
5925,6299,6300,6705
5926,6206,6492,6493
5927,6493,6208,6206
5928,6906,6908,6492
5929,6492,6491,6906
5930,5475,5476,5296
5931,5296,5295,5475
5932,6082,6083,5477
5933,5477,5476,6082
5934,5479,5299,5298
5935,5298,5478,5479
5936,6084,5478,5477
5937,5477,6083,6084
5938,5923,5924,6339
5939,6339,6338,5923
5940,5925,6340,6339
5941,6339,5924,5925
5942,6340,6341,6746
5943,6746,6745,6340
5944,6992,6994,6535
5945,6535,6534,6992
5946,6533,6534,6088
5947,6088,6087,6533
5948,6745,7148,7147
5949,7147,6744,6745
5950,6988,6986,7146
5951,7146,7147,6988
5952,6745,6744,6339
5953,6339,6340,6745
5954,6087,6086,6532
5955,6532,6533,6087
5956,6986,6988,6532
5957,6532,6531,6986
5958,5302,5482,5483
5959,5483,5303,5302
5960,5481,6087,6088
5961,6088,5482,5481
5962,5479,5480,5300
5963,5300,5299,5479
5964,5481,5480,6086
5965,6086,6087,5481
5966,5923,6338,6337
5967,6337,5922,5923
5968,5921,5922,6337
5969,6337,6336,5921
5970,6335,6336,6741
5971,6741,6740,6335
5972,6978,6980,6528
5973,6528,6527,6978
5974,6529,6083,6082
5975,6082,6528,6529
5976,6742,7145,7144
5977,7144,6741,6742
5978,6986,6984,7145
5979,7145,7146,6986
5980,6337,6742,6741
5981,6741,6336,6337
5982,6529,6530,6084
5983,6084,6083,6529
5984,6984,6986,6531
5985,6531,6530,6984
5986,5294,5474,5475
5987,5475,5295,5294
5988,6079,6080,5474
5989,5474,5473,6079
5990,5471,5472,5292
5991,5292,5291,5471
5992,5473,5472,6078
5993,6078,6079,5473
5994,5915,6330,6329
5995,6329,5914,5915
5996,5913,5914,6329
5997,6329,6328,5913
5998,6732,6327,6328
5999,6328,6733,6732
6000,6962,6964,6520
6001,6520,6519,6962
6002,6262,6520,6521
6003,6521,6264,6262
6004,7136,6733,6734
6005,6734,7137,7136
6006,6970,6968,7137
6007,7137,7138,6970
6008,6734,6733,6328
6009,6328,6329,6734
6010,6521,6522,6266
6011,6266,6264,6521
6012,6968,6970,6523
6013,6523,6522,6968
6014,5288,5287,5467
6015,5467,5468,5288
6016,5468,6262,6264
6017,6264,5469,5468
6018,5471,5291,5290
6019,5290,5470,5471
6020,6264,6266,5470
6021,5470,5469,6264
6022,5915,5916,6331
6023,6331,6330,5915
6024,5917,6332,6331
6025,6331,5916,5917
6026,6332,6333,6738
6027,6738,6737,6332
6028,6976,6978,6527
6029,6527,6526,6976
6030,6079,6525,6526
6031,6526,6080,6079
6032,7140,7139,6736
6033,6736,6737,7140
6034,6972,6970,7138
6035,7138,7139,6972
6036,6737,6736,6331
6037,6331,6332,6737
6038,6525,6079,6078
6039,6078,6524,6525
6040,6970,6972,6524
6041,6524,6523,6970
6042,5507,5508,5328
6043,5328,5327,5507
6044,6114,6115,5509
6045,5509,5508,6114
6046,5330,5510,5511
6047,5511,5331,5330
6048,6116,5510,5509
6049,5509,6115,6116
6050,5956,6371,6370
6051,6370,5955,5956
6052,6371,5956,5957
6053,5957,6372,6371
6054,6372,6373,6778
6055,6778,6777,6372
6056,6567,6566,7047
6057,7047,7048,6567
6058,6120,6119,6565
6059,6565,6566,6120
6060,6776,6777,7180
6061,7180,7179,6776
6062,7179,7045,7044
6063,7044,7178,7179
6064,6371,6372,6777
6065,6777,6776,6371
6066,6118,6564,6565
6067,6565,6119,6118
6068,6563,7044,7045
6069,7045,6564,6563
6070,5515,5335,5334
6071,5334,5514,5515
6072,5513,6119,6120
6073,6120,5514,5513
6074,5511,5512,5332
6075,5332,5331,5511
6076,5513,5512,6118
6077,6118,6119,5513
6078,5955,6370,6369
6079,6369,5954,5955
6080,5953,5954,6369
6081,6369,6368,5953
6082,6772,6367,6368
6083,6368,6773,6772
6084,6559,7040,7041
6085,7041,6560,6559
6086,6561,6115,6114
6087,6114,6560,6561
6088,6774,7177,7176
6089,7176,6773,6774
6090,7043,7177,7178
6091,7178,7044,7043
6092,6774,6773,6368
6093,6368,6369,6774
6094,6116,6115,6561
6095,6561,6562,6116
6096,6562,7043,7044
6097,7044,6563,6562
6098,5506,5507,5327
6099,5327,5326,5506
6100,6112,5506,5505
6101,5505,6111,6112
6102,5503,5504,5324
6103,5324,5323,5503
6104,5505,5504,6110
6105,6110,6111,5505
6106,5946,5947,6362
6107,6362,6361,5946
6108,6361,6360,5945
6109,5945,5946,6361
6110,6764,6359,6360
6111,6360,6765,6764
6112,7033,6552,6551
6113,6551,7032,7033
6114,6106,6552,6553
6115,6553,6107,6106
6116,7169,7168,6765
6117,6765,6766,7169
6118,7170,7036,7035
6119,7035,7169,7170
6120,6361,6766,6765
6121,6765,6360,6361
6122,6553,6554,6108
6123,6108,6107,6553
6124,6554,7035,7036
6125,7036,6555,6554
6126,5500,5320,5319
6127,5319,5499,5500
6128,6106,6107,5501
6129,5501,5500,6106
6130,5322,5502,5503
6131,5503,5323,5322
6132,5502,5501,6107
6133,6107,6108,5502
6134,6363,6362,5947
6135,5947,5948,6363
6136,5948,5949,6364
6137,6364,6363,5948
6138,6770,6769,6364
6139,6364,6365,6770
6140,6558,7039,7040
6141,7040,6559,6558
6142,6112,6111,6557
6143,6557,6558,6112
6144,7171,6768,6769
6145,6769,7172,7171
6146,7037,7036,7170
6147,7170,7171,7037
6148,6769,6768,6363
6149,6363,6364,6769
6150,6556,6557,6111
6151,6111,6110,6556
6152,7037,6556,6555
6153,6555,7036,7037
6154,5539,5540,5360
6155,5360,5359,5539
6156,6147,5541,5540
6157,5540,6146,6147
6158,5543,5363,5362
6159,5362,5542,5543
6160,5541,6147,6148
6161,6148,5542,5541
6162,5987,5988,6403
6163,6403,6402,5987
6164,5989,6404,6403
6165,6403,5988,5989
6166,6404,6405,6810
6167,6810,6809,6404
6168,6995,6599,6598
6169,6598,6997,6995
6170,6597,6598,6152
6171,6152,6151,6597
6172,7212,7211,6808
6173,6808,6809,7212
6174,7003,7210,7211
6175,7211,7001,7003
6176,6809,6808,6403
6177,6403,6404,6809
6178,6151,6150,6596
6179,6596,6597,6151
6180,7001,6596,6595
6181,6595,7003,7001
6182,5366,5546,5547
6183,5547,5367,5366
6184,5545,6151,6152
6185,6152,5546,5545
6186,5543,5544,5364
6187,5364,5363,5543
6188,5545,5544,6150
6189,6150,6151,5545
6190,5987,6402,6401
6191,6401,5986,5987
6192,6400,5985,5986
6193,5986,6401,6400
6194,6805,6804,6399
6195,6399,6400,6805
6196,7009,6592,6591
6197,6591,7011,7009
6198,6592,6593,6147
6199,6147,6146,6592
6200,6806,7209,7208
6201,7208,6805,6806
6202,7005,7209,7210
6203,7210,7003,7005
6204,6400,6401,6806
6205,6806,6805,6400
6206,6593,6594,6148
6207,6148,6147,6593
6208,7003,6595,6594
6209,6594,7005,7003
6210,5358,5538,5539
6211,5539,5359,5358
6212,6144,5538,5537
6213,5537,6143,6144
6214,5535,5536,5356
6215,5356,5355,5535
6216,5537,5536,6142
6217,6142,6143,5537
6218,6393,5978,5979
6219,5979,6394,6393
6220,5978,6393,6392
6221,6392,5977,5978
6222,6796,6391,6392
6223,6392,6797,6796
6224,7065,6584,6583
6225,6583,7064,7065
6226,6138,6584,6585
6227,6585,6139,6138
6228,6798,7201,7200
6229,7200,6797,6798
6230,7201,7202,7068
6231,7068,7067,7201
6232,6798,6797,6392
6233,6392,6393,6798
6234,6140,6139,6585
6235,6585,6586,6140
6236,6586,7067,7068
6237,7068,6587,6586
6238,5352,5351,5531
6239,5531,5532,5352
6240,5532,6138,6139
6241,6139,5533,5532
6242,5534,5535,5355
6243,5355,5354,5534
6244,6140,5534,5533
6245,5533,6139,6140
6246,5979,5980,6395
6247,6395,6394,5979
6248,5981,6396,6395
6249,6395,5980,5981
6250,6397,6802,6801
6251,6801,6396,6397
6252,7011,6591,6590
6253,6590,7013,7011
6254,6589,6590,6144
6255,6144,6143,6589
6256,7204,7203,6800
6257,6800,6801,7204
6258,7069,7068,7202
6259,7202,7203,7069
6260,6801,6800,6395
6261,6395,6396,6801
6262,6588,6589,6143
6263,6143,6142,6588
6264,7069,6588,6587
6265,6587,7068,7069
6266,5392,5391,5571
6267,5571,5655,5392
6268,6241,5653,5655
6269,5655,6243,6241
6270,5395,5394,5651
6271,5651,5649,5395
6272,5653,6241,6239
6273,6239,5651,5653
6274,6019,6020,6435
6275,6435,6434,6019
6276,6021,6436,6435
6277,6435,6020,6021
6278,6841,6436,6437
6279,6437,6842,6841
6280,6931,6631,6630
6281,6630,6933,6931
6282,6231,6233,6629
6283,6629,6630,6231
6284,7244,7243,6840
6285,6840,6841,7244
6286,6939,7242,7243
6287,7243,6937,6939
6288,6436,6841,6840
6289,6840,6435,6436
6290,6233,6235,6628
6291,6628,6629,6233
6292,6937,6628,6627
6293,6627,6939,6937
6294,5641,5399,5398
6295,5398,5643,5641
6296,6231,5643,5645
6297,5645,6233,6231
6298,5647,5396,5395
6299,5395,5649,5647
6300,5647,6235,6233
6301,6233,5645,5647
6302,6019,6434,6433
6303,6433,6018,6019
6304,6017,6018,6433
6305,6433,6432,6017
6306,6431,6432,6837
6307,6837,6836,6431
6308,6945,6624,6623
6309,6623,6947,6945
6310,6241,6243,6624
6311,6624,6625,6241
6312,6838,7241,7240
6313,7240,6837,6838
6314,6941,7241,7242
6315,7242,6939,6941
6316,6433,6838,6837
6317,6837,6432,6433
6318,6239,6241,6625
6319,6625,6626,6239
6320,6939,6627,6626
6321,6626,6941,6939
6322,5390,5570,5571
6323,5571,5391,5390
6324,6247,5570,5569
6325,5569,6249,6247
6326,5567,5568,5388
6327,5388,5387,5567
6328,6249,5569,5568
6329,5568,6251,6249
6330,6011,6426,6425
6331,6425,6010,6011
6332,6424,6009,6010
6333,6010,6425,6424
6334,6829,6828,6423
6335,6423,6424,6829
6336,6961,6616,6615
6337,6615,6963,6961
6338,6257,6259,6616
6339,6616,6617,6257
6340,7232,6829,6830
6341,6830,7233,7232
6342,6957,7233,7234
6343,7234,6955,6957
6344,6424,6425,6830
6345,6830,6829,6424
6346,6255,6257,6617
6347,6617,6618,6255
6348,6955,6619,6618
6349,6618,6957,6955
6350,5384,5383,5563
6351,5563,5564,5384
6352,6257,5565,5564
6353,5564,6259,6257
6354,5567,5387,5386
6355,5386,5566,5567
6356,6255,5566,5565
6357,5565,6257,6255
6358,6011,6012,6427
6359,6427,6426,6011
6360,6013,6428,6427
6361,6427,6012,6013
6362,6834,6833,6428
6363,6428,6429,6834
6364,6947,6623,6622
6365,6622,6949,6947
6366,6247,6249,6621
6367,6621,6622,6247
6368,7236,7235,6832
6369,6832,6833,7236
6370,6955,7234,7235
6371,7235,6953,6955
6372,6833,6832,6427
6373,6427,6428,6833
6374,6621,6249,6251
6375,6251,6620,6621
6376,6953,6620,6619
6377,6619,6955,6953
6378,5441,5423,5591
6379,5591,5588,5441
6380,5586,5588,6179
6381,6179,6177,5586
6382,5435,5584,5580
6383,5580,5433,5435
6384,6177,6174,5584
6385,5584,5586,6177
6386,6051,6052,6467
6387,6467,6466,6051
6388,6468,6467,6052
6389,6052,6053,6468
6390,6873,6468,6469
6391,6469,6874,6873
6392,6664,7076,7077
6393,7077,6662,6664
6394,6666,6664,6167
6395,6167,6168,6666
6396,7276,7275,6872
6397,6872,6873,7276
6398,7274,7275,7074
6399,7074,7073,7274
6400,6468,6873,6872
6401,6872,6467,6468
6402,6668,6666,6168
6403,6168,6170,6668
6404,6670,7073,7074
6405,7074,6668,6670
6406,6051,6466,6465
6407,6465,6050,6051
6408,6049,6050,6465
6409,6465,6464,6049
6410,6463,6464,6869
6411,6869,6868,6463
6412,6883,7070,6676
6413,6676,6678,6883
6414,6676,6674,6177
6415,6177,6179,6676
6416,6870,7273,7272
6417,7272,6869,6870
6418,7072,7273,7274
6419,7274,7073,7072
6420,6870,6869,6464
6421,6464,6465,6870
6422,6674,6672,6174
6423,6174,6177,6674
6424,6672,7072,7073
6425,7073,6670,6672
6426,5591,5423,5422
6427,5422,5593,5591
6428,5593,5595,6185
6429,6185,6183,5593
6430,5597,5420,5419
6431,5419,5599,5597
6432,6187,6185,5595
6433,5595,5597,6187
6434,6043,6458,6457
6435,6457,6042,6043
6436,6041,6042,6457
6437,6457,6456,6041
6438,6861,6860,6455
6439,6455,6456,6861
6440,6897,6648,6647
6441,6647,6899,6897
6442,6193,6195,6648
6443,6648,6649,6193
6444,7264,6861,6862
6445,6862,7265,7264
6446,6893,7265,7266
6447,7266,6891,6893
6448,6456,6457,6862
6449,6862,6861,6456
6450,6191,6193,6649
6451,6649,6650,6191
6452,6650,6893,6891
6453,6891,6651,6650
6454,5605,5416,5415
6455,5415,5607,5605
6456,6193,5603,5605
6457,5605,6195,6193
6458,5599,5419,5418
6459,5418,5601,5599
6460,6193,6191,5601
6461,5601,5603,6193
6462,6043,6044,6459
6463,6459,6458,6043
6464,6045,6460,6459
6465,6459,6044,6045
6466,6865,6460,6461
6467,6461,6866,6865
6468,6883,6678,6654
6469,6654,6885,6883
6470,6183,6185,6653
6471,6653,6654,6183
6472,7268,7267,6864
6473,6864,6865,7268
6474,6891,7266,7267
6475,7267,6889,6891
6476,6460,6865,6864
6477,6864,6459,6460
6478,6185,6187,6652
6479,6652,6653,6185
6480,6889,6652,6651
6481,6651,6891,6889
6482,7081,7077,7278
6483,7278,7279,7081
6484,7280,7279,6876
6485,6876,6877,7280
6486,7018,7085,7086
6487,7086,7019,7018
6488,6681,6682,7085
6489,7085,7084,6681
6490,7295,7320,7318
6491,7318,7293,7295
6492,7314,7312,7287
6493,7287,7289,7314
6494,7077,7081,6660
6495,6660,6662,7077
6496,6471,6472,6877
6497,6877,6876,6471
6498,6660,6658,6071
6499,6071,6073,6660
6500,6274,6473,6058
6501,6058,5860,6274
6502,6057,6058,6473
6503,6473,6472,6057
6504,6878,7281,7280
6505,7280,6877,6878
6506,7079,6879,7281
6507,7281,7282,7079
6508,6472,6473,6878
6509,6878,6877,6472
6510,6658,6656,6070
6511,6070,6071,6658
6512,6879,7079,6479
6513,6479,6656,6879
6514,6271,6274,5860
6515,5860,6060,6271
6516,6269,6271,6060
6517,6060,6062,6269
6518,7282,7284,7080
6519,7080,7079,7282
6520,6271,6269,6273
6521,6273,6477,6271
6522,7080,6477,6479
6523,6479,7079,7080
6524,6273,6066,6065
6525,6065,6477,6273
6526,6661,6659,7018
6527,7018,7019,6661
6528,6681,6276,6277
6529,6277,6682,6681
6530,6659,6074,6072
6531,6072,6657,6659
6532,6275,6059,5859
6533,5859,6474,6275
6534,6276,6474,5859
6535,5859,5861,6276
6536,7084,7083,6680
6537,6680,6681,7084
6538,7083,7078,7016
6539,7016,7283,7083
6540,6276,6681,6680
6541,6680,6474,6276
6542,6657,6072,6069
6543,6069,6655,6657
6544,6655,6478,7016
6545,7016,7078,6655
6546,5575,5576,5428
6547,5428,5427,5575
6548,6072,6074,5575
6549,5575,5574,6072
6550,6069,6072,5574
6551,5574,5573,6069
6552,5425,5424,5572
6553,5572,5573,5425
6554,5424,5246,5458
6555,5458,5572,5424
6556,6064,6268,5458
6557,5458,5657,6064
6558,7299,7297,7296
6559,7296,7298,7299
6560,7299,7324,7322
6561,7322,7297,7299
6562,7299,7298,7300
6563,7300,7301,7299
6564,7326,7324,7299
6565,7299,7301,7326
6566,6272,6061,6059
6567,6059,6275,6272
6568,6270,6063,6061
6569,6061,6272,6270
6570,7307,7306,7308
6571,7308,7285,7307
6572,7334,7332,7307
6573,7307,7285,7334
6574,7283,7016,7082
6575,7082,7285,7283
6576,7306,7307,7305
6577,7305,7304,7306
6578,7332,7330,7305
6579,7305,7307,7332
6580,6475,6270,6272
6581,6272,6476,6475
6582,7016,6478,6476
6583,6476,7082,7016
6584,6268,6064,6475
6585,6475,6476,6268
6586,7292,7293,7291
6587,7291,7290,7292
6588,7291,7293,7318
6589,7318,7316,7291
6590,7288,7290,7291
6591,7291,7289,7288
6592,7314,7289,7291
6593,7291,7316,7314
6594,4629,4512,4843
6595,4843,4940,4629
6596,5247,4844,4940
6597,4940,5440,5247
6598,4626,4937,4841
6599,4841,4510,4626
6600,4937,4840,5428
6601,5428,5429,4937
6602,4941,4844,5247
6603,5247,5248,4941
6604,4632,4941,4845
6605,4845,4515,4632
6606,4542,4519,4847
6607,4847,4944,4542
6608,4944,5254,5255
6609,5255,4848,4944
6610,4554,4444,4859
6611,4859,4956,4554
6612,4956,5278,5279
6613,5279,4860,4956
6614,4551,4953,4857
6615,4857,4442,4551
6616,4953,4856,5271
6617,5271,5272,4953
6618,4957,4860,5279
6619,5279,5280,4957
6620,4555,4957,4861
6621,4861,4446,4555
6622,4558,4448,4863
6623,4863,4960,4558
6624,4960,5286,5287
6625,5287,4864,4960
6626,4570,4460,4875
6627,4875,4972,4570
6628,4972,5310,5311
6629,5311,4876,4972
6630,4567,4969,4873
6631,4873,4458,4567
6632,4969,4872,5303
6633,5303,5304,4969
6634,4973,4876,5311
6635,5311,5312,4973
6636,4571,4973,4877
6637,4877,4462,4571
6638,4574,4464,4879
6639,4879,4976,4574
6640,4976,5318,5319
6641,5319,4880,4976
6642,4586,4476,4891
6643,4891,4988,4586
6644,4988,5342,5343
6645,5343,4892,4988
6646,4583,4985,4889
6647,4889,4474,4583
6648,4985,4888,5335
6649,5335,5336,4985
6650,4989,4892,5343
6651,5343,5344,4989
6652,4587,4989,4893
6653,4893,4478,4587
6654,4590,4480,4895
6655,4895,4992,4590
6656,4992,5350,5351
6657,5351,4896,4992
6658,4602,4492,4907
6659,4907,5004,4602
6660,5004,5374,5375
6661,5375,4908,5004
6662,4599,5001,4905
6663,4905,4490,4599
6664,5001,4904,5367
6665,5367,5368,5001
6666,5005,4908,5375
6667,5375,5376,5005
6668,4603,5005,4909
6669,4909,4494,4603
6670,4606,4496,4911
6671,4911,5008,4606
6672,5008,5382,5383
6673,5383,4912,5008
6674,4618,4533,4923
6675,4923,5020,4618
6676,5020,5406,5407
6677,5407,4924,5020
6678,4615,5017,4921
6679,4921,4506,4615
6680,5017,4920,5399
6681,5399,5400,5017
6682,5021,4924,5407
6683,5407,5408,5021
6684,4619,5021,4925
6685,4925,4529,4619
6686,4622,4525,4927
6687,4927,5024,4622
6688,5024,5414,5415
6689,5415,4928,5024
6690,4547,4949,4853
6691,4853,4532,4547
6692,4949,4852,5263
6693,5263,5264,4949
6694,4550,4440,4855
6695,4855,4952,4550
6696,4952,5270,5271
6697,5271,4856,4952
6698,4546,4528,4851
6699,4851,4948,4546
6700,4948,5262,5263
6701,5263,4852,4948
6702,4543,4945,4849
6703,4849,4524,4543
6704,4945,4848,5255
6705,5255,5256,4945
6706,4563,4965,4869
6707,4869,4454,4563
6708,4965,4868,5295
6709,5295,5296,4965
6710,4566,4456,4871
6711,4871,4968,4566
6712,4968,5302,5303
6713,5303,4872,4968
6714,4562,4452,4867
6715,4867,4964,4562
6716,4964,5294,5295
6717,5295,4868,4964
6718,4559,4961,4865
6719,4865,4450,4559
6720,4961,4864,5287
6721,5287,5288,4961
6722,4579,4981,4885
6723,4885,4470,4579
6724,4981,4884,5327
6725,5327,5328,4981
6726,4582,4472,4887
6727,4887,4984,4582
6728,4984,5334,5335
6729,5335,4888,4984
6730,4578,4468,4883
6731,4883,4980,4578
6732,4980,5326,5327
6733,5327,4884,4980
6734,4575,4977,4881
6735,4881,4466,4575
6736,4977,4880,5319
6737,5319,5320,4977
6738,4595,4997,4901
6739,4901,4486,4595
6740,4997,4900,5359
6741,5359,5360,4997
6742,4598,4488,4903
6743,4903,5000,4598
6744,5000,5366,5367
6745,5367,4904,5000
6746,4594,4484,4899
6747,4899,4996,4594
6748,4996,5358,5359
6749,5359,4900,4996
6750,4591,4993,4897
6751,4897,4482,4591
6752,4993,4896,5351
6753,5351,5352,4993
6754,4611,5013,4917
6755,4917,4502,4611
6756,5013,4916,5391
6757,5391,5392,5013
6758,4614,4504,4919
6759,4919,5016,4614
6760,5016,5398,5399
6761,5399,4920,5016
6762,4610,4500,4915
6763,4915,5012,4610
6764,5012,5390,5391
6765,5391,4916,5012
6766,4607,5009,4913
6767,4913,4498,4607
6768,5009,4912,5383
6769,5383,5384,5009
6770,4630,5029,4933
6771,4933,4438,4630
6772,5423,5441,5029
6773,5029,4932,5423
6774,4633,4516,4931
6775,4931,5028,4633
6776,5028,5422,5423
6777,5423,4932,5028
6778,4623,5025,4929
6779,4929,4520,4623
6780,5025,4928,5415
6781,5415,5416,5025
6782,4936,5427,5428
6783,5428,4840,4936
6784,4625,4508,4839
6785,4839,4936,4625
6786,5052,5053,5667
6787,5667,5666,5052
6788,4628,4939,4843
6789,4843,4512,4628
6790,5434,5436,4939
6791,4939,4842,5434
6792,4627,4510,4841
6793,4841,4938,4627
6794,5432,5434,4842
6795,4842,4938,5432
6796,5049,5050,5664
6797,5664,5663,5049
6798,5048,5049,5663
6799,5663,5662,5048
6800,5058,5059,5673
6801,5673,5672,5058
6802,4634,4515,4845
6803,4845,4942,4634
6804,4942,5250,5251
6805,5251,4846,4942
6806,5056,5057,5671
6807,5671,5670,5056
6808,5676,5675,5061
6809,5061,5062,5676
6810,5060,5061,5675
6811,5675,5674,5060
6812,4636,4943,4847
6813,4847,4519,4636
6814,4943,4846,5251
6815,5251,5252,4943
6816,5062,5063,5677
6817,5677,5676,5062
6818,5084,5085,5699
6819,5699,5698,5084
6820,4553,4955,4859
6821,4859,4444,4553
6822,4955,4858,5275
6823,5275,5276,4955
6824,4552,4442,4857
6825,4857,4954,4552
6826,4954,5274,5275
6827,5275,4858,4954
6828,5081,5082,5696
6829,5696,5695,5081
6830,5080,5081,5695
6831,5695,5694,5080
6832,5090,5091,5705
6833,5705,5704,5090
6834,4556,4446,4861
6835,4861,4958,4556
6836,4958,5282,5283
6837,5283,4862,4958
6838,5088,5089,5703
6839,5703,5702,5088
6840,5708,5707,5093
6841,5093,5094,5708
6842,5092,5093,5707
6843,5707,5706,5092
6844,4557,4959,4863
6845,4863,4448,4557
6846,4959,4862,5283
6847,5283,5284,4959
6848,5094,5095,5709
6849,5709,5708,5094
6850,5116,5117,5731
6851,5731,5730,5116
6852,4569,4971,4875
6853,4875,4460,4569
6854,4971,4874,5307
6855,5307,5308,4971
6856,4568,4458,4873
6857,4873,4970,4568
6858,4970,5306,5307
6859,5307,4874,4970
6860,5728,5727,5113
6861,5113,5114,5728
6862,5112,5113,5727
6863,5727,5726,5112
6864,5123,5737,5736
6865,5736,5122,5123
6866,4572,4462,4877
6867,4877,4974,4572
6868,4974,5314,5315
6869,5315,4878,4974
6870,5120,5121,5735
6871,5735,5734,5120
6872,5739,5125,5126
6873,5126,5740,5739
6874,5125,5739,5738
6875,5738,5124,5125
6876,4573,4975,4879
6877,4879,4464,4573
6878,4975,4878,5315
6879,5315,5316,4975
6880,5126,5127,5741
6881,5741,5740,5126
6882,5763,5762,5148
6883,5148,5149,5763
6884,4585,4987,4891
6885,4891,4476,4585
6886,4987,4890,5339
6887,5339,5340,4987
6888,4584,4474,4889
6889,4889,4986,4584
6890,4986,5338,5339
6891,5339,4890,4986
6892,5145,5146,5760
6893,5760,5759,5145
6894,5144,5145,5759
6895,5759,5758,5144
6896,5154,5155,5769
6897,5769,5768,5154
6898,4588,4478,4893
6899,4893,4990,4588
6900,4990,5346,5347
6901,5347,4894,4990
6902,5152,5153,5767
6903,5767,5766,5152
6904,5157,5158,5772
6905,5772,5771,5157
6906,5156,5157,5771
6907,5771,5770,5156
6908,4589,4991,4895
6909,4895,4480,4589
6910,4991,4894,5347
6911,5347,5348,4991
6912,5158,5159,5773
6913,5773,5772,5158
6914,5180,5181,5795
6915,5795,5794,5180
6916,4601,5003,4907
6917,4907,4492,4601
6918,5003,4906,5371
6919,5371,5372,5003
6920,4600,4490,4905
6921,4905,5002,4600
6922,5002,5370,5371
6923,5371,4906,5002
6924,5792,5791,5177
6925,5177,5178,5792
6926,5176,5177,5791
6927,5791,5790,5176
6928,5186,5187,5801
6929,5801,5800,5186
6930,4604,4494,4909
6931,4909,5006,4604
6932,5006,5378,5379
6933,5379,4910,5006
6934,5184,5185,5799
6935,5799,5798,5184
6936,5190,5804,5803
6937,5803,5189,5190
6938,5188,5189,5803
6939,5803,5802,5188
6940,4605,5007,4911
6941,4911,4496,4605
6942,5007,4910,5379
6943,5379,5380,5007
6944,5804,5190,5191
6945,5191,5805,5804
6946,5212,5213,5827
6947,5827,5826,5212
6948,4617,5019,4923
6949,4923,4533,4617
6950,5019,4922,5403
6951,5403,5404,5019
6952,4616,4506,4921
6953,4921,5018,4616
6954,5018,5402,5403
6955,5403,4922,5018
6956,5209,5210,5824
6957,5824,5823,5209
6958,5208,5209,5823
6959,5823,5822,5208
6960,5218,5219,5833
6961,5833,5832,5218
6962,4620,4529,4925
6963,4925,5022,4620
6964,5022,5410,5411
6965,5411,4926,5022
6966,5216,5217,5831
6967,5831,5830,5216
6968,5221,5222,5836
6969,5836,5835,5221
6970,5220,5221,5835
6971,5835,5834,5220
6972,4621,5023,4927
6973,4927,4525,4621
6974,5023,4926,5411
6975,5411,5412,5023
6976,5222,5223,5837
6977,5837,5836,5222
6978,5075,5076,5690
6979,5690,5689,5075
6980,4548,4532,4853
6981,4853,4950,4548
6982,4950,5266,5267
6983,5267,4854,4950
6984,4549,4951,4855
6985,4855,4440,4549
6986,4951,4854,5267
6987,5267,5268,4951
6988,5078,5079,5693
6989,5693,5692,5078
6990,5079,5080,5694
6991,5694,5693,5079
6992,5069,5070,5684
6993,5684,5683,5069
6994,5068,5069,5683
6995,5683,5682,5068
6996,4545,4947,4851
6997,4851,4528,4545
6998,4947,4850,5259
6999,5259,5260,4947
7000,5071,5072,5686
7001,5686,5685,5071
7002,5067,5068,5682
7003,5682,5681,5067
7004,4544,4524,4849
7005,4849,4946,4544
7006,4946,5258,5259
7007,5259,4850,4946
7008,5107,5108,5722
7009,5722,5721,5107
7010,4564,4454,4869
7011,4869,4966,4564
7012,4966,5298,5299
7013,5299,4870,4966
7014,4565,4967,4871
7015,4871,4456,4565
7016,4967,4870,5299
7017,5299,5300,4967
7018,5110,5111,5725
7019,5725,5724,5110
7020,5111,5112,5726
7021,5726,5725,5111
7022,5101,5102,5716
7023,5716,5715,5101
7024,5100,5101,5715
7025,5715,5714,5100
7026,4561,4963,4867
7027,4867,4452,4561
7028,4963,4866,5291
7029,5291,5292,4963
7030,5103,5104,5718
7031,5718,5717,5103
7032,5099,5100,5714
7033,5714,5713,5099
7034,4560,4450,4865
7035,4865,4962,4560
7036,4962,5290,5291
7037,5291,4866,4962
7038,5139,5140,5754
7039,5754,5753,5139
7040,4580,4470,4885
7041,4885,4982,4580
7042,4982,5330,5331
7043,5331,4886,4982
7044,4581,4983,4887
7045,4887,4472,4581
7046,4983,4886,5331
7047,5331,5332,4983
7048,5142,5143,5757
7049,5757,5756,5142
7050,5758,5757,5143
7051,5143,5144,5758
7052,5133,5134,5748
7053,5748,5747,5133
7054,5747,5746,5132
7055,5132,5133,5747
7056,4577,4979,4883
7057,4883,4468,4577
7058,4979,4882,5323
7059,5323,5324,4979
7060,5135,5136,5750
7061,5750,5749,5135
7062,5131,5132,5746
7063,5746,5745,5131
7064,4576,4466,4881
7065,4881,4978,4576
7066,4978,5322,5323
7067,5323,4882,4978
7068,5171,5172,5786
7069,5786,5785,5171
7070,4596,4486,4901
7071,4901,4998,4596
7072,4998,5362,5363
7073,5363,4902,4998
7074,4597,4999,4903
7075,4903,4488,4597
7076,4999,4902,5363
7077,5363,5364,4999
7078,5174,5175,5789
7079,5789,5788,5174
7080,5175,5176,5790
7081,5790,5789,5175
7082,5779,5165,5166
7083,5166,5780,5779
7084,5165,5779,5778
7085,5778,5164,5165
7086,4593,4995,4899
7087,4899,4484,4593
7088,4995,4898,5355
7089,5355,5356,4995
7090,5167,5168,5782
7091,5782,5781,5167
7092,5777,5163,5164
7093,5164,5778,5777
7094,4592,4482,4897
7095,4897,4994,4592
7096,4994,5354,5355
7097,5355,4898,4994
7098,5203,5204,5818
7099,5818,5817,5203
7100,4612,4502,4917
7101,4917,5014,4612
7102,5014,5394,5395
7103,5395,4918,5014
7104,4613,5015,4919
7105,4919,4504,4613
7106,5015,4918,5395
7107,5395,5396,5015
7108,5820,5206,5207
7109,5207,5821,5820
7110,5207,5208,5822
7111,5822,5821,5207
7112,5197,5198,5812
7113,5812,5811,5197
7114,5196,5197,5811
7115,5811,5810,5196
7116,4609,5011,4915
7117,4915,4500,4609
7118,5011,4914,5387
7119,5387,5388,5011
7120,5199,5200,5814
7121,5814,5813,5199
7122,5195,5196,5810
7123,5810,5809,5195
7124,4608,4498,4913
7125,4913,5010,4608
7126,5010,5386,5387
7127,5387,4914,5010
7128,5240,5457,5639
7129,5639,5042,5240
7130,5042,5035,5240
7131,4540,4438,4933
7132,4933,5030,4540
7133,5433,4934,5030
7134,5030,5435,5433
7135,5447,5244,5450
7136,5450,5456,5447
7137,5457,5456,6052
7138,6052,6051,5457
7139,5447,5456,5457
7140,5457,5240,5447
7141,5456,5450,6053
7142,6053,6052,5456
7143,5236,5850,5854
7144,5854,5036,5236
7145,5850,5632,6168
7146,6168,6167,5850
7147,5433,5580,5583
7148,5583,5430,5433
7149,5632,5583,6170
7150,6170,6168,5632
7151,4635,5027,4931
7152,4931,4516,4635
7153,5027,4930,5419
7154,5419,5420,5027
7155,5230,5231,5845
7156,5845,5844,5230
7157,5840,5226,5227
7158,5227,5841,5840
7159,4637,4520,4929
7160,4929,5026,4637
7161,5026,5418,5419
7162,5419,4930,5026
7163,5224,5225,5839
7164,5839,5838,5224
7165,5855,6073,6071
7166,6071,5852,5855
7167,5448,5455,5452
7168,5452,5243,5448
7169,5455,5449,5860
7170,5860,6058,5455
7171,5455,6058,6057
7172,6057,5452,5455
7173,5448,5241,5449
7174,5449,5455,5448
7175,5853,5852,6071
7176,6071,6070,5853
7177,5238,5853,5851
7178,5851,5037,5238
7179,5582,5443,5239
7180,5239,5857,5582
7181,5582,6060,5860
7182,5860,5449,5582
7183,5443,5582,5449
7184,5449,5241,5443
7185,5857,6062,6060
7186,6060,5582,5857
7187,6066,5856,5656
7188,5656,6065,6066
7189,5660,5046,5047
7190,5047,5661,5660
7191,5046,5660,5659
7192,5659,5045,5046
7193,4624,4935,4839
7194,4839,4508,4624
7195,4935,4838,5424
7196,5424,5425,4935
7197,4638,4534,4835
7198,4835,5032,4638
7199,5032,5246,5424
7200,5424,4838,5032
7201,4341,4741,4645
7202,4645,4223,4341
7203,4741,4646,5056
7204,5056,5055,4741
7205,4740,5053,5052
7206,5052,4644,4740
7207,4338,4221,4643
7208,4643,4738,4338
7209,4738,5049,5048
7210,5048,4642,4738
7211,4739,4644,5052
7212,5052,5051,4739
7213,4342,4225,4647
7214,4647,4742,4342
7215,4742,5057,5056
7216,5056,4646,4742
7217,4743,4648,5060
7218,5060,5059,4743
7219,4343,4743,4647
7220,4647,4225,4343
7221,4745,4650,5064
7222,5064,5063,4745
7223,4744,5061,5060
7224,5060,4648,4744
7225,4344,4227,4649
7226,4649,4744,4344
7227,4757,4662,5088
7228,5088,5087,4757
7229,4756,5085,5084
7230,5084,4660,4756
7231,4356,4239,4661
7232,4661,4756,4356
7233,4754,5081,5080
7234,5080,4658,4754
7235,4755,4660,5084
7236,5084,5083,4755
7237,4355,4755,4659
7238,4659,4237,4355
7239,4358,4241,4663
7240,4663,4758,4358
7241,4758,5089,5088
7242,5088,4662,4758
7243,4759,4664,5092
7244,5092,5091,4759
7245,4761,4666,5096
7246,5096,5095,4761
7247,4760,5093,5092
7248,5092,4664,4760
7249,4360,4243,4665
7250,4665,4760,4360
7251,4373,4773,4677
7252,4677,4255,4373
7253,4773,4678,5120
7254,5120,5119,4773
7255,4772,5117,5116
7256,5116,4676,4772
7257,4372,4255,4677
7258,4677,4772,4372
7259,4770,5113,5112
7260,5112,4674,4770
7261,4771,4676,5116
7262,5116,5115,4771
7263,4371,4771,4675
7264,4675,4253,4371
7265,4374,4257,4679
7266,4679,4774,4374
7267,4774,5121,5120
7268,5120,4678,4774
7269,4775,4680,5124
7270,5124,5123,4775
7271,4377,4777,4681
7272,4681,4259,4377
7273,4777,4682,5128
7274,5128,5127,4777
7275,4776,5125,5124
7276,5124,4680,4776
7277,4389,4789,4693
7278,4693,4271,4389
7279,4789,4694,5152
7280,5152,5151,4789
7281,4788,5149,5148
7282,5148,4692,4788
7283,4786,5145,5144
7284,5144,4690,4786
7285,4787,4692,5148
7286,5148,5147,4787
7287,4387,4787,4691
7288,4691,4269,4387
7289,4790,5153,5152
7290,5152,4694,4790
7291,4791,4696,5156
7292,5156,5155,4791
7293,4391,4791,4695
7294,4695,4273,4391
7295,4793,4698,5160
7296,5160,5159,4793
7297,4792,5157,5156
7298,5156,4696,4792
7299,4392,4275,4697
7300,4697,4792,4392
7301,4405,4805,4709
7302,4709,4287,4405
7303,4805,4710,5184
7304,5184,5183,4805
7305,4804,5181,5180
7306,5180,4708,4804
7307,4402,4285,4707
7308,4707,4802,4402
7309,4802,5177,5176
7310,5176,4706,4802
7311,4803,4708,5180
7312,5180,5179,4803
7313,4406,4289,4711
7314,4711,4806,4406
7315,4806,5185,5184
7316,5184,4710,4806
7317,4807,4712,5188
7318,5188,5187,4807
7319,4407,4807,4711
7320,4711,4289,4407
7321,4809,4714,5192
7322,5192,5191,4809
7323,4808,5189,5188
7324,5188,4712,4808
7325,4408,4291,4713
7326,4713,4808,4408
7327,4821,4726,5216
7328,5216,5215,4821
7329,4820,5213,5212
7330,5212,4724,4820
7331,4420,4303,4725
7332,4725,4820,4420
7333,4818,5209,5208
7334,5208,4722,4818
7335,4819,4724,5212
7336,5212,5211,4819
7337,4419,4819,4723
7338,4723,4301,4419
7339,4422,4305,4727
7340,4727,4822,4422
7341,4822,5217,5216
7342,5216,4726,4822
7343,4823,4728,5220
7344,5220,5219,4823
7345,4825,4730,5224
7346,5224,5223,4825
7347,4824,5221,5220
7348,5220,4728,4824
7349,4424,4307,4729
7350,4729,4824,4424
7351,4350,4233,4655
7352,4655,4750,4350
7353,4750,5073,5072
7354,5072,4654,4750
7355,4751,4656,5076
7356,5076,5075,4751
7357,4351,4751,4655
7358,4655,4233,4351
7359,4753,4658,5080
7360,5080,5079,4753
7361,4752,5077,5076
7362,5076,4656,4752
7363,4352,4235,4657
7364,4657,4752,4352
7365,4749,4654,5072
7366,5072,5071,4749
7367,4748,5069,5068
7368,5068,4652,4748
7369,4348,4231,4653
7370,4653,4748,4348
7371,4746,5065,5064
7372,5064,4650,4746
7373,4747,4652,5068
7374,5068,5067,4747
7375,4347,4747,4651
7376,4651,4229,4347
7377,4366,4249,4671
7378,4671,4766,4366
7379,4766,5105,5104
7380,5104,4670,4766
7381,4767,4672,5108
7382,5108,5107,4767
7383,4769,4674,5112
7384,5112,5111,4769
7385,4768,5109,5108
7386,5108,4672,4768
7387,4368,4251,4673
7388,4673,4768,4368
7389,4365,4765,4669
7390,4669,4247,4365
7391,4765,4670,5104
7392,5104,5103,4765
7393,4764,5101,5100
7394,5100,4668,4764
7395,4364,4247,4669
7396,4669,4764,4364
7397,4762,5097,5096
7398,5096,4666,4762
7399,4763,4668,5100
7400,5100,5099,4763
7401,4363,4763,4667
7402,4667,4245,4363
7403,4382,4265,4687
7404,4687,4782,4382
7405,4782,5137,5136
7406,5136,4686,4782
7407,4783,4688,5140
7408,5140,5139,4783
7409,4785,4690,5144
7410,5144,5143,4785
7411,4784,5141,5140
7412,5140,4688,4784
7413,4384,4267,4689
7414,4689,4784,4384
7415,4381,4781,4685
7416,4685,4263,4381
7417,4781,4686,5136
7418,5136,5135,4781
7419,4780,5133,5132
7420,5132,4684,4780
7421,4778,5129,5128
7422,5128,4682,4778
7423,4779,4684,5132
7424,5132,5131,4779
7425,4379,4779,4683
7426,4683,4261,4379
7427,4798,5169,5168
7428,5168,4702,4798
7429,4799,4704,5172
7430,5172,5171,4799
7431,4401,4801,4705
7432,4705,4283,4401
7433,4801,4706,5176
7434,5176,5175,4801
7435,4800,5173,5172
7436,5172,4704,4800
7437,4400,4283,4705
7438,4705,4800,4400
7439,4397,4797,4701
7440,4701,4279,4397
7441,4797,4702,5168
7442,5168,5167,4797
7443,4796,5165,5164
7444,5164,4700,4796
7445,4794,5161,5160
7446,5160,4698,4794
7447,4795,4700,5164
7448,5164,5163,4795
7449,4414,4297,4719
7450,4719,4814,4414
7451,4814,5201,5200
7452,5200,4718,4814
7453,4815,4720,5204
7454,5204,5203,4815
7455,4415,4815,4719
7456,4719,4297,4415
7457,4817,4722,5208
7458,5208,5207,4817
7459,4816,5205,5204
7460,5204,4720,4816
7461,4416,4299,4721
7462,4721,4816,4416
7463,4813,4718,5200
7464,5200,5199,4813
7465,4812,5197,5196
7466,5196,4716,4812
7467,4412,4295,4717
7468,4717,4812,4412
7469,4810,5193,5192
7470,5192,4714,4810
7471,4811,4716,5196
7472,5196,5195,4811
7473,4411,4811,4715
7474,4715,4293,4411
7475,4430,4314,4735
7476,4735,4830,4430
7477,4830,5233,5232
7478,5232,4734,4830
7479,4834,5035,5042
7480,5042,4831,4834
7481,4436,4537,5033
7482,5031,4539,4436
7483,4436,5033,5031
7484,5033,4934,5433
7485,5433,5430,5033
7486,4829,4734,5232
7487,5232,5231,4829
7488,4828,5229,5228
7489,5228,4732,4828
7490,4428,4311,4733
7491,4733,4828,4428
7492,4826,5225,5224
7493,5224,4730,4826
7494,4827,4732,5228
7495,5228,5227,4827
7496,4737,4642,5048
7497,5048,5047,4737
7498,4337,4737,4641
7499,4641,4219,4337
7500,4336,4219,4641
7501,4641,4736,4336
7502,4736,5045,5044
7503,5044,4640,4736
7504,5043,4639,4640
7505,4640,5044,5043
7506,1679,1475,1477
7507,1477,1681,1679
7508,1693,1490,1491
7509,1491,1694,1693
7510,1681,1899,1897
7511,1897,1679,1681
7512,1910,1909,1693
7513,1693,1694,1910
7514,1701,1498,1499
7515,1499,1702,1701
7516,1491,1492,1695
7517,1695,1694,1491
7518,1918,1917,1701
7519,1701,1702,1918
7520,1695,1911,1910
7521,1910,1694,1695
7522,1499,1500,1703
7523,1703,1702,1499
7524,1709,1506,1507
7525,1507,1710,1709
7526,1703,1919,1918
7527,1918,1702,1703
7528,1925,1709,1710
7529,1710,1926,1925
7530,1514,1515,1718
7531,1718,1717,1514
7532,1711,1710,1507
7533,1507,1508,1711
7534,1934,1933,1717
7535,1717,1718,1934
7536,1711,1927,1926
7537,1926,1710,1711
7538,1516,1719,1718
7539,1718,1515,1516
7540,1725,1522,1523
7541,1523,1726,1725
7542,1935,1934,1718
7543,1718,1719,1935
7544,1942,1941,1725
7545,1725,1726,1942
7546,1531,1734,1733
7547,1733,1530,1531
7548,1523,1524,1727
7549,1727,1726,1523
7550,1950,1949,1733
7551,1733,1734,1950
7552,1727,1943,1942
7553,1942,1726,1727
7554,1734,1531,1532
7555,1532,1735,1734
7556,1741,1538,1539
7557,1539,1742,1741
7558,1734,1735,1951
7559,1951,1950,1734
7560,1958,1957,1741
7561,1741,1742,1958
7562,1749,1546,1547
7563,1547,1750,1749
7564,1539,1540,1743
7565,1743,1742,1539
7566,1966,1965,1749
7567,1749,1750,1966
7568,1743,1959,1958
7569,1958,1742,1743
7570,1547,1548,1751
7571,1751,1750,1547
7572,1757,1554,1555
7573,1555,1758,1757
7574,1967,1966,1750
7575,1750,1751,1967
7576,1757,1758,1974
7577,1974,1973,1757
7578,1765,1562,1563
7579,1563,1766,1765
7580,1759,1758,1555
7581,1555,1556,1759
7582,1982,1981,1765
7583,1765,1766,1982
7584,1759,1975,1974
7585,1974,1758,1759
7586,1563,1564,1767
7587,1767,1766,1563
7588,1773,1570,1571
7589,1571,1774,1773
7590,1767,1983,1982
7591,1982,1766,1767
7592,1990,1989,1773
7593,1773,1774,1990
7594,1680,1682,1478
7595,1478,1476,1680
7596,1571,1572,1775
7597,1775,1774,1571
7598,1682,1680,1898
7599,1898,1900,1682
7600,1991,1990,1774
7601,1774,1775,1991
7602,944,732,731
7603,731,943,944
7604,735,734,946
7605,946,947,735
7606,502,734,735
7607,735,506,502
7608,960,748,747
7609,747,959,960
7610,962,963,751
7611,751,750,962
7612,976,764,763
7613,763,975,976
7614,767,766,978
7615,978,979,767
7616,766,767,442
7617,442,441,766
7618,779,780,455
7619,455,454,779
7620,992,780,779
7621,779,991,992
7622,783,782,994
7623,994,995,783
7624,782,783,458
7625,458,457,782
7626,1008,796,795
7627,795,1007,1008
7628,799,798,1010
7629,1010,1011,799
7630,487,486,811
7631,811,812,487
7632,1024,812,811
7633,811,1023,1024
7634,814,1026,1027
7635,1027,815,814
7636,421,746,747
7637,747,422,421
7638,958,959,747
7639,747,746,958
7640,956,744,743
7641,743,955,956
7642,762,763,438
7643,438,437,762
7644,763,762,974
7645,974,975,763
7646,972,760,759
7647,759,971,972
7648,778,779,454
7649,454,453,778
7650,779,778,990
7651,990,991,779
7652,988,776,775
7653,775,987,988
7654,469,794,795
7655,795,470,469
7656,1006,1007,795
7657,795,794,1006
7658,792,791,1003
7659,1003,1004,792
7660,810,811,486
7661,486,485,810
7662,811,810,1022
7663,1022,1023,811
7664,1020,808,807
7665,807,1019,1020
7666,497,499,826
7667,826,827,497
7668,827,826,1038
7669,1038,1039,827
7670,1036,824,823
7671,823,1035,1036
7672,1679,1683,1483
7673,1483,1475,1679
7674,1901,1683,1679
7675,1679,1897,1901
7676,1889,2103,2105
7677,2105,1885,1889
7678,1243,1245,944
7679,944,943,1243
7680,946,1146,1147
7681,1147,947,946
7682,739,738,950
7683,950,951,739
7684,948,736,735
7685,735,947,948
7686,506,735,736
7687,736,508,506
7688,950,1150,1151
7689,1151,951,950
7690,1147,1148,948
7691,948,947,1147
7692,1159,1160,960
7693,960,959,1159
7694,962,1162,1163
7695,1163,963,962
7696,755,754,966
7697,966,967,755
7698,964,752,751
7699,751,963,964
7700,751,752,427
7701,427,426,751
7702,966,1166,1167
7703,1167,967,966
7704,1163,1164,964
7705,964,963,1163
7706,976,975,1175
7707,1175,1176,976
7708,1178,1179,979
7709,979,978,1178
7710,770,771,446
7711,446,445,770
7712,771,770,982
7713,982,983,771
7714,980,768,767
7715,767,979,980
7716,767,768,443
7717,443,442,767
7718,982,1182,1183
7719,1183,983,982
7720,1179,1180,980
7721,980,979,1179
7722,1191,1192,992
7723,992,991,1191
7724,994,1194,1195
7725,1195,995,994
7726,787,786,998
7727,998,999,787
7728,996,784,783
7729,783,995,996
7730,783,784,459
7731,459,458,783
7732,998,1198,1199
7733,1199,999,998
7734,1195,1196,996
7735,996,995,1195
7736,1207,1208,1008
7737,1008,1007,1207
7738,1010,1210,1211
7739,1211,1011,1010
7740,802,803,478
7741,478,477,802
7742,803,802,1014
7743,1014,1015,803
7744,1012,800,799
7745,799,1011,1012
7746,799,800,475
7747,475,474,799
7748,1014,1214,1215
7749,1215,1015,1014
7750,1212,1012,1011
7751,1011,1211,1212
7752,1223,1224,1024
7753,1024,1023,1223
7754,1026,1226,1227
7755,1227,1027,1026
7756,818,1030,1031
7757,1031,819,818
7758,1028,816,815
7759,815,1027,1028
7760,491,490,815
7761,815,816,491
7762,1030,1230,1231
7763,1231,1031,1030
7764,1028,1027,1227
7765,1227,1228,1028
7766,1680,1476,1484
7767,1484,1684,1680
7768,1902,1898,1680
7769,1680,1684,1902
7770,1473,1471,1690
7771,1690,1689,1473
7772,1471,1469,1691
7773,1691,1690,1471
7774,1906,1905,1689
7775,1689,1690,1906
7776,1691,1907,1906
7777,1906,1690,1691
7778,1495,1496,1699
7779,1699,1698,1495
7780,1697,1494,1495
7781,1495,1698,1697
7782,1699,1915,1914
7783,1914,1698,1699
7784,1914,1913,1697
7785,1697,1698,1914
7786,952,740,739
7787,739,951,952
7788,954,955,743
7789,743,742,954
7790,417,742,743
7791,743,418,417
7792,958,1158,1159
7793,1159,959,958
7794,1155,1156,956
7795,956,955,1155
7796,1151,1152,952
7797,952,951,1151
7798,954,1154,1155
7799,1155,955,954
7800,1705,1502,1503
7801,1503,1706,1705
7802,1503,1504,1707
7803,1707,1706,1503
7804,1922,1921,1705
7805,1705,1706,1922
7806,1707,1923,1922
7807,1922,1706,1707
7808,1511,1512,1715
7809,1715,1714,1511
7810,1713,1510,1511
7811,1511,1714,1713
7812,1715,1931,1930
7813,1930,1714,1715
7814,1930,1929,1713
7815,1713,1714,1930
7816,968,756,755
7817,755,967,968
7818,759,758,970
7819,970,971,759
7820,433,758,759
7821,759,434,433
7822,974,1174,1175
7823,1175,975,974
7824,1171,1172,972
7825,972,971,1171
7826,1167,1168,968
7827,968,967,1167
7828,1170,1171,971
7829,971,970,1170
7830,1721,1518,1519
7831,1519,1722,1721
7832,1519,1520,1723
7833,1723,1722,1519
7834,1721,1722,1938
7835,1938,1937,1721
7836,1723,1939,1938
7837,1938,1722,1723
7838,1527,1528,1731
7839,1731,1730,1527
7840,1729,1526,1527
7841,1527,1730,1729
7842,1731,1947,1946
7843,1946,1730,1731
7844,1946,1945,1729
7845,1729,1730,1946
7846,984,772,771
7847,771,983,984
7848,775,774,986
7849,986,987,775
7850,774,775,450
7851,450,449,774
7852,990,1190,1191
7853,1191,991,990
7854,1187,1188,988
7855,988,987,1187
7856,1183,1184,984
7857,984,983,1183
7858,986,1186,1187
7859,1187,987,986
7860,1737,1534,1535
7861,1535,1738,1737
7862,1535,1536,1739
7863,1739,1738,1535
7864,1954,1953,1737
7865,1737,1738,1954
7866,1739,1955,1954
7867,1954,1738,1739
7868,1543,1544,1747
7869,1747,1746,1543
7870,1745,1542,1543
7871,1543,1746,1745
7872,1747,1963,1962
7873,1962,1746,1747
7874,1962,1961,1745
7875,1745,1746,1962
7876,1000,788,787
7877,787,999,1000
7878,791,790,1002
7879,1002,1003,791
7880,790,791,466
7881,466,465,790
7882,1006,1206,1207
7883,1207,1007,1006
7884,1204,1004,1003
7885,1003,1203,1204
7886,1199,1200,1000
7887,1000,999,1199
7888,1002,1202,1203
7889,1203,1003,1002
7890,1753,1550,1551
7891,1551,1754,1753
7892,1551,1552,1755
7893,1755,1754,1551
7894,1970,1969,1753
7895,1753,1754,1970
7896,1755,1971,1970
7897,1970,1754,1755
7898,1559,1560,1763
7899,1763,1762,1559
7900,1761,1558,1559
7901,1559,1762,1761
7902,1763,1979,1978
7903,1978,1762,1763
7904,1978,1977,1761
7905,1761,1762,1978
7906,1016,804,803
7907,803,1015,1016
7908,807,806,1018
7909,1018,1019,807
7910,806,807,482
7911,482,481,806
7912,1022,1222,1223
7913,1223,1023,1022
7914,1219,1220,1020
7915,1020,1019,1219
7916,1215,1216,1016
7917,1016,1015,1215
7918,1018,1218,1219
7919,1219,1019,1018
7920,1769,1566,1567
7921,1567,1770,1769
7922,1771,1770,1567
7923,1567,1568,1771
7924,1769,1770,1986
7925,1986,1985,1769
7926,1771,1987,1986
7927,1986,1770,1771
7928,1474,1779,1778
7929,1778,1472,1474
7930,1472,1778,1777
7931,1777,1470,1472
7932,1779,1995,1994
7933,1994,1778,1779
7934,1994,1993,1777
7935,1777,1778,1994
7936,820,819,1031
7937,1031,1032,820
7938,823,822,1034
7939,1034,1035,823
7940,507,509,822
7941,822,823,507
7942,1244,1039,1038
7943,1038,1246,1244
7944,1236,1036,1035
7945,1035,1235,1236
7946,1232,1032,1031
7947,1031,1231,1232
7948,1034,1234,1235
7949,1235,1035,1034
7950,827,1039,1040
7951,1040,828,827
7952,519,518,215
7953,215,216,519
7954,107,108,215
7955,215,214,107
7956,3,108,107
7957,107,1,3
7958,517,214,215
7959,215,518,517
7960,109,216,215
7961,215,108,109
7962,5,109,108
7963,108,3,5
7964,531,228,229
7965,229,532,531
7966,123,230,229
7967,229,122,123
7968,33,123,122
7969,122,31,33
7970,422,324,323
7971,323,421,422
7972,420,421,323
7973,323,322,420
7974,533,532,229
7975,229,230,533
7976,121,122,229
7977,229,228,121
7978,31,122,121
7979,121,29,31
7980,3289,3288,2975
7981,2975,2976,3289
7982,534,231,232
7983,232,535,534
7984,123,124,231
7985,231,230,123
7986,35,124,123
7987,123,33,35
7988,231,534,533
7989,533,230,231
7990,125,232,231
7991,231,124,125
7992,37,125,124
7993,124,35,37
7994,245,548,547
7995,547,244,245
7996,139,246,245
7997,245,138,139
7998,96,139,138
7999,138,94,96
8000,339,437,438
8001,438,340,339
8002,437,339,338
8003,338,436,437
8004,548,245,246
8005,246,549,548
8006,137,138,245
8007,245,244,137
8008,94,138,137
8009,137,92,94
8010,550,247,248
8011,248,551,550
8012,139,140,247
8013,247,246,139
8014,98,140,139
8015,139,96,98
8016,247,550,549
8017,549,246,247
8018,141,248,247
8019,247,140,141
8020,100,141,140
8021,140,98,100
8022,563,260,261
8023,261,564,563
8024,155,262,261
8025,261,154,155
8026,57,155,154
8027,154,56,57
8028,454,356,355
8029,355,453,454
8030,452,453,355
8031,355,354,452
8032,262,565,564
8033,564,261,262
8034,153,154,261
8035,261,260,153
8036,153,55,56
8037,56,154,153
8038,3320,3007,3008
8039,3008,3321,3320
8040,567,566,263
8041,263,264,567
8042,155,156,263
8043,263,262,155
8044,155,57,58
8045,58,156,155
8046,565,262,263
8047,263,566,565
8048,157,264,263
8049,263,156,157
8050,157,156,58
8051,58,59,157
8052,579,276,277
8053,277,580,579
8054,277,170,171
8055,171,278,277
8056,99,97,171
8057,171,170,99
8058,469,470,372
8059,372,371,469
8060,371,370,468
8061,468,469,371
8062,581,580,277
8063,277,278,581
8064,170,277,276
8065,276,169,170
8066,101,99,170
8067,170,169,101
8068,583,582,279
8069,279,280,583
8070,171,172,279
8071,279,278,171
8072,97,95,172
8073,172,171,97
8074,581,278,279
8075,279,582,581
8076,173,280,279
8077,279,172,173
8078,95,93,173
8079,173,172,95
8080,595,292,293
8081,293,596,595
8082,187,294,293
8083,293,186,187
8084,36,34,187
8085,187,186,36
8086,486,388,387
8087,387,485,486
8088,484,485,387
8089,387,386,484
8090,597,596,293
8091,293,294,597
8092,185,186,293
8093,293,292,185
8094,38,36,186
8095,186,185,38
8096,3352,3039,3040
8097,3040,3353,3352
8098,599,598,295
8099,295,296,599
8100,187,188,295
8101,295,294,187
8102,34,32,188
8103,188,187,34
8104,597,294,295
8105,295,598,597
8106,189,296,295
8107,295,188,189
8108,32,30,189
8109,189,188,32
8110,611,308,309
8111,309,612,611
8112,202,203,310
8113,310,309,202
8114,4,2,203
8115,203,202,4
8116,410,499,497
8117,497,408,410
8118,412,501,499
8119,499,410,412
8120,309,308,201
8121,201,202,309
8122,6,4,202
8123,202,201,6
8124,613,612,309
8125,309,310,613
8126,942,943,731
8127,731,730,942
8128,1245,1364,1365
8129,1365,1247,1245
8130,1365,1364,1578
8131,1578,1579,1365
8132,1784,1785,1578
8133,1578,1577,1784
8134,1363,1577,1578
8135,1578,1364,1363
8136,1786,1579,1578
8137,1578,1785,1786
8138,1369,1583,1584
8139,1584,1370,1369
8140,1369,1370,1150
8141,1150,1149,1369
8142,1584,1791,1792
8143,1792,1585,1584
8144,1791,1584,1583
8145,1583,1790,1791
8146,1371,1370,1584
8147,1584,1585,1371
8148,1371,1151,1150
8149,1150,1370,1371
8150,1380,1594,1595
8151,1595,1381,1380
8152,1594,1593,1800
8153,1800,1801,1594
8154,1160,1159,1379
8155,1379,1380,1160
8156,1594,1380,1379
8157,1379,1593,1594
8158,1801,1802,1595
8159,1595,1594,1801
8160,1385,1599,1600
8161,1600,1386,1385
8162,1385,1386,1166
8163,1166,1165,1385
8164,1600,1807,1808
8165,1808,1601,1600
8166,1807,1600,1599
8167,1599,1806,1807
8168,1387,1386,1600
8169,1600,1601,1387
8170,1387,1167,1166
8171,1166,1386,1387
8172,1397,1177,1176
8173,1176,1396,1397
8174,1396,1610,1611
8175,1611,1397,1396
8176,1816,1817,1610
8177,1610,1609,1816
8178,1610,1396,1395
8179,1395,1609,1610
8180,1818,1611,1610
8181,1610,1817,1818
8182,1401,1615,1616
8183,1616,1402,1401
8184,1401,1402,1182
8185,1182,1181,1401
8186,1824,1617,1616
8187,1616,1823,1824
8188,1822,1823,1616
8189,1616,1615,1822
8190,1403,1402,1616
8191,1616,1617,1403
8192,1403,1183,1182
8193,1182,1402,1403
8194,1413,1193,1192
8195,1192,1412,1413
8196,1413,1412,1626
8197,1626,1627,1413
8198,1625,1832,1833
8199,1833,1626,1625
8200,1411,1412,1192
8201,1192,1191,1411
8202,1411,1625,1626
8203,1626,1412,1411
8204,1834,1627,1626
8205,1626,1833,1834
8206,1417,1631,1632
8207,1632,1418,1417
8208,1417,1418,1198
8209,1198,1197,1417
8210,1840,1633,1632
8211,1632,1839,1840
8212,1838,1839,1632
8213,1632,1631,1838
8214,1419,1418,1632
8215,1632,1633,1419
8216,1419,1199,1198
8217,1198,1418,1419
8218,1428,1429,1209
8219,1209,1208,1428
8220,1428,1642,1643
8221,1643,1429,1428
8222,1642,1641,1848
8223,1848,1849,1642
8224,1642,1428,1427
8225,1427,1641,1642
8226,1849,1850,1643
8227,1643,1642,1849
8228,1433,1647,1648
8229,1648,1434,1433
8230,1214,1213,1433
8231,1433,1434,1214
8232,1856,1649,1648
8233,1648,1855,1856
8234,1854,1855,1648
8235,1648,1647,1854
8236,1435,1434,1648
8237,1648,1649,1435
8238,1434,1435,1215
8239,1215,1214,1434
8240,1445,1444,1658
8241,1658,1659,1445
8242,1864,1865,1658
8243,1658,1657,1864
8244,1224,1223,1443
8245,1443,1444,1224
8246,1443,1657,1658
8247,1658,1444,1443
8248,1866,1659,1658
8249,1658,1865,1866
8250,1449,1663,1664
8251,1664,1450,1449
8252,1872,1665,1664
8253,1664,1871,1872
8254,1870,1871,1664
8255,1664,1663,1870
8256,1451,1450,1664
8257,1664,1665,1451
8258,1450,1451,1231
8259,1231,1230,1450
8260,1475,1258,1259
8261,1259,1477,1475
8262,1681,1477,1479
8263,1479,1687,1681
8264,523,220,221
8265,221,524,523
8266,115,222,221
8267,221,114,115
8268,17,115,114
8269,114,15,17
8270,113,114,221
8271,221,220,113
8272,15,114,113
8273,113,13,15
8274,525,524,221
8275,221,222,525
8276,1489,1490,1693
8277,1693,1692,1489
8278,2226,2230,1897
8279,1897,1899,2226
8280,1687,1903,1899
8281,1899,1681,1687
8282,1908,1692,1693
8283,1693,1909,1908
8284,2135,1909,1910
8285,1910,2136,2135
8286,2450,2135,2136
8287,2136,2448,2450
8288,527,526,223
8289,223,224,527
8290,115,116,223
8291,223,222,115
8292,19,116,115
8293,115,17,19
8294,617,619,317
8295,317,316,617
8296,117,224,223
8297,223,116,117
8298,21,117,116
8299,116,19,21
8300,525,222,223
8301,223,526,525
8302,619,621,318
8303,318,317,619
8304,1497,1498,1701
8305,1701,1700,1497
8306,1492,1491,1266
8307,1266,1267,1492
8308,1493,1696,1695
8309,1695,1492,1493
8310,2143,1917,1918
8311,1918,2144,2143
8312,2143,2144,2472
8313,2472,2471,2143
8314,1916,1700,1701
8315,1701,1917,1916
8316,2137,2136,1910
8317,1910,1911,2137
8318,2448,2136,2137
8319,2137,2446,2448
8320,1912,1911,1695
8321,1695,1696,1912
8322,2319,2321,2004
8323,2004,2003,2319
8324,1784,2002,2003
8325,2003,1785,1784
8326,2317,2319,2003
8327,2003,2002,2317
8328,1786,1785,2003
8329,2003,2004,1786
8330,3293,2980,2981
8331,2981,3294,3293
8332,2330,2333,2009
8333,2009,2008,2330
8334,2009,2010,1792
8335,1792,1791,2009
8336,1791,1790,2008
8337,2008,2009,1791
8338,2333,2335,2010
8339,2010,2009,2333
8340,1378,1158,1157
8341,1157,1377,1378
8342,1378,1377,1591
8343,1591,1592,1378
8344,1592,1799,1800
8345,1800,1593,1592
8346,1592,1593,1379
8347,1379,1378,1592
8348,1799,1592,1591
8349,1591,1798,1799
8350,1373,1372,1586
8351,1586,1587,1373
8352,1792,1793,1586
8353,1586,1585,1792
8354,1371,1585,1586
8355,1586,1372,1371
8356,1794,1587,1586
8357,1586,1793,1794
8358,2017,2016,2241
8359,2241,2242,2017
8360,1800,1799,2017
8361,2017,2018,1800
8362,1798,2016,2017
8363,2017,1799,1798
8364,2242,2243,2018
8365,2018,2017,2242
8366,2237,2012,2011
8367,2011,2236,2237
8368,1792,2010,2011
8369,2011,1793,1792
8370,2010,2335,2236
8371,2236,2011,2010
8372,1794,1793,2011
8373,2011,2012,1794
8374,1501,1704,1703
8375,1703,1500,1501
8376,539,236,237
8377,237,540,539
8378,131,238,237
8379,237,130,131
8380,78,131,130
8381,130,76,78
8382,129,130,237
8383,237,236,129
8384,76,130,129
8385,129,74,76
8386,541,540,237
8387,237,238,541
8388,1505,1506,1709
8389,1709,1708,1505
8390,2145,2144,1918
8391,1918,1919,2145
8392,2144,2145,2473
8393,2473,2472,2144
8394,1920,1919,1703
8395,1703,1704,1920
8396,2145,2146,2474
8397,2474,2473,2145
8398,1709,1925,1924
8399,1924,1708,1709
8400,2151,1925,1926
8401,1926,2152,2151
8402,542,239,240
8403,240,543,542
8404,131,132,239
8405,239,238,131
8406,80,132,131
8407,131,78,80
8408,430,431,333
8409,333,332,430
8410,133,240,239
8411,239,132,133
8412,84,133,132
8413,132,80,84
8414,239,542,541
8415,541,238,239
8416,432,334,333
8417,333,431,432
8418,1514,1289,1290
8419,1290,1515,1514
8420,1717,1716,1513
8421,1513,1514,1717
8422,1283,1508,1507
8423,1507,1282,1283
8424,1508,1509,1712
8425,1712,1711,1508
8426,2159,1933,1934
8427,1934,2160,2159
8428,1932,1716,1717
8429,1717,1933,1932
8430,2153,2152,1926
8431,1926,1927,2153
8432,2152,2153,2481
8433,2481,2480,2152
8434,1928,1927,1711
8435,1711,1712,1928
8436,2153,2154,2482
8437,2482,2481,2153
8438,2019,2244,2245
8439,2245,2020,2019
8440,1800,2018,2019
8441,2019,1801,1800
8442,1802,1801,2019
8443,2019,2020,1802
8444,2244,2019,2018
8445,2018,2243,2244
8446,2249,2250,2025
8447,2025,2024,2249
8448,1808,1807,2025
8449,2025,2026,1808
8450,1806,2024,2025
8451,2025,1807,1806
8452,2251,2026,2025
8453,2025,2250,2251
8454,1174,1173,1393
8455,1393,1394,1174
8456,1608,1394,1393
8457,1393,1607,1608
8458,1816,1609,1608
8459,1608,1815,1816
8460,1394,1608,1609
8461,1609,1395,1394
8462,1814,1815,1608
8463,1608,1607,1814
8464,1602,1603,1389
8465,1389,1388,1602
8466,1389,1169,1168
8467,1168,1388,1389
8468,1809,1602,1601
8469,1601,1808,1809
8470,1388,1387,1601
8471,1601,1602,1388
8472,1602,1809,1810
8473,1810,1603,1602
8474,3313,3312,2999
8475,2999,3000,3313
8476,2257,2258,2033
8477,2033,2032,2257
8478,2033,2034,1816
8479,1816,1815,2033
8480,1815,1814,2032
8481,2032,2033,1815
8482,2259,2034,2033
8483,2033,2258,2259
8484,2252,2253,2028
8485,2028,2027,2252
8486,1808,2026,2027
8487,2027,1809,1808
8488,2027,2026,2251
8489,2251,2252,2027
8490,1810,1809,2027
8491,2027,2028,1810
8492,1516,1515,1290
8493,1290,1291,1516
8494,1719,1516,1517
8495,1517,1720,1719
8496,555,252,253
8497,253,556,555
8498,147,254,253
8499,253,146,147
8500,147,146,48
8501,48,49,147
8502,145,146,253
8503,253,252,145
8504,145,47,48
8505,48,146,145
8506,557,556,253
8507,253,254,557
8508,1521,1522,1725
8509,1725,1724,1521
8510,1523,1522,1297
8511,1297,1298,1523
8512,1935,2161,2160
8513,2160,1934,1935
8514,1719,1720,1936
8515,1936,1935,1719
8516,1940,1724,1725
8517,1725,1941,1940
8518,2167,1941,1942
8519,1942,2168,2167
8520,2167,2168,2496
8521,2496,2495,2167
8522,559,558,255
8523,255,256,559
8524,147,148,255
8525,255,254,147
8526,147,49,50
8527,50,148,147
8528,446,447,349
8529,349,348,446
8530,149,256,255
8531,255,148,149
8532,149,148,50
8533,50,51,149
8534,557,254,255
8535,255,558,557
8536,448,350,349
8537,349,447,448
8538,1306,1531,1530
8539,1530,1305,1306
8540,1529,1530,1733
8541,1733,1732,1529
8542,1524,1523,1298
8543,1298,1299,1524
8544,1525,1728,1727
8545,1727,1524,1525
8546,2176,2175,1949
8547,1949,1950,2176
8548,2504,2503,2175
8549,2175,2176,2504
8550,1948,1732,1733
8551,1733,1949,1948
8552,2169,2168,1942
8553,1942,1943,2169
8554,2168,2169,2497
8555,2497,2496,2168
8556,1944,1943,1727
8557,1727,1728,1944
8558,2260,2261,2036
8559,2036,2035,2260
8560,1816,2034,2035
8561,2035,1817,1816
8562,1818,1817,2035
8563,2035,2036,1818
8564,2035,2034,2259
8565,2259,2260,2035
8566,3325,3012,3013
8567,3013,3326,3325
8568,2265,2266,2041
8569,2041,2040,2265
8570,1824,1823,2041
8571,2041,2042,1824
8572,1822,2040,2041
8573,2041,1823,1822
8574,2267,2042,2041
8575,2041,2266,2267
8576,1409,1410,1190
8577,1190,1189,1409
8578,1409,1623,1624
8579,1624,1410,1409
8580,1832,1625,1624
8581,1624,1831,1832
8582,1625,1411,1410
8583,1410,1624,1625
8584,1830,1831,1624
8585,1624,1623,1830
8586,1405,1404,1618
8587,1618,1619,1405
8588,1824,1825,1618
8589,1618,1617,1824
8590,1403,1617,1618
8591,1618,1404,1403
8592,1826,1619,1618
8593,1618,1825,1826
8594,2273,2274,2049
8595,2049,2048,2273
8596,2050,1832,1831
8597,1831,2049,2050
8598,1830,2048,2049
8599,2049,1831,1830
8600,2275,2050,2049
8601,2049,2274,2275
8602,2269,2044,2043
8603,2043,2268,2269
8604,1824,2042,2043
8605,2043,1825,1824
8606,2267,2268,2043
8607,2043,2042,2267
8608,1826,1825,2043
8609,2043,2044,1826
8610,1533,1736,1735
8611,1735,1532,1533
8612,571,268,269
8613,269,572,571
8614,163,270,269
8615,269,162,163
8616,163,162,64
8617,64,65,163
8618,161,162,269
8619,269,268,161
8620,161,63,64
8621,64,162,161
8622,573,572,269
8623,269,270,573
8624,1537,1538,1741
8625,1741,1740,1537
8626,1950,1951,2177
8627,2177,2176,1950
8628,2176,2177,2505
8629,2505,2504,2176
8630,1952,1951,1735
8631,1735,1736,1952
8632,2177,2178,2506
8633,2506,2505,2177
8634,1956,1740,1741
8635,1741,1957,1956
8636,2183,1957,1958
8637,1958,2184,2183
8638,575,574,271
8639,271,272,575
8640,163,164,271
8641,271,270,163
8642,163,65,66
8643,66,164,163
8644,462,463,365
8645,365,364,462
8646,165,272,271
8647,271,164,165
8648,165,164,66
8649,66,67,165
8650,573,270,271
8651,271,574,573
8652,464,366,365
8653,365,463,464
8654,1547,1546,1321
8655,1321,1322,1547
8656,1545,1546,1749
8657,1749,1748,1545
8658,1540,1539,1314
8659,1314,1315,1540
8660,1541,1744,1743
8661,1743,1540,1541
8662,2191,1965,1966
8663,1966,2192,2191
8664,1964,1748,1749
8665,1749,1965,1964
8666,2185,2184,1958
8667,1958,1959,2185
8668,2184,2185,2513
8669,2513,2512,2184
8670,1960,1959,1743
8671,1743,1744,1960
8672,2185,2186,2514
8673,2514,2513,2185
8674,2277,2052,2051
8675,2051,2276,2277
8676,1832,2050,2051
8677,2051,1833,1832
8678,1834,1833,2051
8679,2051,2052,1834
8680,2050,2275,2276
8681,2276,2051,2050
8682,2281,2282,2057
8683,2057,2056,2281
8684,1840,1839,2057
8685,2057,2058,1840
8686,1838,2056,2057
8687,2057,1839,1838
8688,2283,2058,2057
8689,2057,2282,2283
8690,1425,1426,1206
8691,1206,1205,1425
8692,1425,1639,1640
8693,1640,1426,1425
8694,1847,1848,1641
8695,1641,1640,1847
8696,1427,1426,1640
8697,1640,1641,1427
8698,1640,1639,1846
8699,1846,1847,1640
8700,1421,1420,1634
8701,1634,1635,1421
8702,1421,1201,1200
8703,1200,1420,1421
8704,1840,1841,1634
8705,1634,1633,1840
8706,1419,1633,1634
8707,1634,1420,1419
8708,1842,1635,1634
8709,1634,1841,1842
8710,3345,3344,3031
8711,3031,3032,3345
8712,2289,2290,2065
8713,2065,2064,2289
8714,1848,1847,2065
8715,2065,2066,1848
8716,1846,2064,2065
8717,2065,1847,1846
8718,2291,2066,2065
8719,2065,2290,2291
8720,2285,2060,2059
8721,2059,2284,2285
8722,1840,2058,2059
8723,2059,1841,1840
8724,2283,2284,2059
8725,2059,2058,2283
8726,1842,1841,2059
8727,2059,2060,1842
8728,1548,1547,1322
8729,1322,1323,1548
8730,1549,1752,1751
8731,1751,1548,1549
8732,588,587,284
8733,284,285,588
8734,285,178,179
8735,179,286,285
8736,81,79,179
8737,179,178,81
8738,178,285,284
8739,284,177,178
8740,85,81,178
8741,178,177,85
8742,285,286,589
8743,589,588,285
8744,1554,1757,1756
8745,1756,1553,1554
8746,1329,1330,1555
8747,1555,1554,1329
8748,1967,2193,2192
8749,2192,1966,1967
8750,1751,1752,1968
8751,1968,1967,1751
8752,1973,1972,1756
8753,1756,1757,1973
8754,2199,1973,1974
8755,1974,2200,2199
8756,2199,2200,2528
8757,2528,2527,2199
8758,287,288,591
8759,591,590,287
8760,180,287,286
8761,286,179,180
8762,79,77,180
8763,180,179,79
8764,381,380,478
8765,478,479,381
8766,287,180,181
8767,181,288,287
8768,77,75,181
8769,181,180,77
8770,590,589,286
8771,286,287,590
8772,479,480,382
8773,382,381,479
8774,1337,1338,1563
8775,1563,1562,1337
8776,1561,1562,1765
8777,1765,1764,1561
8778,1331,1556,1555
8779,1555,1330,1331
8780,1556,1557,1760
8781,1760,1759,1556
8782,2207,1981,1982
8783,1982,2208,2207
8784,2207,2208,2536
8785,2536,2535,2207
8786,1980,1764,1765
8787,1765,1981,1980
8788,2201,2200,1974
8789,1974,1975,2201
8790,2200,2201,2529
8791,2529,2528,2200
8792,1975,1759,1760
8793,1760,1976,1975
8794,2292,2293,2068
8795,2068,2067,2292
8796,2067,1849,1848
8797,1848,2066,2067
8798,1849,2067,2068
8799,2068,1850,1849
8800,2067,2066,2291
8801,2291,2292,2067
8802,3358,3357,3044
8803,3044,3045,3358
8804,2073,2072,2297
8805,2297,2298,2073
8806,1855,2073,2074
8807,2074,1856,1855
8808,2073,1855,1854
8809,1854,2072,2073
8810,2298,2299,2074
8811,2074,2073,2298
8812,1441,1442,1222
8813,1222,1221,1441
8814,1441,1655,1656
8815,1656,1442,1441
8816,1864,1657,1656
8817,1656,1863,1864
8818,1443,1442,1656
8819,1656,1657,1443
8820,1862,1863,1656
8821,1656,1655,1862
8822,1437,1436,1650
8823,1650,1651,1437
8824,1856,1857,1650
8825,1650,1649,1856
8826,1435,1649,1650
8827,1650,1436,1435
8828,1858,1651,1650
8829,1650,1857,1858
8830,2305,2306,2081
8831,2081,2080,2305
8832,1863,2081,2082
8833,2082,1864,1863
8834,2081,1863,1862
8835,1862,2080,2081
8836,2307,2082,2081
8837,2081,2306,2307
8838,2301,2076,2075
8839,2075,2300,2301
8840,2075,1857,1856
8841,1856,2074,2075
8842,2299,2300,2075
8843,2075,2074,2299
8844,1857,2075,2076
8845,2076,1858,1857
8846,1565,1768,1767
8847,1767,1564,1565
8848,603,300,301
8849,301,604,603
8850,195,302,301
8851,301,194,195
8852,20,18,195
8853,195,194,20
8854,193,194,301
8855,301,300,193
8856,22,20,194
8857,194,193,22
8858,605,604,301
8859,301,302,605
8860,1569,1570,1773
8861,1773,1772,1569
8862,2209,2208,1982
8863,1982,1983,2209
8864,2208,2209,2537
8865,2537,2536,2208
8866,1983,1767,1768
8867,1768,1984,1983
8868,2209,2210,2538
8869,2538,2537,2209
8870,1988,1772,1773
8871,1773,1989,1988
8872,2215,1989,1990
8873,1990,2216,2215
8874,606,303,304
8875,304,607,606
8876,195,196,303
8877,303,302,195
8878,18,16,196
8879,196,195,18
8880,616,397,396
8881,396,618,616
8882,197,304,303
8883,303,196,197
8884,16,14,197
8885,197,196,16
8886,303,606,605
8887,605,302,303
8888,513,398,397
8889,397,616,513
8890,1476,1478,1353
8891,1353,1354,1476
8892,1682,1688,1480
8893,1480,1478,1682
8894,1572,1571,1346
8895,1346,1347,1572
8896,1573,1776,1775
8897,1775,1572,1573
8898,2227,1900,1898
8899,1898,2231,2227
8900,1688,1682,1900
8901,1900,1904,1688
8902,1991,2217,2216
8903,2216,1990,1991
8904,2451,2449,2216
8905,2216,2217,2451
8906,1775,1776,1992
8907,1992,1991,1775
8908,2453,2451,2217
8909,2217,2218,2453
8910,2309,2084,2083
8911,2083,2308,2309
8912,1864,2082,2083
8913,2083,1865,1864
8914,1866,1865,2083
8915,2083,2084,1866
8916,2307,2308,2083
8917,2083,2082,2307
8918,2313,2314,2089
8919,2089,2088,2313
8920,1871,2089,2090
8921,2090,1872,1871
8922,2089,1871,1870
8923,1870,2088,2089
8924,2090,2089,2314
8925,2314,2336,2090
8926,1246,1248,1457
8927,1457,1458,1246
8928,1672,1458,1457
8929,1457,1671,1672
8930,1879,1880,1673
8931,1673,1672,1879
8932,1458,1672,1673
8933,1673,1459,1458
8934,1672,1671,1878
8935,1878,1879,1672
8936,1666,1667,1453
8937,1453,1452,1666
8938,1453,1233,1232
8939,1232,1452,1453
8940,1873,1666,1665
8941,1665,1872,1873
8942,1452,1451,1665
8943,1665,1666,1452
8944,1666,1873,1874
8945,1874,1667,1666
8946,3377,3376,3063
8947,3063,3064,3377
8948,2320,2097,2096
8949,2096,2322,2320
8950,1880,1879,2097
8951,2097,2098,1880
8952,2318,2098,2097
8953,2097,2320,2318
8954,1878,2096,2097
8955,2097,1879,1878
8956,2331,2092,2091
8957,2091,2334,2331
8958,1873,1872,2090
8959,2090,2091,1873
8960,2334,2091,2090
8961,2090,2336,2334
8962,2091,2092,1874
8963,1874,1873,2091
8964,498,732,733
8965,733,500,498
8966,944,945,733
8967,733,732,944
8968,500,733,734
8969,734,502,500
8970,733,945,946
8971,946,734,733
8972,960,961,749
8973,749,748,960
8974,750,749,961
8975,961,962,750
8976,764,765,440
8977,440,439,764
8978,764,976,977
8979,977,765,764
8980,765,766,441
8981,441,440,765
8982,765,977,978
8983,978,766,765
8984,992,993,781
8985,781,780,992
8986,781,993,994
8987,994,782,781
8988,471,796,797
8989,797,472,471
8990,1008,1009,797
8991,797,796,1008
8992,797,1009,1010
8993,1010,798,797
8994,812,813,488
8995,488,487,812
8996,812,1024,1025
8997,1025,813,812
8998,1026,814,813
8999,813,1025,1026
9000,1240,1040,1039
9001,1039,1244,1240
9002,519,630,629
9003,629,518,519
9004,836,628,629
9005,629,837,836
9006,517,518,629
9007,629,628,517
9008,838,837,629
9009,629,630,838
9010,519,216,217
9011,217,520,519
9012,111,218,217
9013,217,110,111
9014,9,111,110
9015,110,7,9
9016,109,110,217
9017,217,216,109
9018,7,110,109
9019,109,5,7
9020,521,520,217
9021,217,218,521
9022,531,530,227
9023,227,228,531
9024,119,120,227
9025,227,226,119
9026,27,120,119
9027,119,25,27
9028,418,419,321
9029,321,320,418
9030,420,322,321
9031,321,419,420
9032,121,228,227
9033,227,120,121
9034,29,121,120
9035,120,27,29
9036,529,226,227
9037,227,530,529
9038,531,532,643
9039,643,642,531
9040,852,851,643
9041,643,644,852
9042,533,644,643
9043,643,532,533
9044,850,642,643
9045,643,851,850
9046,418,743,744
9047,744,419,418
9048,420,419,744
9049,744,745,420
9050,3080,2872,2871
9051,2871,3079,3080
9052,2414,2660,2661
9053,2661,2416,2414
9054,2412,2659,2660
9055,2660,2414,2412
9056,3187,3079,3078
9057,3078,3186,3187
9058,3289,2976,2977
9059,2977,3290,3289
9060,3078,3079,2871
9061,2871,2870,3078
9062,2408,2657,2658
9063,2658,2410,2408
9064,2410,2658,2659
9065,2659,2412,2410
9066,3080,3079,3187
9067,3187,3188,3080
9068,746,421,420
9069,420,745,746
9070,746,745,957
9071,957,958,746
9072,956,957,745
9073,745,744,956
9074,2883,2882,3090
9075,3090,3091,2883
9076,2432,2669,2670
9077,2670,2434,2432
9078,2434,2670,2671
9079,2671,2436,2434
9080,3301,3300,2987
9081,2987,2988,3301
9082,3092,3091,3199
9083,3199,3200,3092
9084,3199,3091,3090
9085,3090,3198,3199
9086,2883,3091,3092
9087,3092,2884,2883
9088,2438,2672,2673
9089,2673,2440,2438
9090,2436,2671,2672
9091,2672,2438,2436
9092,534,535,646
9093,646,645,534
9094,852,644,645
9095,645,853,852
9096,645,644,533
9097,533,534,645
9098,854,853,645
9099,645,646,854
9100,233,536,535
9101,535,232,233
9102,127,234,233
9103,233,126,127
9104,41,127,126
9105,126,39,41
9106,125,126,233
9107,233,232,125
9108,39,126,125
9109,125,37,39
9110,536,233,234
9111,234,537,536
9112,547,546,243
9113,243,244,547
9114,135,136,243
9115,243,242,135
9116,90,136,135
9117,135,88,90
9118,434,435,337
9119,337,336,434
9120,436,338,337
9121,337,435,436
9122,137,244,243
9123,243,136,137
9124,92,137,136
9125,136,90,92
9126,545,242,243
9127,243,546,545
9128,547,548,659
9129,659,658,547
9130,659,660,868
9131,868,867,659
9132,549,660,659
9133,659,548,549
9134,867,866,658
9135,658,659,867
9136,435,434,759
9137,759,760,435
9138,760,761,436
9139,436,435,760
9140,2887,3095,3096
9141,3096,2888,2887
9142,3203,3095,3094
9143,3094,3202,3203
9144,2993,3306,3305
9145,3305,2992,2993
9146,3096,3095,3203
9147,3203,3204,3096
9148,2886,3094,3095
9149,3095,2887,2886
9150,761,762,437
9151,437,436,761
9152,974,762,761
9153,761,973,974
9154,760,972,973
9155,973,761,760
9156,2898,3106,3107
9157,3107,2899,2898
9158,2686,2354,2353
9159,2353,2685,2686
9160,2354,2686,2687
9161,2687,2355,2354
9162,3316,3003,3004
9163,3004,3317,3316
9164,3108,3107,3215
9165,3215,3216,3108
9166,3215,3107,3106
9167,3106,3214,3215
9168,2899,3107,3108
9169,3108,2900,2899
9170,2688,2689,2357
9171,2357,2356,2688
9172,2356,2355,2687
9173,2687,2688,2356
9174,551,662,661
9175,661,550,551
9176,868,660,661
9177,661,869,868
9178,549,550,661
9179,661,660,549
9180,870,869,661
9181,661,662,870
9182,249,552,551
9183,551,248,249
9184,143,250,249
9185,249,142,143
9186,44,45,143
9187,143,142,44
9188,141,142,249
9189,249,248,141
9190,44,142,141
9191,141,100,44
9192,552,249,250
9193,250,553,552
9194,563,562,259
9195,259,260,563
9196,151,152,259
9197,259,258,151
9198,151,53,54
9199,54,152,151
9200,450,451,353
9201,353,352,450
9202,452,354,353
9203,353,451,452
9204,153,260,259
9205,259,152,153
9206,153,152,54
9207,54,55,153
9208,561,258,259
9209,259,562,561
9210,563,564,675
9211,675,674,563
9212,884,883,675
9213,675,676,884
9214,676,675,564
9215,564,565,676
9216,882,674,675
9217,675,883,882
9218,450,775,776
9219,776,451,450
9220,452,451,776
9221,776,777,452
9222,2903,3111,3112
9223,3112,2904,2903
9224,2692,2693,2361
9225,2361,2360,2692
9226,2360,2359,2691
9227,2691,2692,2360
9228,3218,3219,3111
9229,3111,3110,3218
9230,3009,3322,3321
9231,3321,3008,3009
9232,3112,3111,3219
9233,3219,3220,3112
9234,2902,3110,3111
9235,3111,2903,2902
9236,2689,2690,2358
9237,2358,2357,2689
9238,2690,2691,2359
9239,2359,2358,2690
9240,777,778,453
9241,453,452,777
9242,990,778,777
9243,777,989,990
9244,988,989,777
9245,777,776,988
9246,2915,2914,3122
9247,3122,3123,2915
9248,2701,2702,2370
9249,2370,2369,2701
9250,2702,2703,2371
9251,2371,2370,2702
9252,3333,3332,3019
9253,3019,3020,3333
9254,3124,3123,3231
9255,3231,3232,3124
9256,3231,3123,3122
9257,3122,3230,3231
9258,2915,3123,3124
9259,3124,2916,2915
9260,2705,2373,2372
9261,2372,2704,2705
9262,2703,2704,2372
9263,2372,2371,2703
9264,567,678,677
9265,677,566,567
9266,884,676,677
9267,677,885,884
9268,565,566,677
9269,677,676,565
9270,886,885,677
9271,677,678,886
9272,567,264,265
9273,265,568,567
9274,159,266,265
9275,265,158,159
9276,159,158,60
9277,60,61,159
9278,157,158,265
9279,265,264,157
9280,157,59,60
9281,60,158,157
9282,569,568,265
9283,265,266,569
9284,578,275,276
9285,276,579,578
9286,167,168,275
9287,275,274,167
9288,168,167,69
9289,69,70,168
9290,466,467,369
9291,369,368,466
9292,468,370,369
9293,369,467,468
9294,169,276,275
9295,275,168,169
9296,70,101,169
9297,169,168,70
9298,275,578,577
9299,577,274,275
9300,691,690,579
9301,579,580,691
9302,900,899,691
9303,691,692,900
9304,580,581,692
9305,692,691,580
9306,898,690,691
9307,691,899,898
9308,466,791,792
9309,792,467,466
9310,468,467,792
9311,792,793,468
9312,2919,3127,3128
9313,3128,2920,2919
9314,3235,3127,3126
9315,3126,3234,3235
9316,3337,3024,3025
9317,3025,3338,3337
9318,3128,3127,3235
9319,3235,3236,3128
9320,3126,3127,2919
9321,2919,2918,3126
9322,794,469,468
9323,468,793,794
9324,794,793,1005
9325,1005,1006,794
9326,1004,1005,793
9327,793,792,1004
9328,2930,3138,3139
9329,3139,2931,2930
9330,2386,2385,2717
9331,2717,2718,2386
9332,2718,2719,2387
9333,2387,2386,2718
9334,3348,3035,3036
9335,3036,3349,3348
9336,3140,3139,3247
9337,3247,3248,3140
9338,3247,3139,3138
9339,3138,3246,3247
9340,2931,3139,3140
9341,3140,2932,2931
9342,2388,2720,2721
9343,2721,2389,2388
9344,2720,2388,2387
9345,2387,2719,2720
9346,693,582,583
9347,583,694,693
9348,901,900,692
9349,692,693,901
9350,582,693,692
9351,692,581,582
9352,693,694,902
9353,902,901,693
9354,583,280,281
9355,281,584,583
9356,281,174,175
9357,175,282,281
9358,91,89,175
9359,175,174,91
9360,174,281,280
9361,280,173,174
9362,93,91,174
9363,174,173,93
9364,585,584,281
9365,281,282,585
9366,595,594,291
9367,291,292,595
9368,183,184,291
9369,291,290,183
9370,42,40,184
9371,184,183,42
9372,385,384,482
9373,482,483,385
9374,483,484,386
9375,386,385,483
9376,185,292,291
9377,291,184,185
9378,40,38,185
9379,185,184,40
9380,593,290,291
9381,291,594,593
9382,707,706,595
9383,595,596,707
9384,915,707,708
9385,708,916,915
9386,596,597,708
9387,708,707,596
9388,707,915,914
9389,914,706,707
9390,808,483,482
9391,482,807,808
9392,483,808,809
9393,809,484,483
9394,2935,3143,3144
9395,3144,2936,2935
9396,2392,2724,2725
9397,2725,2393,2392
9398,2724,2392,2391
9399,2391,2723,2724
9400,3250,3251,3143
9401,3143,3142,3250
9402,3041,3354,3353
9403,3353,3040,3041
9404,3144,3143,3251
9405,3251,3252,3144
9406,3142,3143,2935
9407,2935,2934,3142
9408,2722,2390,2389
9409,2389,2721,2722
9410,2390,2722,2723
9411,2723,2391,2390
9412,809,810,485
9413,485,484,809
9414,1022,810,809
9415,809,1021,1022
9416,1020,1021,809
9417,809,808,1020
9418,2947,2946,3154
9419,3154,3155,2947
9420,2402,2401,2733
9421,2733,2734,2402
9422,2734,2735,2403
9423,2403,2402,2734
9424,3365,3364,3051
9425,3051,3052,3365
9426,3156,3155,3263
9427,3263,3264,3156
9428,3263,3155,3154
9429,3154,3262,3263
9430,3156,2948,2947
9431,2947,3155,3156
9432,2441,2443,2736
9433,2736,2737,2441
9434,2736,2443,2403
9435,2403,2735,2736
9436,598,599,710
9437,710,709,598
9438,916,708,709
9439,709,917,916
9440,709,708,597
9441,597,598,709
9442,918,917,709
9443,709,710,918
9444,599,296,297
9445,297,600,599
9446,190,191,298
9447,298,297,190
9448,28,26,191
9449,191,190,28
9450,297,296,189
9451,189,190,297
9452,30,28,190
9453,190,189,30
9454,601,600,297
9455,297,298,601
9456,611,610,307
9457,307,308,611
9458,199,200,307
9459,307,306,199
9460,10,8,200
9461,200,199,10
9462,414,400,507
9463,507,503,414
9464,414,503,501
9465,501,412,414
9466,201,308,307
9467,307,200,201
9468,8,6,201
9469,201,200,8
9470,609,306,307
9471,307,610,609
9472,612,723,722
9473,722,611,612
9474,932,931,723
9475,723,724,932
9476,723,612,613
9477,613,724,723
9478,930,722,723
9479,723,931,930
9480,503,507,823
9481,823,824,503
9482,501,503,824
9483,824,825,501
9484,3160,2952,2951
9485,2951,3159,3160
9486,3267,3159,3158
9487,3158,3266,3267
9488,3370,3369,3056
9489,3056,3057,3370
9490,3160,3159,3267
9491,3267,3268,3160
9492,3158,3159,2951
9493,2951,2950,3158
9494,499,501,825
9495,825,826,499
9496,1038,826,825
9497,825,1037,1038
9498,1036,1037,825
9499,825,824,1036
9500,2963,2962,3170
9501,3170,3171,2963
9502,2415,2417,2749
9503,2749,2750,2415
9504,2413,2415,2750
9505,2750,2751,2413
9506,3381,3380,3067
9507,3067,3068,3381
9508,3172,3171,3279
9509,3279,3280,3172
9510,3279,3171,3170
9511,3170,3278,3279
9512,2963,3171,3172
9513,3172,2964,2963
9514,2409,2411,2752
9515,2752,2753,2409
9516,2411,2413,2751
9517,2751,2752,2411
9518,1239,1243,943
9519,943,942,1239
9520,1243,1363,1364
9521,1364,1245,1243
9522,1247,945,944
9523,944,1245,1247
9524,1365,1579,1580
9525,1580,1366,1365
9526,1788,1581,1580
9527,1580,1787,1788
9528,1367,1147,1146
9529,1146,1366,1367
9530,1367,1366,1580
9531,1580,1581,1367
9532,1786,1787,1580
9533,1580,1579,1786
9534,945,1247,1146
9535,1146,946,945
9536,950,738,737
9537,737,949,950
9538,948,949,737
9539,737,736,948
9540,508,736,737
9541,737,512,508
9542,1369,1368,1582
9543,1582,1583,1369
9544,1788,1789,1582
9545,1582,1581,1788
9546,1367,1581,1582
9547,1582,1368,1367
9548,1790,1583,1582
9549,1582,1789,1790
9550,1149,1150,950
9551,950,949,1149
9552,1147,1367,1368
9553,1368,1148,1147
9554,948,1148,1149
9555,1149,949,948
9556,1161,961,960
9557,960,1160,1161
9558,1382,1162,1161
9559,1161,1381,1382
9560,1382,1381,1595
9561,1595,1596,1382
9562,1596,1803,1804
9563,1804,1597,1596
9564,1162,1382,1383
9565,1383,1163,1162
9566,1596,1597,1383
9567,1383,1382,1596
9568,1803,1596,1595
9569,1595,1802,1803
9570,962,961,1161
9571,1161,1162,962
9572,966,754,753
9573,753,965,966
9574,964,965,753
9575,753,752,964
9576,753,428,427
9577,427,752,753
9578,1384,1385,1165
9579,1165,1164,1384
9580,1384,1598,1599
9581,1599,1385,1384
9582,1598,1597,1804
9583,1804,1805,1598
9584,1598,1384,1383
9585,1383,1597,1598
9586,1805,1806,1599
9587,1599,1598,1805
9588,1165,1166,966
9589,966,965,1165
9590,1164,1163,1383
9591,1383,1384,1164
9592,964,1164,1165
9593,1165,965,964
9594,1175,1395,1396
9595,1396,1176,1175
9596,1176,1177,977
9597,977,976,1176
9598,1397,1611,1612
9599,1612,1398,1397
9600,1820,1613,1612
9601,1612,1819,1820
9602,1178,1398,1399
9603,1399,1179,1178
9604,1399,1398,1612
9605,1612,1613,1399
9606,1818,1819,1612
9607,1612,1611,1818
9608,978,977,1177
9609,1177,1178,978
9610,982,770,769
9611,769,981,982
9612,769,770,445
9613,445,444,769
9614,980,981,769
9615,769,768,980
9616,769,444,443
9617,443,768,769
9618,1401,1181,1180
9619,1180,1400,1401
9620,1401,1400,1614
9621,1614,1615,1401
9622,1820,1821,1614
9623,1614,1613,1820
9624,1399,1613,1614
9625,1614,1400,1399
9626,1822,1615,1614
9627,1614,1821,1822
9628,1181,1182,982
9629,982,981,1181
9630,1179,1399,1400
9631,1400,1180,1179
9632,980,1180,1181
9633,1181,981,980
9634,1193,993,992
9635,992,1192,1193
9636,1413,1414,1194
9637,1194,1193,1413
9638,1413,1627,1628
9639,1628,1414,1413
9640,1836,1629,1628
9641,1628,1835,1836
9642,1415,1195,1194
9643,1194,1414,1415
9644,1415,1414,1628
9645,1628,1629,1415
9646,1834,1835,1628
9647,1628,1627,1834
9648,994,993,1193
9649,1193,1194,994
9650,998,786,785
9651,785,997,998
9652,996,997,785
9653,785,784,996
9654,785,460,459
9655,459,784,785
9656,1417,1197,1196
9657,1196,1416,1417
9658,1417,1416,1630
9659,1630,1631,1417
9660,1836,1837,1630
9661,1630,1629,1836
9662,1415,1629,1630
9663,1630,1416,1415
9664,1838,1631,1630
9665,1630,1837,1838
9666,1197,1198,998
9667,998,997,1197
9668,1195,1415,1416
9669,1416,1196,1195
9670,996,1196,1197
9671,1197,997,996
9672,1208,1207,1427
9673,1427,1428,1208
9674,1209,1009,1008
9675,1008,1208,1209
9676,1429,1643,1644
9677,1644,1430,1429
9678,1851,1852,1645
9679,1645,1644,1851
9680,1431,1211,1210
9681,1210,1430,1431
9682,1431,1430,1644
9683,1644,1645,1431
9684,1644,1643,1850
9685,1850,1851,1644
9686,1010,1009,1209
9687,1209,1210,1010
9688,1014,802,801
9689,801,1013,1014
9690,1012,1013,801
9691,801,800,1012
9692,801,476,475
9693,475,800,801
9694,1433,1213,1212
9695,1212,1432,1433
9696,1433,1432,1646
9697,1646,1647,1433
9698,1852,1853,1646
9699,1646,1645,1852
9700,1431,1645,1646
9701,1646,1432,1431
9702,1854,1647,1646
9703,1646,1853,1854
9704,1213,1214,1014
9705,1014,1013,1213
9706,1211,1431,1432
9707,1432,1212,1211
9708,1012,1212,1213
9709,1213,1013,1012
9710,1225,1025,1024
9711,1024,1224,1225
9712,1446,1445,1659
9713,1659,1660,1446
9714,1660,1867,1868
9715,1868,1661,1660
9716,1447,1227,1226
9717,1226,1446,1447
9718,1660,1661,1447
9719,1447,1446,1660
9720,1867,1660,1659
9721,1659,1866,1867
9722,1026,1025,1225
9723,1225,1226,1026
9724,1030,818,817
9725,817,1029,1030
9726,816,1028,1029
9727,1029,817,816
9728,817,622,491
9729,491,816,817
9730,1449,1229,1228
9731,1228,1448,1449
9732,1449,1448,1662
9733,1662,1663,1449
9734,1868,1869,1662
9735,1662,1661,1868
9736,1447,1661,1662
9737,1662,1448,1447
9738,1870,1663,1662
9739,1662,1869,1870
9740,1229,1230,1030
9741,1030,1029,1229
9742,1227,1447,1448
9743,1448,1228,1227
9744,1228,1229,1029
9745,1029,1028,1228
9746,5236,5036,5031
9747,5031,5040,5236
9748,5031,5036,4535
9749,4535,4539,5031
9750,5437,5632,5850
9751,5850,5236,5437
9752,5236,5040,5437
9753,5040,5031,5033
9754,5437,5040,5033
9755,5033,5430,5437
9756,1047,1048,1260
9757,1260,1259,1047
9758,837,1047,1046
9759,1046,836,837
9760,1047,837,838
9761,838,1048,1047
9762,1259,1258,1046
9763,1046,1047,1259
9764,1687,1479,1473
9765,1473,1689,1687
9766,523,522,219
9767,219,220,523
9768,111,112,219
9769,219,218,111
9770,11,112,111
9771,111,9,11
9772,521,218,219
9773,219,522,521
9774,113,220,219
9775,219,112,113
9776,13,113,112
9777,112,11,13
9778,523,524,635
9779,635,634,523
9780,844,843,635
9781,635,636,844
9782,842,634,635
9783,635,843,842
9784,525,636,635
9785,635,524,525
9786,1691,1469,1489
9787,1489,1692,1691
9788,1264,1052,1053
9789,1053,1265,1264
9790,844,1054,1053
9791,1053,843,844
9792,842,843,1053
9793,1053,1052,842
9794,1266,1265,1053
9795,1053,1054,1266
9796,1689,1905,1903
9797,1903,1687,1689
9798,1906,2132,2131
9799,2131,1905,1906
9800,2458,2131,2132
9801,2132,2456,2458
9802,2222,2131,2458
9803,2458,2460,2222
9804,1908,1907,1691
9805,1691,1692,1908
9806,2133,2132,1906
9807,1906,1907,2133
9808,527,224,225
9809,225,528,527
9810,119,226,225
9811,225,118,119
9812,25,119,118
9813,118,23,25
9814,417,418,320
9815,320,319,417
9816,529,528,225
9817,225,226,529
9818,117,118,225
9819,225,224,117
9820,23,118,117
9821,117,21,23
9822,318,621,417
9823,417,319,318
9824,527,638,637
9825,637,526,527
9826,617,739,740
9827,740,619,617
9828,844,636,637
9829,637,845,844
9830,525,526,637
9831,637,636,525
9832,846,845,637
9833,637,638,846
9834,1061,1273,1272
9835,1272,1060,1061
9836,851,852,1062
9837,1062,1061,851
9838,1061,1060,850
9839,850,851,1061
9840,1273,1061,1062
9841,1062,1274,1273
9842,1699,1496,1497
9843,1497,1700,1699
9844,1055,1056,1268
9845,1268,1267,1055
9846,845,1055,1054
9847,1054,844,845
9848,1267,1266,1054
9849,1054,1055,1267
9850,1055,845,846
9851,846,1056,1055
9852,1697,1696,1493
9853,1493,1494,1697
9854,1916,1915,1699
9855,1699,1700,1916
9856,1914,1915,2141
9857,2141,2140,1914
9858,1912,1696,1697
9859,1697,1913,1912
9860,2139,1913,1914
9861,1914,2140,2139
9862,2139,2140,2468
9863,2468,2467,2139
9864,2138,2139,2467
9865,2467,2466,2138
9866,2321,2319,2410
9867,2410,2412,2321
9868,2319,2317,2408
9869,2408,2410,2319
9870,2321,2323,2005
9871,2005,2004,2321
9872,1788,1787,2005
9873,2005,2006,1788
9874,1786,2004,2005
9875,2005,1787,1786
9876,2323,2325,2006
9877,2006,2005,2323
9878,2875,2874,3082
9879,3082,3083,2875
9880,2416,2661,2662
9881,2662,2418,2416
9882,3293,3292,2979
9883,2979,2980,3293
9884,3084,3083,3191
9885,3191,3192,3084
9886,3191,3083,3082
9887,3082,3190,3191
9888,2875,3083,3084
9889,3084,2876,2875
9890,2327,2330,2008
9891,2008,2007,2327
9892,1789,1788,2006
9893,2006,2007,1789
9894,2007,2008,1790
9895,1790,1789,2007
9896,2325,2327,2007
9897,2007,2006,2325
9898,2333,2330,2420
9899,2420,2422,2333
9900,2422,2664,2665
9901,2665,2424,2422
9902,2420,2663,2664
9903,2664,2422,2420
9904,2335,2333,2422
9905,2422,2424,2335
9906,740,741,621
9907,621,619,740
9908,952,953,741
9909,741,740,952
9910,741,742,417
9911,417,621,741
9912,742,741,953
9913,953,954,742
9914,1158,1378,1379
9915,1379,1159,1158
9916,1157,1158,958
9917,958,957,1157
9918,1376,1377,1157
9919,1157,1156,1376
9920,1376,1590,1591
9921,1591,1377,1376
9922,1796,1797,1590
9923,1590,1589,1796
9924,1590,1376,1375
9925,1375,1589,1590
9926,1798,1591,1590
9927,1590,1797,1798
9928,1157,957,956
9929,956,1156,1157
9930,1156,1155,1375
9931,1375,1376,1156
9932,1152,1151,1371
9933,1371,1372,1152
9934,1153,953,952
9935,952,1152,1153
9936,1154,1153,1373
9937,1373,1374,1154
9938,1588,1374,1373
9939,1373,1587,1588
9940,1796,1589,1588
9941,1588,1795,1796
9942,1374,1588,1589
9943,1589,1375,1374
9944,1794,1795,1588
9945,1588,1587,1794
9946,1154,954,953
9947,953,1153,1154
9948,1374,1375,1155
9949,1155,1154,1374
9950,2879,3087,3088
9951,3088,2880,2879
9952,2430,2668,2669
9953,2669,2432,2430
9954,2428,2667,2668
9955,2668,2430,2428
9956,3086,3194,3195
9957,3195,3087,3086
9958,3088,3087,3195
9959,3195,3196,3088
9960,3086,3087,2879
9961,2879,2878,3086
9962,2424,2665,2666
9963,2666,2426,2424
9964,2436,2438,2242
9965,2242,2241,2436
9966,2438,2440,2243
9967,2243,2242,2438
9968,2241,2016,2015
9969,2015,2240,2241
9970,1796,2014,2015
9971,2015,1797,1796
9972,1798,1797,2015
9973,2015,2016,1798
9974,2239,2240,2015
9975,2015,2014,2239
9976,2426,2428,2237
9977,2237,2236,2426
9978,2424,2426,2236
9979,2236,2335,2424
9980,2426,2666,2667
9981,2667,2428,2426
9982,2237,2238,2013
9983,2013,2012,2237
9984,2013,2014,1796
9985,1796,1795,2013
9986,1795,1794,2012
9987,2012,2013,1795
9988,2239,2014,2013
9989,2013,2238,2239
9990,1276,1275,1063
9991,1063,1064,1276
9992,852,853,1063
9993,1063,1062,852
9994,854,1064,1063
9995,1063,853,854
9996,1274,1062,1063
9997,1063,1275,1274
9998,1502,1705,1704
9999,1704,1501,1502
10000,1503,1502,1277
10001,1277,1278,1503
10002,539,538,235
10003,235,236,539
10004,128,235,234
10005,234,127,128
10006,72,128,127
10007,127,41,72
10008,537,234,235
10009,235,538,537
10010,235,128,129
10011,129,236,235
10012,74,129,128
10013,128,72,74
10014,539,540,651
10015,651,650,539
10016,860,859,651
10017,651,652,860
10018,858,650,651
10019,651,859,858
10020,541,652,651
10021,651,540,541
10022,1707,1504,1505
10023,1505,1708,1707
10024,1069,1281,1280
10025,1280,1068,1069
10026,859,860,1070
10027,1070,1069,859
10028,1069,1068,858
10029,858,859,1069
10030,1281,1069,1070
10031,1070,1282,1281
10032,1920,1704,1705
10033,1705,1921,1920
10034,1921,1922,2148
10035,2148,2147,1921
10036,1924,1923,1707
10037,1707,1708,1924
10038,2149,2148,1922
10039,1922,1923,2149
10040,2149,2477,2476
10041,2476,2148,2149
10042,544,543,240
10043,240,241,544
10044,241,134,135
10045,135,242,241
10046,88,135,134
10047,134,86,88
10048,433,434,336
10049,336,335,433
10050,241,242,545
10051,545,544,241
10052,134,241,240
10053,240,133,134
10054,86,134,133
10055,133,84,86
10056,335,334,432
10057,432,433,335
10058,542,543,654
10059,654,653,542
10060,430,755,756
10061,756,431,430
10062,653,861,860
10063,860,652,653
10064,653,652,541
10065,541,542,653
10066,861,653,654
10067,654,862,861
10068,1288,1076,1077
10069,1077,1289,1288
10070,868,1078,1077
10071,1077,867,868
10072,866,867,1077
10073,1077,1076,866
10074,1290,1289,1077
10075,1077,1078,1290
10076,1715,1512,1513
10077,1513,1716,1715
10078,1512,1511,1286
10079,1286,1287,1512
10080,1071,1072,1284
10081,1284,1283,1071
10082,860,861,1071
10083,1071,1070,860
10084,1283,1282,1070
10085,1070,1071,1283
10086,862,1072,1071
10087,1071,861,862
10088,1713,1712,1509
10089,1509,1510,1713
10090,1931,1715,1716
10091,1716,1932,1931
10092,1930,1931,2157
10093,2157,2156,1930
10094,1928,1712,1713
10095,1713,1929,1928
10096,1929,1930,2156
10097,2156,2155,1929
10098,2483,2155,2156
10099,2156,2484,2483
10100,2244,2442,2343
10101,2343,2245,2244
10102,2440,2673,2674
10103,2674,2442,2440
10104,2674,2675,2343
10105,2343,2442,2674
10106,2440,2442,2244
10107,2244,2243,2440
10108,2021,2020,2245
10109,2245,2246,2021
10110,1804,1803,2021
10111,2021,2022,1804
10112,1802,2020,2021
10113,2021,1803,1802
10114,2246,2247,2022
10115,2022,2021,2246
10116,2891,2890,3098
10117,3098,3099,2891
10118,2677,2678,2346
10119,2346,2345,2677
10120,2678,2679,2347
10121,2347,2346,2678
10122,3308,2995,2996
10123,2996,3309,3308
10124,3100,3099,3207
10125,3207,3208,3100
10126,3207,3099,3098
10127,3098,3206,3207
10128,2891,3099,3100
10129,3100,2892,2891
10130,2249,2024,2023
10131,2023,2248,2249
10132,2023,1805,1804
10133,1804,2022,2023
10134,1805,2023,2024
10135,2024,1806,1805
10136,2247,2248,2023
10137,2023,2022,2247
10138,2250,2249,2347
10139,2347,2348,2250
10140,2349,2348,2680
10141,2680,2681,2349
10142,2348,2347,2679
10143,2679,2680,2348
10144,2348,2349,2251
10145,2251,2250,2348
10146,757,432,431
10147,431,756,757
10148,968,969,757
10149,757,756,968
10150,758,433,432
10151,432,757,758
10152,757,969,970
10153,970,758,757
10154,1394,1395,1175
10155,1175,1174,1394
10156,1173,1174,974
10157,974,973,1173
10158,1392,1393,1173
10159,1173,1172,1392
10160,1393,1392,1606
10161,1606,1607,1393
10162,1813,1606,1605
10163,1605,1812,1813
10164,1172,1171,1391
10165,1391,1392,1172
10166,1391,1605,1606
10167,1606,1392,1391
10168,1606,1813,1814
10169,1814,1607,1606
10170,1173,973,972
10171,972,1172,1173
10172,1168,1167,1387
10173,1387,1388,1168
10174,1169,969,968
10175,968,1168,1169
10176,1389,1390,1170
10177,1170,1169,1389
10178,1389,1603,1604
10179,1604,1390,1389
10180,1812,1605,1604
10181,1604,1811,1812
10182,1391,1171,1170
10183,1170,1390,1391
10184,1391,1390,1604
10185,1604,1605,1391
10186,1810,1811,1604
10187,1604,1603,1810
10188,970,969,1169
10189,1169,1170,970
10190,2895,3103,3104
10191,3104,2896,2895
10192,2684,2685,2353
10193,2353,2352,2684
10194,2683,2684,2352
10195,2352,2351,2683
10196,3001,3314,3313
10197,3313,3000,3001
10198,3211,3103,3102
10199,3102,3210,3211
10200,3104,3103,3211
10201,3211,3212,3104
10202,3102,3103,2895
10203,2895,2894,3102
10204,2682,2683,2351
10205,2351,2350,2682
10206,2356,2258,2257
10207,2257,2355,2356
10208,2258,2356,2357
10209,2357,2259,2258
10210,2257,2032,2031
10211,2031,2256,2257
10212,1813,1812,2030
10213,2030,2031,1813
10214,2031,2032,1814
10215,1814,1813,2031
10216,2255,2256,2031
10217,2031,2030,2255
10218,2252,2350,2351
10219,2351,2253,2252
10220,2350,2349,2681
10221,2681,2682,2350
10222,2350,2252,2251
10223,2251,2349,2350
10224,2253,2254,2029
10225,2029,2028,2253
10226,1811,2029,2030
10227,2030,1812,1811
10228,2029,1811,1810
10229,1810,2028,2029
10230,2255,2030,2029
10231,2029,2254,2255
10232,1292,1291,1079
10233,1079,1080,1292
10234,1079,1078,868
10235,868,869,1079
10236,869,870,1080
10237,1080,1079,869
10238,1290,1078,1079
10239,1079,1291,1290
10240,1721,1720,1517
10241,1517,1518,1721
10242,555,554,251
10243,251,252,555
10244,143,144,251
10245,251,250,143
10246,143,45,46
10247,46,144,143
10248,553,250,251
10249,251,554,553
10250,145,252,251
10251,251,144,145
10252,145,144,46
10253,46,47,145
10254,555,556,667
10255,667,666,555
10256,876,875,667
10257,667,668,876
10258,874,666,667
10259,667,875,874
10260,557,668,667
10261,667,556,557
10262,1723,1520,1521
10263,1521,1724,1723
10264,1296,1084,1085
10265,1085,1297,1296
10266,876,1086,1085
10267,1085,875,876
10268,874,875,1085
10269,1085,1084,874
10270,1298,1297,1085
10271,1085,1086,1298
10272,1937,1936,1720
10273,1720,1721,1937
10274,2163,1937,1938
10275,1938,2164,2163
10276,2163,2164,2492
10277,2492,2491,2163
10278,2162,2163,2491
10279,2491,2490,2162
10280,1940,1939,1723
10281,1723,1724,1940
10282,2165,2164,1938
10283,1938,1939,2165
10284,559,256,257
10285,257,560,559
10286,151,258,257
10287,257,150,151
10288,151,150,52
10289,52,53,151
10290,450,352,351
10291,351,449,450
10292,561,560,257
10293,257,258,561
10294,149,150,257
10295,257,256,149
10296,149,51,52
10297,52,150,149
10298,448,449,351
10299,351,350,448
10300,559,670,669
10301,669,558,559
10302,446,771,772
10303,772,447,446
10304,876,668,669
10305,669,877,876
10306,557,558,669
10307,669,668,557
10308,878,877,669
10309,669,670,878
10310,1304,1092,1093
10311,1093,1305,1304
10312,1094,1093,883
10313,883,884,1094
10314,882,883,1093
10315,1093,1092,882
10316,1094,1306,1305
10317,1305,1093,1094
10318,1731,1528,1529
10319,1529,1732,1731
10320,1300,1299,1087
10321,1087,1088,1300
10322,876,877,1087
10323,1087,1086,876
10324,1298,1086,1087
10325,1087,1299,1298
10326,878,1088,1087
10327,1087,877,878
10328,1729,1728,1525
10329,1525,1526,1729
10330,1948,1947,1731
10331,1731,1732,1948
10332,1946,1947,2173
10333,2173,2172,1946
10334,1944,1728,1729
10335,1729,1945,1944
10336,2171,1945,1946
10337,1946,2172,2171
10338,2171,2172,2500
10339,2500,2499,2171
10340,2170,2171,2499
10341,2499,2498,2170
10342,2260,2358,2359
10343,2359,2261,2260
10344,2358,2260,2259
10345,2259,2357,2358
10346,2037,2036,2261
10347,2261,2262,2037
10348,1820,1819,2037
10349,2037,2038,1820
10350,1818,2036,2037
10351,2037,1819,1818
10352,2262,2263,2038
10353,2038,2037,2262
10354,2907,2906,3114
10355,3114,3115,2907
10356,2693,2694,2362
10357,2362,2361,2693
10358,3325,3324,3011
10359,3011,3012,3325
10360,3116,3115,3223
10361,3223,3224,3116
10362,3223,3115,3114
10363,3114,3222,3223
10364,2907,3115,3116
10365,3116,2908,2907
10366,2265,2040,2039
10367,2039,2264,2265
10368,1820,2038,2039
10369,2039,1821,1820
10370,1822,1821,2039
10371,2039,2040,1822
10372,2263,2264,2039
10373,2039,2038,2263
10374,2265,2363,2364
10375,2364,2266,2265
10376,2365,2364,2696
10377,2696,2697,2365
10378,2364,2363,2695
10379,2695,2696,2364
10380,2267,2266,2364
10381,2364,2365,2267
10382,773,448,447
10383,447,772,773
10384,984,985,773
10385,773,772,984
10386,773,774,449
10387,449,448,773
10388,773,985,986
10389,986,774,773
10390,1191,1190,1410
10391,1410,1411,1191
10392,1189,1190,990
10393,990,989,1189
10394,1409,1189,1188
10395,1188,1408,1409
10396,1409,1408,1622
10397,1622,1623,1409
10398,1828,1829,1622
10399,1622,1621,1828
10400,1407,1621,1622
10401,1622,1408,1407
10402,1830,1623,1622
10403,1622,1829,1830
10404,1189,989,988
10405,988,1188,1189
10406,1187,1407,1408
10407,1408,1188,1187
10408,1184,1183,1403
10409,1403,1404,1184
10410,1185,985,984
10411,984,1184,1185
10412,1405,1406,1186
10413,1186,1185,1405
10414,1405,1619,1620
10415,1620,1406,1405
10416,1828,1621,1620
10417,1620,1827,1828
10418,1407,1406,1620
10419,1620,1621,1407
10420,1826,1827,1620
10421,1620,1619,1826
10422,986,985,1185
10423,1185,1186,986
10424,1187,1186,1406
10425,1406,1407,1187
10426,2911,3119,3120
10427,3120,2912,2911
10428,2700,2701,2369
10429,2369,2368,2700
10430,2699,2700,2368
10431,2368,2367,2699
10432,3227,3119,3118
10433,3118,3226,3227
10434,3120,3119,3227
10435,3227,3228,3120
10436,3118,3119,2911
10437,2911,2910,3118
10438,2697,2698,2366
10439,2366,2365,2697
10440,2273,2371,2372
10441,2372,2274,2273
10442,2275,2274,2372
10443,2372,2373,2275
10444,2273,2048,2047
10445,2047,2272,2273
10446,1828,2046,2047
10447,2047,1829,1828
10448,1830,1829,2047
10449,2047,2048,1830
10450,2271,2272,2047
10451,2047,2046,2271
10452,2269,2268,2366
10453,2366,2367,2269
10454,2267,2365,2366
10455,2366,2268,2267
10456,2367,2366,2698
10457,2698,2699,2367
10458,2269,2270,2045
10459,2045,2044,2269
10460,1828,1827,2045
10461,2045,2046,1828
10462,1826,2044,2045
10463,2045,1827,1826
10464,2271,2046,2045
10465,2045,2270,2271
10466,1308,1307,1095
10467,1095,1096,1308
10468,884,885,1095
10469,1095,1094,884
10470,886,1096,1095
10471,1095,885,886
10472,1306,1094,1095
10473,1095,1307,1306
10474,1737,1736,1533
10475,1533,1534,1737
10476,1535,1534,1309
10477,1309,1310,1535
10478,571,570,267
10479,267,268,571
10480,159,160,267
10481,267,266,159
10482,159,61,62
10483,62,160,159
10484,569,266,267
10485,267,570,569
10486,161,268,267
10487,267,160,161
10488,161,160,62
10489,62,63,161
10490,571,572,683
10491,683,682,571
10492,892,891,683
10493,683,684,892
10494,890,682,683
10495,683,891,890
10496,573,684,683
10497,683,572,573
10498,1739,1536,1537
10499,1537,1740,1739
10500,1312,1100,1101
10501,1101,1313,1312
10502,892,1102,1101
10503,1101,891,892
10504,890,891,1101
10505,1101,1100,890
10506,1314,1313,1101
10507,1101,1102,1314
10508,1952,1736,1737
10509,1737,1953,1952
10510,1954,2180,2179
10511,2179,1953,1954
10512,1956,1955,1739
10513,1739,1740,1956
10514,2181,2180,1954
10515,1954,1955,2181
10516,2180,2181,2509
10517,2509,2508,2180
10518,575,272,273
10519,273,576,575
10520,167,274,273
10521,273,166,167
10522,167,166,68
10523,68,69,167
10524,466,368,367
10525,367,465,466
10526,577,576,273
10527,273,274,577
10528,165,166,273
10529,273,272,165
10530,165,67,68
10531,68,166,165
10532,464,465,367
10533,367,366,464
10534,575,686,685
10535,685,574,575
10536,462,787,788
10537,788,463,462
10538,892,684,685
10539,685,893,892
10540,573,574,685
10541,685,684,573
10542,894,893,685
10543,685,686,894
10544,1320,1108,1109
10545,1109,1321,1320
10546,900,1110,1109
10547,1109,899,900
10548,898,899,1109
10549,1109,1108,898
10550,1322,1321,1109
10551,1109,1110,1322
10552,1747,1544,1545
10553,1545,1748,1747
10554,1544,1543,1318
10555,1318,1319,1544
10556,1316,1315,1103
10557,1103,1104,1316
10558,892,893,1103
10559,1103,1102,892
10560,1314,1102,1103
10561,1103,1315,1314
10562,894,1104,1103
10563,1103,893,894
10564,1745,1744,1541
10565,1541,1542,1745
10566,1964,1963,1747
10567,1747,1748,1964
10568,1963,2189,2188
10569,2188,1962,1963
10570,1960,1744,1745
10571,1745,1961,1960
10572,2187,1961,1962
10573,1962,2188,2187
10574,2187,2188,2516
10575,2516,2515,2187
10576,2277,2276,2374
10577,2374,2375,2277
10578,2373,2705,2706
10579,2706,2374,2373
10580,2375,2374,2706
10581,2706,2707,2375
10582,2373,2374,2276
10583,2276,2275,2373
10584,2277,2278,2053
10585,2053,2052,2277
10586,1836,1835,2053
10587,2053,2054,1836
10588,1834,2052,2053
10589,2053,1835,1834
10590,2279,2054,2053
10591,2053,2278,2279
10592,2923,2922,3130
10593,3130,3131,2923
10594,2709,2710,2378
10595,2378,2377,2709
10596,2710,2711,2379
10597,2379,2378,2710
10598,3341,3340,3027
10599,3027,3028,3341
10600,3132,3131,3239
10601,3239,3240,3132
10602,3239,3131,3130
10603,3130,3238,3239
10604,2923,3131,3132
10605,3132,2924,2923
10606,2281,2056,2055
10607,2055,2280,2281
10608,1836,2054,2055
10609,2055,1837,1836
10610,1838,1837,2055
10611,2055,2056,1838
10612,2279,2280,2055
10613,2055,2054,2279
10614,2281,2379,2380
10615,2380,2282,2281
10616,2381,2380,2712
10617,2712,2713,2381
10618,2380,2379,2711
10619,2711,2712,2380
10620,2283,2282,2380
10621,2380,2381,2283
10622,789,464,463
10623,463,788,789
10624,1000,1001,789
10625,789,788,1000
10626,789,790,465
10627,465,464,789
10628,789,1001,1002
10629,1002,790,789
10630,1207,1206,1426
10631,1426,1427,1207
10632,1206,1006,1005
10633,1005,1205,1206
10634,1424,1425,1205
10635,1205,1204,1424
10636,1424,1638,1639
10637,1639,1425,1424
10638,1638,1637,1844
10639,1844,1845,1638
10640,1204,1203,1423
10641,1423,1424,1204
10642,1638,1424,1423
10643,1423,1637,1638
10644,1845,1846,1639
10645,1639,1638,1845
10646,1004,1204,1205
10647,1205,1005,1004
10648,1200,1199,1419
10649,1419,1420,1200
10650,1201,1001,1000
10651,1000,1200,1201
10652,1421,1422,1202
10653,1202,1201,1421
10654,1421,1635,1636
10655,1636,1422,1421
10656,1844,1637,1636
10657,1636,1843,1844
10658,1423,1203,1202
10659,1202,1422,1423
10660,1423,1422,1636
10661,1636,1637,1423
10662,1842,1843,1636
10663,1636,1635,1842
10664,1002,1001,1201
10665,1201,1202,1002
10666,2927,3135,3136
10667,3136,2928,2927
10668,2716,2717,2385
10669,2385,2384,2716
10670,2715,2716,2384
10671,2384,2383,2715
10672,3345,3032,3033
10673,3033,3346,3345
10674,3243,3135,3134
10675,3134,3242,3243
10676,3136,3135,3243
10677,3243,3244,3136
10678,3134,3135,2927
10679,2927,2926,3134
10680,2714,2715,2383
10681,2383,2382,2714
10682,2289,2387,2388
10683,2388,2290,2289
10684,2291,2290,2388
10685,2388,2389,2291
10686,2289,2064,2063
10687,2063,2288,2289
10688,1844,2062,2063
10689,2063,1845,1844
10690,1846,1845,2063
10691,2063,2064,1846
10692,2287,2288,2063
10693,2063,2062,2287
10694,2285,2284,2382
10695,2382,2383,2285
10696,2382,2381,2713
10697,2713,2714,2382
10698,2283,2381,2382
10699,2382,2284,2283
10700,2285,2286,2061
10701,2061,2060,2285
10702,1844,1843,2061
10703,2061,2062,1844
10704,1842,2060,2061
10705,2061,1843,1842
10706,2287,2062,2061
10707,2061,2286,2287
10708,1323,1111,1112
10709,1112,1324,1323
10710,900,901,1111
10711,1111,1110,900
10712,902,1112,1111
10713,1111,901,902
10714,1111,1323,1322
10715,1322,1110,1111
10716,1753,1752,1549
10717,1549,1550,1753
10718,587,586,283
10719,283,284,587
10720,175,176,283
10721,283,282,175
10722,89,87,176
10723,176,175,89
10724,585,282,283
10725,283,586,585
10726,177,284,283
10727,283,176,177
10728,87,85,177
10729,177,176,87
10730,588,699,698
10731,698,587,588
10732,908,907,699
10733,699,700,908
10734,906,698,699
10735,699,907,906
10736,699,588,589
10737,589,700,699
10738,1755,1552,1553
10739,1553,1756,1755
10740,1328,1116,1117
10741,1117,1329,1328
10742,908,1118,1117
10743,1117,907,908
10744,906,907,1117
10745,1117,1116,906
10746,1330,1329,1117
10747,1117,1118,1330
10748,1968,1752,1753
10749,1753,1969,1968
10750,1970,2196,2195
10751,2195,1969,1970
10752,2195,2196,2524
10753,2524,2523,2195
10754,2523,2522,2194
10755,2194,2195,2523
10756,1972,1971,1755
10757,1755,1756,1972
10758,1971,2197,2196
10759,2196,1970,1971
10760,592,591,288
10761,288,289,592
10762,183,290,289
10763,289,182,183
10764,73,42,183
10765,183,182,73
10766,482,384,383
10767,383,481,482
10768,289,290,593
10769,593,592,289
10770,181,182,289
10771,289,288,181
10772,75,73,182
10773,182,181,75
10774,480,481,383
10775,383,382,480
10776,591,702,701
10777,701,590,591
10778,478,803,804
10779,804,479,478
10780,908,700,701
10781,701,909,908
10782,589,590,701
10783,701,700,589
10784,910,909,701
10785,701,702,910
10786,1125,1337,1336
10787,1336,1124,1125
10788,915,916,1126
10789,1126,1125,915
10790,1125,1124,914
10791,914,915,1125
10792,1337,1125,1126
10793,1126,1338,1337
10794,1763,1560,1561
10795,1561,1764,1763
10796,1332,1331,1119
10797,1119,1120,1332
10798,908,909,1119
10799,1119,1118,908
10800,1330,1118,1119
10801,1119,1331,1330
10802,910,1120,1119
10803,1119,909,910
10804,1761,1760,1557
10805,1557,1558,1761
10806,1980,1979,1763
10807,1763,1764,1980
10808,1979,2205,2204
10809,2204,1978,1979
10810,1976,1760,1761
10811,1761,1977,1976
10812,2203,1977,1978
10813,1978,2204,2203
10814,2203,2204,2532
10815,2532,2531,2203
10816,2202,2203,2531
10817,2531,2530,2202
10818,2293,2292,2390
10819,2390,2391,2293
10820,2291,2389,2390
10821,2390,2292,2291
10822,2293,2294,2069
10823,2069,2068,2293
10824,1851,2069,2070
10825,2070,1852,1851
10826,2069,1851,1850
10827,1850,2068,2069
10828,2295,2070,2069
10829,2069,2294,2295
10830,2939,2938,3146
10831,3146,3147,2939
10832,2726,2394,2393
10833,2393,2725,2726
10834,3357,3356,3043
10835,3043,3044,3357
10836,3148,3147,3255
10837,3255,3256,3148
10838,3255,3147,3146
10839,3146,3254,3255
10840,2939,3147,3148
10841,3148,2940,2939
10842,2297,2072,2071
10843,2071,2296,2297
10844,1852,2070,2071
10845,2071,1853,1852
10846,1854,1853,2071
10847,2071,2072,1854
10848,2295,2296,2071
10849,2071,2070,2295
10850,2396,2298,2297
10851,2297,2395,2396
10852,2728,2729,2397
10853,2397,2396,2728
10854,2396,2395,2727
10855,2727,2728,2396
10856,2298,2396,2397
10857,2397,2299,2298
10858,805,480,479
10859,479,804,805
10860,1016,1017,805
10861,805,804,1016
10862,805,806,481
10863,481,480,805
10864,805,1017,1018
10865,1018,806,805
10866,1223,1222,1442
10867,1442,1443,1223
10868,1221,1222,1022
10869,1022,1021,1221
10870,1441,1221,1220
10871,1220,1440,1441
10872,1654,1655,1441
10873,1441,1440,1654
10874,1860,1861,1654
10875,1654,1653,1860
10876,1440,1439,1653
10877,1653,1654,1440
10878,1862,1655,1654
10879,1654,1861,1862
10880,1221,1021,1020
10881,1020,1220,1221
10882,1219,1439,1440
10883,1440,1220,1219
10884,1216,1215,1435
10885,1435,1436,1216
10886,1217,1017,1016
10887,1016,1216,1217
10888,1437,1438,1218
10889,1218,1217,1437
10890,1437,1651,1652
10891,1652,1438,1437
10892,1859,1860,1653
10893,1653,1652,1859
10894,1439,1438,1652
10895,1652,1653,1439
10896,1652,1651,1858
10897,1858,1859,1652
10898,1018,1017,1217
10899,1217,1218,1018
10900,1219,1218,1438
10901,1438,1439,1219
10902,2943,3151,3152
10903,3152,2944,2943
10904,2732,2733,2401
10905,2401,2400,2732
10906,2400,2399,2731
10907,2731,2732,2400
10908,3259,3151,3150
10909,3150,3258,3259
10910,3260,3152,3151
10911,3151,3259,3260
10912,2942,3150,3151
10913,3151,2943,2942
10914,2398,2397,2729
10915,2729,2730,2398
10916,2306,2305,2403
10917,2403,2443,2306
10918,2441,2307,2306
10919,2306,2443,2441
10920,2304,2305,2080
10921,2080,2079,2304
10922,2079,1861,1860
10923,1860,2078,2079
10924,1861,2079,2080
10925,2080,1862,1861
10926,2079,2078,2303
10927,2303,2304,2079
10928,2301,2300,2398
10929,2398,2399,2301
10930,2299,2397,2398
10931,2398,2300,2299
10932,2730,2731,2399
10933,2399,2398,2730
10934,2301,2302,2077
10935,2077,2076,2301
10936,1859,2077,2078
10937,2078,1860,1859
10938,2077,1859,1858
10939,1858,2076,2077
10940,2303,2078,2077
10941,2077,2302,2303
10942,1340,1339,1127
10943,1127,1128,1340
10944,917,1127,1126
10945,1126,916,917
10946,1127,917,918
10947,918,1128,1127
10948,1338,1126,1127
10949,1127,1339,1338
10950,1566,1769,1768
10951,1768,1565,1566
10952,1341,1342,1567
10953,1567,1566,1341
10954,603,602,299
10955,299,300,603
10956,191,192,299
10957,299,298,191
10958,26,24,192
10959,192,191,26
10960,601,298,299
10961,299,602,601
10962,193,300,299
10963,299,192,193
10964,24,22,193
10965,193,192,24
10966,715,714,603
10967,603,604,715
10968,923,715,716
10969,716,924,923
10970,715,923,922
10971,922,714,715
10972,604,605,716
10973,716,715,604
10974,1568,1569,1772
10975,1772,1771,1568
10976,1345,1344,1132
10977,1132,1133,1345
10978,924,1134,1133
10979,1133,923,924
10980,922,923,1133
10981,1133,1132,922
10982,1133,1134,1346
10983,1346,1345,1133
10984,1985,1984,1768
10985,1768,1769,1985
10986,1986,2212,2211
10987,2211,1985,1986
10988,1987,1771,1772
10989,1772,1988,1987
10990,2213,2212,1986
10991,1986,1987,2213
10992,2541,2540,2212
10993,2212,2213,2541
10994,608,607,304
10995,304,305,608
10996,199,306,305
10997,305,198,199
10998,12,10,199
10999,199,198,12
11000,507,400,399
11001,399,509,507
11002,305,306,609
11003,609,608,305
11004,197,198,305
11005,305,304,197
11006,14,12,198
11007,198,197,14
11008,509,399,398
11009,398,513,509
11010,606,607,718
11011,718,717,606
11012,616,618,819
11013,819,820,616
11014,717,925,924
11015,924,716,717
11016,717,716,605
11017,605,606,717
11018,925,717,718
11019,718,926,925
11020,1141,1353,1352
11021,1352,1140,1141
11022,931,932,1142
11023,1142,1141,931
11024,1141,1140,930
11025,930,931,1141
11026,1353,1141,1142
11027,1142,1354,1353
11028,1688,1779,1474
11029,1474,1480,1688
11030,1474,1472,1350
11031,1350,1351,1474
11032,1348,1347,1135
11033,1135,1136,1348
11034,924,925,1135
11035,1135,1134,924
11036,1346,1134,1135
11037,1135,1347,1346
11038,926,1136,1135
11039,1135,925,926
11040,1777,1776,1573
11041,1573,1470,1777
11042,1779,1688,1904
11043,1904,1995,1779
11044,1994,1995,2221
11045,2221,2220,1994
11046,1992,1776,1777
11047,1777,1993,1992
11048,2219,1993,1994
11049,1994,2220,2219
11050,2457,2455,2219
11051,2219,2220,2457
11052,2437,2309,2308
11053,2308,2439,2437
11054,2439,2441,2737
11055,2737,2738,2439
11056,2437,2439,2738
11057,2738,2739,2437
11058,2439,2308,2307
11059,2307,2441,2439
11060,2309,2310,2085
11061,2085,2084,2309
11062,1868,1867,2085
11063,2085,2086,1868
11064,1866,2084,2085
11065,2085,1867,1866
11066,2311,2086,2085
11067,2085,2310,2311
11068,3162,3163,2955
11069,2955,2954,3162
11070,2431,2433,2741
11071,2741,2742,2431
11072,2429,2431,2742
11073,2742,2743,2429
11074,3372,3059,3060
11075,3060,3373,3372
11076,3164,3163,3271
11077,3271,3272,3164
11078,3271,3163,3162
11079,3162,3270,3271
11080,2955,3163,3164
11081,3164,2956,2955
11082,2313,2088,2087
11083,2087,2312,2313
11084,2087,1869,1868
11085,1868,2086,2087
11086,1869,2087,2088
11087,2088,1870,1869
11088,2311,2312,2087
11089,2087,2086,2311
11090,2427,2314,2313
11091,2313,2429,2427
11092,2425,2427,2744
11093,2744,2745,2425
11094,2427,2429,2743
11095,2743,2744,2427
11096,2425,2336,2314
11097,2314,2427,2425
11098,513,616,820
11099,820,821,513
11100,1032,1033,821
11101,821,820,1032
11102,509,513,821
11103,821,822,509
11104,821,1033,1034
11105,1034,822,821
11106,1244,1246,1458
11107,1458,1459,1244
11108,1248,1246,1038
11109,1038,1037,1248
11110,1236,1456,1457
11111,1457,1248,1236
11112,1456,1670,1671
11113,1671,1457,1456
11114,1876,1877,1670
11115,1670,1669,1876
11116,1236,1235,1455
11117,1455,1456,1236
11118,1670,1456,1455
11119,1455,1669,1670
11120,1878,1671,1670
11121,1670,1877,1878
11122,1037,1036,1236
11123,1236,1248,1037
11124,1232,1231,1451
11125,1451,1452,1232
11126,1032,1232,1233
11127,1233,1033,1032
11128,1454,1234,1233
11129,1233,1453,1454
11130,1453,1667,1668
11131,1668,1454,1453
11132,1875,1876,1669
11133,1669,1668,1875
11134,1234,1454,1455
11135,1455,1235,1234
11136,1455,1454,1668
11137,1668,1669,1455
11138,1668,1667,1874
11139,1874,1875,1668
11140,1034,1033,1233
11141,1233,1234,1034
11142,2960,2959,3167
11143,3167,3168,2960
11144,2417,2419,2748
11145,2748,2749,2417
11146,2419,2421,2747
11147,2747,2748,2419
11148,3378,3377,3064
11149,3064,3065,3378
11150,3274,3275,3167
11151,3167,3166,3274
11152,3276,3168,3167
11153,3167,3275,3276
11154,3166,3167,2959
11155,2959,2958,3166
11156,2421,2423,2746
11157,2746,2747,2421
11158,2322,2413,2411
11159,2411,2320,2322
11160,2320,2411,2409
11161,2409,2318,2320
11162,2322,2096,2095
11163,2095,2324,2322
11164,1876,2094,2095
11165,2095,1877,1876
11166,1878,1877,2095
11167,2095,2096,1878
11168,2324,2095,2094
11169,2094,2326,2324
11170,2334,2423,2421
11171,2421,2331,2334
11172,2423,2425,2745
11173,2745,2746,2423
11174,2336,2425,2423
11175,2423,2334,2336
11176,2328,2093,2092
11177,2092,2331,2328
11178,1876,1875,2093
11179,2093,2094,1876
11180,1874,2092,2093
11181,2093,1875,1874
11182,2326,2094,2093
11183,2093,2328,2326
11184,3917,3600,3601
11185,3601,3915,3917
11186,3915,3601,3602
11187,3602,3912,3915
11188,3632,3633,3950
11189,3950,3949,3632
11190,3650,3967,3966
11191,3966,3649,3650
11192,3664,3665,3982
11193,3982,3981,3664
11194,3666,3983,3982
11195,3982,3665,3666
11196,3681,3998,3997
11197,3997,3680,3681
11198,3998,3681,3682
11199,3682,3999,3998
11200,213,106,107
11201,107,214,213
11202,43,1,107
11203,107,106,43
11204,407,403,494
11205,494,496,407
11206,517,516,213
11207,213,214,517
11208,213,516,514
11209,514,211,213
11210,403,401,492
11211,492,494,403
11212,105,106,213
11213,213,211,105
11214,105,82,43
11215,43,106,105
11216,3631,3632,3949
11217,3949,3948,3631
11218,3630,3631,3948
11219,3948,3947,3630
11220,3965,3964,3647
11221,3647,3648,3965
11222,3663,3664,3981
11223,3981,3980,3663
11224,3678,3679,3996
11225,3996,3995,3678
11226,3918,3916,3695
11227,3695,3696,3918
11228,3916,3913,3694
11229,3694,3695,3916
11230,204,311,310
11231,310,203,204
11232,71,204,203
11233,203,2,71
11234,613,310,311
11235,311,614,613
11236,311,212,515
11237,515,614,311
11238,205,212,311
11239,311,204,205
11240,205,204,71
11241,71,83,205
11242,3071,2972,3285
11243,3285,3384,3071
11244,3608,3925,3924
11245,3924,3607,3608
11246,3606,3607,3924
11247,3924,3923,3606
11248,3640,3957,3956
11249,3956,3639,3640
11250,3654,3655,3972
11251,3972,3971,3654
11252,3988,3671,3672
11253,3672,3989,3988
11254,3671,3988,3987
11255,3987,3670,3671
11256,3688,4005,4004
11257,4004,3687,3688
11258,3686,3687,4004
11259,4004,4003,3686
11260,1880,1882,1674
11261,1674,1673,1880
11262,1240,1244,1459
11263,1459,1460,1240
11264,1459,1673,1674
11265,1674,1460,1459
11266,1460,1462,1238
11267,1238,1240,1460
11268,1462,1460,1674
11269,1674,1575,1462
11270,1886,1781,2110
11271,2110,2108,1886
11272,1783,1575,1674
11273,1674,1882,1783
11274,1475,1483,1257
11275,1257,1258,1475
11276,1683,1883,1485
11277,1485,1483,1683
11278,2228,1901,1897
11279,1897,2230,2228
11280,2129,2339,2224
11281,2129,2224,2101
11282,2101,1996,2129
11283,1901,1996,1883
11284,1883,1683,1901
11285,2339,2129,2228
11286,2339,2228,2543
11287,2543,2464,2339
11288,1784,1577,1576
11289,1576,1881,1784
11290,1576,1577,1363
11291,1363,1362,1576
11292,1461,1574,1576
11293,1576,1362,1461
11294,1885,2105,2109
11295,2109,1780,1885
11296,1782,1881,1576
11297,1576,1574,1782
11298,1881,2099,2002
11299,2002,1784,1881
11300,2315,2317,2002
11301,2002,2099,2315
11302,2121,2125,2109
11303,2109,2105,2121
11304,2234,2315,2099
11305,2099,2000,2234
11306,1881,1782,2000
11307,2000,2099,1881
11308,3609,3610,3927
11309,3927,3926,3609
11310,3624,3625,3942
11311,3942,3941,3624
11312,3625,3626,3943
11313,3943,3942,3625
11314,3990,3989,3672
11315,3672,3673,3990
11316,3673,3674,3991
11317,3991,3990,3673
11318,3689,4006,4005
11319,4005,3688,3689
11320,1476,1354,1355
11321,1355,1484,1476
11322,1684,1484,1486
11323,1486,1884,1684
11324,2229,2231,1898
11325,1898,1902,2229
11326,1902,1684,1884
11327,1884,1997,1902
11328,2340,2465,2544
11329,2340,2544,2229
11330,2229,2130,2340
11331,1882,1880,2098
11332,2098,2100,1882
11333,2316,2100,2098
11334,2098,2318,2316
11335,2122,2108,2110
11336,2110,2126,2122
11337,2235,2001,2100
11338,2100,2316,2235
11339,1882,2100,2001
11340,2001,1783,1882
11341,3791,3789,3856
11342,3856,3857,3791
11343,3910,3603,3604
11344,3604,3907,3910
11345,3794,3791,3857
11346,3857,3859,3794
11347,4131,4132,3859
11348,3859,3857,4131
11349,3912,3910,4019
11350,4019,4018,3912
11351,4341,4223,4019
11352,4224,4341,4019
11353,4019,4020,4224
11354,3910,3907,4020
11355,4020,4019,3910
11356,4340,4222,4018
11357,4223,4340,4018
11358,4018,4019,4223
11359,4340,4740,4644
11360,4644,4222,4340
11361,4340,4223,4645
11362,4645,4740,4340
11363,3857,3856,4129
11364,4129,4131,3857
11365,4339,4739,4643
11366,4643,4221,4339
11367,3889,3891,3716
11368,3716,3715,3889
11369,3620,3937,3936
11370,3936,3619,3620
11371,3891,3893,3717
11372,3717,3716,3891
11373,4163,4165,3893
11374,3893,3891,4163
11375,3935,3936,4035
11376,4035,4034,3935
11377,4357,4239,4035
11378,4240,4357,4035
11379,4035,4036,4240
11380,4357,4240,4662
11381,4662,4757,4357
11382,4357,4757,4661
11383,4661,4239,4357
11384,3937,4036,4035
11385,4035,3936,3937
11386,4356,4238,4034
11387,4239,4356,4034
11388,4034,4035,4239
11389,3891,3889,4161
11390,4161,4163,3891
11391,4354,4237,4659
11392,4659,4754,4354
11393,3814,3815,3732
11394,3732,3731,3814
11395,3733,3732,3815
11396,3815,3816,3733
11397,4195,4197,3816
11398,3816,3815,4195
11399,3951,3952,4051
11400,4051,4050,3951
11401,4373,4255,4051
11402,4256,4373,4051
11403,4051,4052,4256
11404,4373,4256,4678
11405,4678,4773,4373
11406,3953,4052,4051
11407,4051,3952,3953
11408,4372,4254,4050
11409,4255,4372,4050
11410,4050,4051,4255
11411,4372,4772,4676
11412,4676,4254,4372
11413,4193,4195,3815
11414,3815,3814,4193
11415,4370,4770,4674
11416,4674,4252,4370
11417,4370,4253,4675
11418,4675,4770,4370
11419,4371,4254,4676
11420,4676,4771,4371
11421,3830,3831,3748
11422,3748,3747,3830
11423,3748,3831,3832
11424,3832,3749,3748
11425,4121,4122,3832
11426,3832,3831,4121
11427,3967,3968,4067
11428,4067,4066,3967
11429,4389,4271,4067
11430,4272,4389,4067
11431,4067,4068,4272
11432,3969,4068,4067
11433,4067,3968,3969
11434,4388,4270,4066
11435,4271,4388,4066
11436,4066,4067,4271
11437,4388,4788,4692
11438,4692,4270,4388
11439,4388,4271,4693
11440,4693,4788,4388
11441,3830,4120,4121
11442,4121,3831,3830
11443,4386,4269,4691
11444,4691,4786,4386
11445,3846,3847,3764
11446,3764,3763,3846
11447,3668,3985,3984
11448,3984,3667,3668
11449,3666,3667,3984
11450,3984,3983,3666
11451,3765,3764,3847
11452,3847,3848,3765
11453,4186,3848,3847
11454,3847,4188,4186
11455,3983,3984,4083
11456,4083,4082,3983
11457,4287,4083,4084
11458,4084,4405,4287
11459,4084,4288,4405
11460,4405,4288,4710
11461,4710,4805,4405
11462,3985,4084,4083
11463,4083,3984,3985
11464,4404,4286,4082
11465,4287,4404,4082
11466,4082,4083,4287
11467,4404,4287,4709
11468,4709,4804,4404
11469,4188,3847,3846
11470,3846,4190,4188
11471,4402,4802,4706
11472,4706,4284,4402
11473,4403,4286,4708
11474,4708,4803,4403
11475,4403,4803,4707
11476,4707,4285,4403
11477,3884,3780,3779
11478,3779,3886,3884
11479,4000,3683,3684
11480,3684,4001,4000
11481,3683,4000,3999
11482,3999,3682,3683
11483,3882,3781,3780
11484,3780,3884,3882
11485,3884,4156,4154
11486,4154,3882,3884
11487,3999,4000,4099
11488,4099,4098,3999
11489,4421,4303,4099
11490,4304,4421,4099
11491,4099,4100,4304
11492,4421,4304,4726
11493,4726,4821,4421
11494,4421,4821,4725
11495,4725,4303,4421
11496,4001,4100,4099
11497,4099,4000,4001
11498,4420,4302,4098
11499,4303,4420,4098
11500,4098,4099,4303
11501,4420,4820,4724
11502,4724,4302,4420
11503,3886,4158,4156
11504,4156,3884,3886
11505,4418,4301,4723
11506,4723,4818,4418
11507,4419,4302,4724
11508,4724,4819,4419
11509,828,830,493
11510,493,495,828
11511,941,830,828
11512,828,1040,941
11513,624,416,493
11514,493,830,624
11515,830,832,624
11516,937,832,830
11517,830,941,937
11518,5038,4538,4535
11519,4535,5237,5038
11520,4535,5036,5237
11521,5446,5242,4333
11522,5243,5446,4333
11523,4333,4334,5243
11524,5237,5036,5854
11525,5854,5855,5237
11526,494,730,731
11527,731,496,494
11528,836,835,627
11529,627,628,836
11530,517,628,627
11531,627,516,517
11532,627,726,514
11533,514,516,627
11534,835,934,726
11535,726,627,835
11536,211,514,510
11537,510,207,211
11538,415,492,401
11539,401,405,415
11540,104,105,211
11541,211,207,104
11542,104,102,82
11543,82,105,104
11544,730,494,492
11545,492,829,730
11546,940,942,730
11547,730,829,940
11548,623,831,829
11549,623,829,492
11550,492,415,623
11551,936,940,829
11552,829,831,936
11553,3076,3074,3182
11554,3182,3184,3076
11555,3074,3076,2868
11556,2868,2866,3074
11557,2866,2864,3072
11558,3072,3074,2866
11559,3177,2969,2971
11560,3177,2971,3284
11561,3284,3385,3177
11562,3179,3182,3074
11563,3074,3072,3179
11564,3612,3613,3930
11565,3930,3929,3612
11566,3883,3885,3713
11567,3713,3712,3883
11568,3881,3883,3712
11569,3712,3711,3881
11570,3883,3881,4153
11571,4153,4155,3883
11572,3930,3931,4030
11573,4030,4029,3930
11574,4350,4232,4028
11575,4233,4350,4028
11576,4028,4029,4233
11577,4029,4028,3929
11578,3929,3930,4029
11579,4233,4029,4030
11580,4030,4351,4233
11581,4030,4234,4351
11582,3885,3883,4155
11583,4155,4157,3885
11584,4353,4236,4658
11585,4658,4753,4353
11586,4353,4753,4657
11587,4657,4235,4353
11588,3729,3728,3811
11589,3811,3812,3729
11590,3810,3811,3728
11591,3728,3727,3810
11592,4185,4187,3811
11593,3811,3810,4185
11594,3946,3947,4046
11595,4046,4045,3946
11596,4366,4248,4044
11597,4249,4366,4044
11598,4044,4045,4249
11599,4366,4766,4670
11600,4670,4248,4366
11601,4045,4044,3945
11602,3945,3946,4045
11603,4249,4045,4046
11604,4046,4367,4249
11605,4046,4250,4367
11606,4367,4250,4672
11607,4672,4767,4367
11608,4367,4767,4671
11609,4671,4249,4367
11610,4187,4189,3812
11611,3812,3811,4187
11612,4369,4252,4674
11613,4674,4769,4369
11614,4369,4769,4673
11615,4673,4251,4369
11616,4368,4768,4672
11617,4672,4250,4368
11618,3744,3827,3828
11619,3828,3745,3744
11620,3826,3827,3744
11621,3744,3743,3826
11622,4117,3827,3826
11623,3826,4116,4117
11624,3963,4062,4061
11625,4061,3962,3963
11626,4382,4264,4060
11627,4265,4382,4060
11628,4060,4061,4265
11629,3961,3962,4061
11630,4061,4060,3961
11631,4383,4265,4061
11632,4266,4383,4061
11633,4061,4062,4266
11634,4383,4266,4688
11635,4688,4783,4383
11636,4383,4783,4687
11637,4687,4265,4383
11638,3828,3827,4117
11639,4117,4118,3828
11640,4385,4785,4689
11641,4689,4267,4385
11642,3660,3661,3978
11643,3978,3977,3660
11644,3661,3662,3979
11645,3979,3978,3661
11646,3760,3843,3844
11647,3844,3761,3760
11648,3842,3843,3760
11649,3760,3759,3842
11650,4196,3843,3842
11651,3842,4198,4196
11652,4077,3978,3979
11653,3979,4078,4077
11654,4398,4280,4076
11655,4281,4398,4076
11656,4076,4077,4281
11657,4398,4798,4702
11658,4702,4280,4398
11659,4398,4281,4703
11660,4703,4798,4398
11661,3978,4077,4076
11662,4076,3977,3978
11663,4399,4281,4077
11664,4282,4399,4077
11665,4077,4078,4282
11666,4399,4799,4703
11667,4703,4281,4399
11668,4194,3844,3843
11669,3843,4196,4194
11670,4401,4284,4706
11671,4706,4801,4401
11672,4400,4800,4704
11673,4704,4282,4400
11674,3994,3993,3676
11675,3676,3677,3994
11676,3677,3678,3995
11677,3995,3994,3677
11678,3890,3777,3776
11679,3776,3892,3890
11680,3892,3776,3775
11681,3775,3894,3892
11682,4164,3892,3894
11683,3894,4166,4164
11684,4093,3994,3995
11685,3995,4094,4093
11686,4414,4296,4092
11687,4297,4414,4092
11688,4092,4093,4297
11689,4414,4814,4718
11690,4718,4296,4414
11691,3994,4093,4092
11692,4092,3993,3994
11693,4415,4297,4093
11694,4298,4415,4093
11695,4093,4094,4298
11696,4415,4298,4720
11697,4720,4815,4415
11698,3892,4164,4162
11699,4162,3890,3892
11700,4417,4300,4722
11701,4722,4817,4417
11702,4417,4817,4721
11703,4721,4299,4417
11704,4416,4816,4720
11705,4720,4298,4416
11706,3911,3908,3692
11707,3692,3693,3911
11708,3913,3911,3693
11709,3693,3694,3913
11710,3792,3864,3861
11711,3861,3790,3792
11712,3793,3860,3864
11713,3864,3792,3793
11714,4113,3864,3860
11715,3860,4130,4113
11716,3913,4014,4109
11717,4109,3911,3913
11718,4312,4108,4109
11719,4109,4430,4312
11720,4109,4314,4430
11721,3911,4109,4108
11722,4108,3908,3911
11723,4314,4109,4014
11724,4014,4431,4314
11725,4014,4317,4431
11726,4431,4831,4735
11727,4735,4314,4431
11728,4011,3861,3864
11729,3864,4113,4011
11730,5444,5244,4332
11731,5242,5444,4332
11732,4332,4333,5242
11733,4834,4317,4332
11734,4332,5244,4834
11735,5035,4834,5244
11736,5240,5035,5244
11737,5244,5447,5240
11738,932,724,725
11739,725,933,932
11740,725,724,613
11741,613,614,725
11742,725,614,515
11743,515,727,725
11744,933,725,727
11745,727,935,933
11746,212,208,511
11747,511,515,212
11748,206,208,212
11749,212,205,206
11750,206,205,83
11751,83,103,206
11752,3174,3282,3183
11753,3183,3075,3174
11754,3075,2867,2966
11755,2966,3174,3075
11756,2867,3075,3073
11757,3073,2865,2867
11758,2550,2342,2407
11759,2407,2756,2550
11760,2756,2758,2550
11761,3178,3386,3285
11762,3285,2972,3178
11763,2972,2970,3178
11764,3180,3073,3075
11765,3075,3183,3180
11766,3801,3799,3867
11767,3867,3869,3801
11768,3799,3798,3866
11769,3866,3867,3799
11770,3867,3866,4136
11771,4136,4138,3867
11772,4021,3905,3923
11773,3923,4022,4021
11774,4342,4224,4020
11775,4225,4342,4020
11776,4020,4021,4225
11777,4342,4742,4646
11778,4646,4224,4342
11779,3907,3905,4021
11780,4021,4020,3907
11781,4225,4021,4022
11782,4022,4343,4225
11783,4022,4226,4343
11784,3869,3867,4138
11785,4138,4140,3869
11786,4345,4228,4650
11787,4650,4745,4345
11788,4345,4745,4649
11789,4649,4227,4345
11790,4344,4744,4648
11791,4648,4226,4344
11792,3621,3938,3937
11793,3937,3620,3621
11794,3938,3621,3622
11795,3622,3939,3938
11796,3899,3901,3721
11797,3721,3720,3899
11798,3897,3899,3720
11799,3720,3719,3897
11800,3899,3897,4169
11801,4169,4171,3899
11802,3939,4038,4037
11803,4037,3938,3939
11804,4358,4240,4036
11805,4241,4358,4036
11806,4036,4037,4241
11807,4358,4758,4662
11808,4662,4240,4358
11809,3937,3938,4037
11810,4037,4036,3937
11811,4359,4241,4037
11812,4242,4359,4037
11813,4037,4038,4242
11814,4359,4242,4664
11815,4664,4759,4359
11816,4359,4759,4663
11817,4663,4241,4359
11818,4171,4173,3901
11819,3901,3899,4171
11820,4361,4244,4666
11821,4666,4761,4361
11822,4361,4761,4665
11823,4665,4243,4361
11824,3637,3638,3955
11825,3955,3954,3637
11826,3820,3737,3736
11827,3736,3819,3820
11828,3818,3819,3736
11829,3736,3735,3818
11830,4201,4203,3819
11831,3819,3818,4201
11832,3955,4054,4053
11833,4053,3954,3955
11834,4374,4256,4052
11835,4257,4374,4052
11836,4052,4053,4257
11837,3953,3954,4053
11838,4053,4052,3953
11839,4375,4257,4053
11840,4258,4375,4053
11841,4053,4054,4258
11842,4375,4258,4680
11843,4680,4775,4375
11844,4375,4775,4679
11845,4679,4257,4375
11846,4203,4205,3820
11847,3820,3819,4203
11848,4376,4259,4681
11849,4681,4776,4376
11850,3652,3653,3970
11851,3970,3969,3652
11852,3836,3753,3752
11853,3752,3835,3836
11854,3834,3835,3752
11855,3752,3751,3834
11856,3835,3834,4124
11857,4124,4212,3835
11858,3971,4070,4069
11859,4069,3970,3971
11860,4390,4272,4068
11861,4273,4390,4068
11862,4068,4069,4273
11863,4390,4790,4694
11864,4694,4272,4390
11865,4390,4273,4695
11866,4695,4790,4390
11867,3969,3970,4069
11868,4069,4068,3969
11869,4391,4273,4069
11870,4274,4391,4069
11871,4069,4070,4274
11872,4210,3836,3835
11873,3835,4212,4210
11874,4393,4793,4697
11875,4697,4275,4393
11876,4392,4792,4696
11877,4696,4274,4392
11878,3986,3985,3668
11879,3668,3669,3986
11880,3669,3670,3987
11881,3987,3986,3669
11882,3852,3769,3768
11883,3768,3851,3852
11884,3850,3851,3768
11885,3768,3767,3850
11886,4180,3851,3850
11887,3850,4182,4180
11888,3987,4086,4085
11889,4085,3986,3987
11890,4406,4288,4084
11891,4289,4406,4084
11892,4084,4085,4289
11893,4406,4806,4710
11894,4710,4288,4406
11895,3985,3986,4085
11896,4085,4084,3985
11897,4289,4085,4086
11898,4086,4407,4289
11899,4086,4290,4407
11900,4407,4290,4712
11901,4712,4807,4407
11902,4178,3852,3851
11903,3851,4180,4178
11904,4409,4292,4714
11905,4714,4809,4409
11906,4409,4809,4713
11907,4713,4291,4409
11908,4408,4808,4712
11909,4712,4290,4408
11910,3874,3785,3784
11911,3784,3876,3874
11912,3876,3784,3783
11913,3783,3878,3876
11914,4147,3876,3878
11915,3878,4150,4147
11916,4002,4003,4102
11917,4102,4101,4002
11918,4304,4100,4101
11919,4101,4422,4304
11920,4101,4305,4422
11921,4101,4100,4001
11922,4001,4002,4101
11923,4305,4101,4102
11924,4102,4423,4305
11925,4102,4306,4423
11926,4423,4306,4728
11927,4728,4823,4423
11928,4423,4823,4727
11929,4727,4305,4423
11930,3876,4147,4145
11931,4145,3874,3876
11932,4425,4825,4729
11933,4729,4307,4425
11934,1040,1240,1238
11935,1238,941,1040
11936,1357,1044,1238
11937,1238,1462,1357
11938,1462,1464,1357
11939,1464,1462,1575
11940,1575,1482,1464
11941,1888,2114,2110
11942,2110,1781,1888
11943,1781,1676,1888
11944,1686,1482,1575
11945,1575,1783,1686
11946,941,1238,1044
11947,1044,937,941
11948,836,1046,1045
11949,1045,835,836
11950,1045,1046,1258
11951,1258,1257,1045
11952,1255,1144,1045
11953,1045,1257,1255
11954,934,835,1045
11955,1045,1144,934
11956,1677,1487,1485
11957,1485,1883,1677
11958,1239,1362,1363
11959,1363,1243,1239
11960,942,940,1237
11961,1237,1239,942
11962,1463,1481,1574
11963,1574,1461,1463
11964,1685,1782,1574
11965,1574,1481,1685
11966,940,936,1043
11967,1043,1237,940
11968,2404,2656,2657
11969,2657,2408,2404
11970,2317,2315,2404
11971,2404,2408,2317
11972,2315,2234,2406
11973,2406,2404,2315
11974,2656,2404,2406
11975,2406,2755,2656
11976,2329,2113,2125
11977,2125,2337,2329
11978,2125,2339,2337
11979,2113,2109,2125
11980,2000,1998,2232
11981,2232,2234,2000
11982,1998,2000,1782
11983,1782,1685,1998
11984,3610,3611,3928
11985,3928,3927,3610
11986,3873,3875,3708
11987,3708,3707,3873
11988,3875,3877,3709
11989,3709,3708,3875
11990,4146,4149,3877
11991,3877,3875,4146
11992,3927,3928,4027
11993,4027,4026,3927
11994,4231,4027,4028
11995,4028,4349,4231
11996,4028,4232,4349
11997,4349,4232,4654
11998,4654,4749,4349
11999,4349,4749,4653
12000,4653,4231,4349
12001,3929,4028,4027
12002,4027,3928,3929
12003,4348,4230,4026
12004,4231,4348,4026
12005,4026,4027,4231
12006,3875,3873,4144
12007,4144,4146,3875
12008,4346,4229,4651
12009,4651,4746,4346
12010,4347,4230,4652
12011,4652,4747,4347
12012,3944,3627,3628
12013,3628,3945,3944
12014,3627,3944,3943
12015,3943,3626,3627
12016,3806,3807,3724
12017,3724,3723,3806
12018,3724,3807,3808
12019,3808,3725,3724
12020,4179,4181,3808
12021,3808,3807,4179
12022,4043,4042,3943
12023,3943,3944,4043
12024,4247,4043,4044
12025,4044,4365,4247
12026,4044,4248,4365
12027,4365,4248,4670
12028,4670,4765,4365
12029,3944,3945,4044
12030,4044,4043,3944
12031,4246,4042,4043
12032,4043,4364,4246
12033,4043,4247,4364
12034,4177,4179,3807
12035,3807,3806,4177
12036,4362,4762,4666
12037,4666,4244,4362
12038,4362,4245,4667
12039,4667,4762,4362
12040,4363,4246,4668
12041,4668,4763,4363
12042,3822,3823,3740
12043,3740,3739,3822
12044,3740,3823,3824
12045,3824,3741,3740
12046,3823,4211,4114
12047,4114,3824,3823
12048,3959,3960,4059
12049,4059,4058,3959
12050,4381,4263,4059
12051,4264,4381,4059
12052,4059,4060,4264
12053,3961,4060,4059
12054,4059,3960,3961
12055,4380,4262,4058
12056,4263,4380,4058
12057,4058,4059,4263
12058,4380,4780,4684
12059,4684,4262,4380
12060,4380,4263,4685
12061,4685,4780,4380
12062,4209,4211,3823
12063,3823,3822,4209
12064,4378,4778,4682
12065,4682,4260,4378
12066,4378,4261,4683
12067,4683,4778,4378
12068,3659,3660,3977
12069,3977,3976,3659
12070,3658,3659,3976
12071,3976,3975,3658
12072,3838,3839,3756
12073,3756,3755,3838
12074,3756,3839,3840
12075,3840,3757,3756
12076,4202,3840,3839
12077,3839,4204,4202
12078,3975,3976,4075
12079,4075,4074,3975
12080,4397,4279,4075
12081,4280,4397,4075
12082,4075,4076,4280
12083,3977,4076,4075
12084,4075,3976,3977
12085,4396,4278,4074
12086,4279,4396,4074
12087,4074,4075,4279
12088,4396,4796,4700
12089,4700,4278,4396
12090,4396,4279,4701
12091,4701,4796,4396
12092,4204,3839,3838
12093,3838,4206,4204
12094,4394,4277,4699
12095,4699,4794,4394
12096,4395,4795,4699
12097,4699,4277,4395
12098,3675,3676,3993
12099,3993,3992,3675
12100,3674,3675,3992
12101,3992,3991,3674
12102,3900,3772,3771
12103,3771,3902,3900
12104,3898,3773,3772
12105,3772,3900,3898
12106,3900,4172,4170
12107,4170,3898,3900
12108,4091,4090,3991
12109,3991,3992,4091
12110,4295,4091,4092
12111,4092,4413,4295
12112,4092,4296,4413
12113,4413,4296,4718
12114,4718,4813,4413
12115,4413,4813,4717
12116,4717,4295,4413
12117,3992,3993,4092
12118,4092,4091,3992
12119,4294,4090,4091
12120,4091,4412,4294
12121,4091,4295,4412
12122,4412,4812,4716
12123,4716,4294,4412
12124,4172,3900,3902
12125,3902,4174,4172
12126,4410,4293,4715
12127,4715,4810,4410
12128,4411,4294,4716
12129,4716,4811,4411
12130,3802,3870,3868
12131,3868,3800,3802
12132,3800,3868,3865
12133,3865,3797,3800
12134,3868,4139,4137
12135,4137,3865,3868
12136,4107,4106,4007
12137,4007,3906,4107
12138,4429,4311,4107
12139,4312,4429,4107
12140,4107,4108,4312
12141,4429,4312,4734
12142,4734,4829,4429
12143,4429,4829,4733
12144,4733,4311,4429
12145,3908,4108,4107
12146,4107,3906,3908
12147,4428,4310,4106
12148,4311,4428,4106
12149,4106,4107,4311
12150,3870,4141,4139
12151,4139,3868,3870
12152,4426,4826,4730
12153,4730,4308,4426
12154,4426,4309,4731
12155,4731,4826,4426
12156,4427,4827,4731
12157,4731,4309,4427
12158,932,933,1143
12159,1143,1142,932
12160,1354,1142,1143
12161,1143,1355,1354
12162,1256,1355,1143
12163,1143,1145,1256
12164,935,1145,1143
12165,1143,933,935
12166,1678,1884,1486
12167,1486,1488,1678
12168,2405,2409,2753
12169,2753,2754,2405
12170,2318,2409,2405
12171,2405,2316,2318
12172,2316,2405,2407
12173,2407,2235,2316
12174,2754,2756,2407
12175,2407,2405,2754
12176,2126,2110,2114
12177,2114,2332,2126
12178,2338,2340,2126
12179,2126,2332,2338
12180,2001,2235,2233
12181,2233,1999,2001
12182,1999,1686,1783
12183,1783,2001,1999
12184,3920,3918,3696
12185,3696,3697,3920
12186,3697,3597,3922
12187,3922,3920,3697
12188,3919,3599,3600
12189,3600,3917,3919
12190,3599,3919,3921
12191,3921,3598,3599
12192,7088,7021,7020
12193,7020,7087,7088
12194,6684,7087,7086
12195,7086,6683,6684
12196,7026,7025,7092
12197,7092,7093,7026
12198,6690,6691,7094
12199,7094,7093,6690
12200,6896,6894,7100
12201,7100,7101,6896
12202,6698,6699,7102
12203,7102,7101,6698
12204,6886,6884,7095
12205,7095,7096,6886
12206,6692,7095,7094
12207,7094,6691,6692
12208,6934,6932,7119
12209,7119,7120,6934
12210,6716,7119,7118
12211,7118,6715,6716
12212,6944,6942,7124
12213,7124,7125,6944
12214,6722,6723,7126
12215,7126,7125,6722
12216,6960,6958,7132
12217,7132,7133,6960
12218,6730,6731,7134
12219,7134,7133,6730
12220,6950,6948,7127
12221,7127,7128,6950
12222,6724,7127,7126
12223,7126,6723,6724
12224,6998,6996,7151
12225,7151,7152,6998
12226,6748,7151,7150
12227,7150,6747,6748
12228,7008,7006,7156
12229,7156,7157,7008
12230,6754,6755,7158
12231,7158,7157,6754
12232,7031,7030,7164
12233,7164,7165,7031
12234,7165,6762,6763
12235,6763,7166,7165
12236,7014,7012,7159
12237,7159,7160,7014
12238,6756,7159,7158
12239,7158,6755,6756
12240,7184,7050,7049
12241,7049,7183,7184
12242,7182,6779,6780
12243,6780,7183,7182
12244,7055,7054,7188
12245,7188,7189,7055
12246,7189,6786,6787
12247,6787,7190,7189
12248,7197,7063,7062
12249,7062,7196,7197
12250,6794,6795,7198
12251,7198,7197,6794
12252,7192,7058,7057
12253,7057,7191,7192
12254,6788,7191,7190
12255,7190,6787,6788
12256,6993,7215,7216
12257,7216,6991,6993
12258,6812,7215,7214
12259,7214,6811,6812
12260,6983,7220,7221
12261,7221,6981,6983
12262,6818,6819,7222
12263,7222,7221,6818
12264,6967,7228,7229
12265,7229,6965,6967
12266,6826,6827,7230
12267,7230,7229,6826
12268,6977,7223,7224
12269,7224,6975,6977
12270,6820,7223,7222
12271,7222,6819,6820
12272,6929,7247,7248
12273,7248,6927,6929
12274,6844,7247,7246
12275,7246,6843,6844
12276,6919,7252,7253
12277,7253,6917,6919
12278,6850,6851,7254
12279,7254,7253,6850
12280,6903,7260,7261
12281,7261,6901,6903
12282,6858,6859,7262
12283,7262,7261,6858
12284,6913,7255,7256
12285,7256,6911,6913
12286,6852,7255,7254
12287,7254,6851,6852
12288,6928,6926,7116
12289,7116,7117,6928
12290,6714,6715,7118
12291,7118,7117,6714
12292,6918,6916,7111
12293,7111,7112,6918
12294,6708,7111,7110
12295,7110,6707,6708
12296,6902,6900,7103
12297,7103,7104,6902
12298,6700,7103,7102
12299,7102,6699,6700
12300,6912,6910,7108
12301,7108,7109,6912
12302,6706,6707,7110
12303,7110,7109,6706
12304,6992,6990,7148
12305,7148,7149,6992
12306,6746,6747,7150
12307,7150,7149,6746
12308,6982,6980,7143
12309,7143,7144,6982
12310,6740,7143,7142
12311,7142,6739,6740
12312,6966,6964,7135
12313,7135,7136,6966
12314,6732,7135,7134
12315,7134,6731,6732
12316,6976,6974,7140
12317,7140,7141,6976
12318,6738,6739,7142
12319,7142,7141,6738
12320,7047,7046,7180
12321,7180,7181,7047
12322,6779,7182,7181
12323,7181,6778,6779
12324,7176,7042,7041
12325,7041,7175,7176
12326,6772,7175,7174
12327,7174,6771,6772
12328,7167,7168,7034
12329,7034,7033,7167
12330,6764,7167,7166
12331,7166,6763,6764
12332,7039,7038,7172
12333,7172,7173,7039
12334,7173,6770,6771
12335,6771,7174,7173
12336,6999,7212,7213
12337,7213,6997,6999
12338,6810,6811,7214
12339,7214,7213,6810
12340,7009,7207,7208
12341,7208,7007,7009
12342,6804,7207,7206
12343,7206,6803,6804
12344,7200,7066,7065
12345,7065,7199,7200
12346,7199,7198,6795
12347,6795,6796,7199
12348,7015,7204,7205
12349,7205,7013,7015
12350,6802,6803,7206
12351,7206,7205,6802
12352,6935,7244,7245
12353,7245,6933,6935
12354,6842,6843,7246
12355,7246,7245,6842
12356,6945,7239,7240
12357,7240,6943,6945
12358,6836,7239,7238
12359,7238,6835,6836
12360,6961,7231,7232
12361,7232,6959,6961
12362,6828,7231,7230
12363,7230,6827,6828
12364,6951,7236,7237
12365,7237,6949,6951
12366,6834,6835,7238
12367,7238,7237,6834
12368,7076,7075,7276
12369,7276,7277,7076
12370,6874,6875,7278
12371,7278,7277,6874
12372,7071,7070,7271
12373,7271,7272,7071
12374,6868,7271,7270
12375,7270,6867,6868
12376,6897,7263,7264
12377,7264,6895,6897
12378,6860,7263,7262
12379,7262,6859,6860
12380,6887,7268,7269
12381,7269,6885,6887
12382,6866,6867,7270
12383,7270,7269,6866
12384,3805,3703,3705
12385,3705,3855,3805
12386,4009,4012,3805
12387,3805,3855,4009
12388,5448,5243,4334
12389,5241,5448,4334
12390,4334,4331,5241
12391,3703,3805,3914
12392,3914,3701,3703
12393,4213,3914,3805
12394,3805,4012,4213
12395,4125,3922,3803
12396,3803,4214,4125
12397,4315,4331,4125
12398,4125,4214,4315
12399,3804,3853,3704
12400,3704,3702,3804
12401,3921,4008,3698
12402,3598,3921,3698
12403,3698,3596,3598
12404,4337,4220,4642
12405,4642,4737,4337
12406,4126,3853,3804
12407,3804,4215,4126
12408,4336,4736,4640
12409,4640,4313,4336
12410,3702,3700,3909
12411,3909,3804,3702
12412,4128,4215,3804
12413,3804,3909,4128
12414,4008,3921,4112
12415,4112,4134,4008
12416,4216,4134,4112
12417,4112,4313,4216
12418,4335,4316,4216
12419,4216,4313,4335
12420,4316,4435,4218
12421,4218,4216,4316
12422,4435,4316,4335
12423,4435,4335,4639
12424,4639,4833,4435
12425,5238,5037,4541
12426,5038,5238,4541
12427,4541,4538,5038
12428,5238,5038,5852
12429,5852,5853,5238
12430,5443,5241,4837
12431,4837,5239,5443
12432,4837,5241,4331
12433,4434,4837,4331
12434,4331,4432,4434
12435,4331,4315,4432
12436,5034,4631,4541
12437,4541,5037,5034
12438,5235,5039,5034
12439,5034,5037,5235
12440,4631,5034,4836
12441,4836,4536,4631
12442,5039,5245,4836
12443,4836,5034,5039
12444,5235,5037,5851
12445,5851,5656,5235
12446,5440,5438,5587
12447,5587,5589,5440
12448,5669,5668,5054
12449,5054,5055,5669
12450,5871,5870,5669
12451,5669,5670,5871
12452,5869,5668,5669
12453,5669,5870,5869
12454,5670,5669,5055
12455,5055,5056,5670
12456,5438,5436,5585
12457,5585,5587,5438
12458,5668,5667,5053
12459,5053,5054,5668
12460,5867,5666,5667
12461,5667,5868,5867
12462,5869,5868,5667
12463,5667,5668,5869
12464,6665,6663,7020
12465,7020,7021,6665
12466,6684,6683,6278
12467,6278,6279,6684
12468,5863,5864,6279
12469,6279,6278,5863
12470,5865,6280,6279
12471,6279,5864,5865
12472,7022,7021,7088
12473,7088,7089,7022
12474,7090,7089,6686
12475,6686,6687,7090
12476,6667,6665,7021
12477,7021,7022,6667
12478,6281,6282,6687
12479,6687,6686,6281
12480,5431,5429,5577
12481,5577,5578,5431
12482,5863,5662,5663
12483,5663,5864,5863
12484,5865,5864,5663
12485,5663,5664,5865
12486,5432,5431,5578
12487,5578,5579,5432
12488,5665,5664,5050
12489,5050,5051,5665
12490,5867,5866,5665
12491,5665,5666,5867
12492,5666,5665,5051
12493,5051,5052,5666
12494,5865,5664,5665
12495,5665,5866,5865
12496,6675,6673,7025
12497,7025,7026,6675
12498,6691,6690,6285
12499,6285,6286,6691
12500,5871,6286,6285
12501,6285,5870,5871
12502,5869,5870,6285
12503,6285,6284,5869
12504,7092,7025,7024
12505,7024,7091,7092
12506,6688,7091,7090
12507,7090,6687,6688
12508,6673,6671,7024
12509,7024,7025,6673
12510,6282,6283,6688
12511,6688,6687,6282
12512,5592,5594,5249
12513,5249,5248,5592
12514,5672,5671,5057
12515,5057,5058,5672
12516,5871,5670,5671
12517,5671,5872,5871
12518,5873,5872,5671
12519,5671,5672,5873
12520,5594,5596,5250
12521,5250,5249,5594
12522,5875,5874,5673
12523,5673,5674,5875
12524,5873,5672,5673
12525,5673,5874,5873
12526,5674,5673,5059
12527,5059,5060,5674
12528,6894,6892,7099
12529,7099,7100,6894
12530,7098,6695,6696
12531,6696,7099,7098
12532,6894,6896,6486
12533,6486,6485,6894
12534,6699,6698,6293
12535,6293,6294,6699
12536,5879,6294,6293
12537,6293,5878,5879
12538,5877,5878,6293
12539,6293,6292,5877
12540,6892,6894,6485
12541,6485,6484,6892
12542,6290,6291,6696
12543,6696,6695,6290
12544,6884,6886,6481
12545,6481,6480,6884
12546,6692,6691,6286
12547,6286,6287,6692
12548,5871,5872,6287
12549,6287,6286,5871
12550,5873,6288,6287
12551,6287,5872,5873
12552,6888,6886,7096
12553,7096,7097,6888
12554,6694,6695,7098
12555,7098,7097,6694
12556,6886,6888,6482
12557,6482,6481,6886
12558,6289,6290,6695
12559,6695,6694,6289
12560,5602,5604,5254
12561,5254,5253,5602
12562,5879,5878,5677
12563,5677,5678,5879
12564,5877,5676,5677
12565,5677,5878,5877
12566,5678,5677,5063
12567,5063,5064,5678
12568,5600,5602,5253
12569,5253,5252,5600
12570,5875,5674,5675
12571,5675,5876,5875
12572,5676,5877,5876
12573,5876,5675,5676
12574,5277,5652,5654
12575,5654,5278,5277
12576,5086,5087,5701
12577,5701,5700,5086
12578,5903,5902,5701
12579,5701,5702,5903
12580,5901,5700,5701
12581,5701,5902,5901
12582,5702,5701,5087
12583,5087,5088,5702
12584,5650,5652,5277
12585,5277,5276,5650
12586,5700,5699,5085
12587,5085,5086,5700
12588,5899,5698,5699
12589,5699,5900,5899
12590,5901,5900,5699
12591,5699,5700,5901
12592,6932,6934,6505
12593,6505,6504,6932
12594,6716,6715,6310
12595,6310,6311,6716
12596,5895,5896,6311
12597,6311,6310,5895
12598,6312,6311,5896
12599,5896,5897,6312
12600,6936,6934,7120
12601,7120,7121,6936
12602,7122,7121,6718
12603,6718,6719,7122
12604,6934,6936,6506
12605,6506,6505,6934
12606,6313,6314,6719
12607,6719,6718,6313
12608,5642,5644,5273
12609,5273,5272,5642
12610,5895,5694,5695
12611,5695,5896,5895
12612,5897,5896,5695
12613,5695,5696,5897
12614,5644,5646,5274
12615,5274,5273,5644
12616,5697,5696,5082
12617,5082,5083,5697
12618,5899,5898,5697
12619,5697,5698,5899
12620,5698,5697,5083
12621,5083,5084,5698
12622,5897,5696,5697
12623,5697,5898,5897
12624,6942,6944,6510
12625,6510,6509,6942
12626,6723,6722,6317
12627,6317,6318,6723
12628,5903,6318,6317
12629,6317,5902,5903
12630,5901,5902,6317
12631,6317,6316,5901
12632,6942,6940,7123
12633,7123,7124,6942
12634,6720,7123,7122
12635,7122,6719,6720
12636,6940,6942,6509
12637,6509,6508,6940
12638,6314,6315,6720
12639,6720,6719,6314
12640,5461,5281,5280
12641,5280,5460,5461
12642,5704,5703,5089
12643,5089,5090,5704
12644,5903,5702,5703
12645,5703,5904,5903
12646,5905,5904,5703
12647,5703,5704,5905
12648,5461,5462,5282
12649,5282,5281,5461
12650,5907,5906,5705
12651,5705,5706,5907
12652,5905,5704,5705
12653,5705,5906,5905
12654,5706,5705,5091
12655,5091,5092,5706
12656,6958,6956,7131
12657,7131,7132,6958
12658,7130,6727,6728
12659,6728,7131,7130
12660,6958,6960,6518
12661,6518,6517,6958
12662,6731,6730,6325
12663,6325,6326,6731
12664,5911,6326,6325
12665,6325,5910,5911
12666,5909,5910,6325
12667,6325,6324,5909
12668,6956,6958,6517
12669,6517,6516,6956
12670,6322,6323,6728
12671,6728,6727,6322
12672,6948,6950,6513
12673,6513,6512,6948
12674,6724,6723,6318
12675,6318,6319,6724
12676,5903,5904,6319
12677,6319,6318,5903
12678,5905,6320,6319
12679,6319,5904,5905
12680,6952,6950,7128
12681,7128,7129,6952
12682,6726,6727,7130
12683,7130,7129,6726
12684,6950,6952,6514
12685,6514,6513,6950
12686,6321,6322,6727
12687,6727,6726,6321
12688,5285,5465,5466
12689,5466,5286,5285
12690,5911,5910,5709
12691,5709,5710,5911
12692,5909,5708,5709
12693,5709,5910,5909
12694,5710,5709,5095
12695,5095,5096,5710
12696,5465,5285,5284
12697,5284,5464,5465
12698,5907,5706,5707
12699,5707,5908,5907
12700,5708,5909,5908
12701,5908,5707,5708
12702,5490,5310,5309
12703,5309,5489,5490
12704,5118,5119,5733
12705,5733,5732,5118
12706,5935,5934,5733
12707,5733,5734,5935
12708,5933,5732,5733
12709,5733,5934,5933
12710,5734,5733,5119
12711,5119,5120,5734
12712,5489,5309,5308
12713,5308,5488,5489
12714,5732,5731,5117
12715,5117,5118,5732
12716,5931,5730,5731
12717,5731,5932,5931
12718,5933,5932,5731
12719,5731,5732,5933
12720,6996,6998,6537
12721,6537,6536,6996
12722,6748,6747,6342
12723,6342,6343,6748
12724,5927,5928,6343
12725,6343,6342,5927
12726,5929,6344,6343
12727,6343,5928,5929
12728,7000,6998,7152
12729,7152,7153,7000
12730,7154,7153,6750
12731,6750,6751,7154
12732,6537,6998,7000
12733,7000,6538,6537
12734,6345,6346,6751
12735,6751,6750,6345
12736,5485,5305,5304
12737,5304,5484,5485
12738,5927,5726,5727
12739,5727,5928,5927
12740,5929,5928,5727
12741,5727,5728,5929
12742,5306,5305,5485
12743,5485,5486,5306
12744,5114,5115,5729
12745,5729,5728,5114
12746,5931,5930,5729
12747,5729,5730,5931
12748,5730,5729,5115
12749,5115,5116,5730
12750,5929,5728,5729
12751,5729,5930,5929
12752,6541,7006,7008
12753,7008,6542,6541
12754,6754,6349,6350
12755,6350,6755,6754
12756,5935,6350,6349
12757,6349,5934,5935
12758,5933,5934,6349
12759,6349,6348,5933
12760,7006,7004,7155
12761,7155,7156,7006
12762,6752,7155,7154
12763,7154,6751,6752
12764,7004,7006,6541
12765,6541,6540,7004
12766,6346,6347,6752
12767,6752,6751,6346
12768,5493,5313,5312
12769,5312,5492,5493
12770,5736,5735,5121
12771,5121,5122,5736
12772,5735,5936,5935
12773,5935,5734,5735
12774,5936,5735,5736
12775,5736,5937,5936
12776,5494,5314,5313
12777,5313,5493,5494
12778,5939,5938,5737
12779,5737,5738,5939
12780,5937,5736,5737
12781,5737,5938,5937
12782,5737,5123,5124
12783,5124,5738,5737
12784,7164,7030,7029
12785,7029,7163,7164
12786,7163,7162,6759
12787,6759,6760,7163
12788,6549,7030,7031
12789,7031,6550,6549
12790,6763,6762,6357
12791,6357,6358,6763
12792,5943,6358,6357
12793,6357,5942,5943
12794,5941,5942,6357
12795,6357,6356,5941
12796,6548,7029,7030
12797,7030,6549,6548
12798,6355,6760,6759
12799,6759,6354,6355
12800,7012,7014,6545
12801,6545,6544,7012
12802,6756,6755,6350
12803,6350,6351,6756
12804,6351,6350,5935
12805,5935,5936,6351
12806,5936,5937,6352
12807,6352,6351,5936
12808,7027,7014,7160
12809,7160,7161,7027
12810,6758,6759,7162
12811,7162,7161,6758
12812,7014,7027,6546
12813,6546,6545,7014
12814,6353,6354,6759
12815,6759,6758,6353
12816,5318,5317,5497
12817,5497,5498,5318
12818,5943,5942,5741
12819,5741,5742,5943
12820,5941,5740,5741
12821,5741,5942,5941
12822,5742,5741,5127
12823,5127,5128,5742
12824,5316,5496,5497
12825,5497,5317,5316
12826,5939,5738,5739
12827,5739,5940,5939
12828,5941,5940,5739
12829,5739,5740,5941
12830,5522,5342,5341
12831,5341,5521,5522
12832,5765,5764,5150
12833,5150,5151,5765
12834,5967,5966,5765
12835,5765,5766,5967
12836,5965,5764,5765
12837,5765,5966,5965
12838,5766,5765,5151
12839,5151,5152,5766
12840,5521,5341,5340
12841,5340,5520,5521
12842,5149,5150,5764
12843,5764,5763,5149
12844,5963,5762,5763
12845,5763,5964,5963
12846,5965,5964,5763
12847,5763,5764,5965
12848,7049,7050,6569
12849,6569,6568,7049
12850,6374,6375,6780
12851,6780,6779,6374
12852,5959,5960,6375
12853,6375,6374,5959
12854,5961,6376,6375
12855,6375,5960,5961
12856,7051,7050,7184
12857,7184,7185,7051
12858,7186,7185,6782
12859,6782,6783,7186
12860,6569,7050,7051
12861,7051,6570,6569
12862,6377,6378,6783
12863,6783,6782,6377
12864,5517,5337,5336
12865,5336,5516,5517
12866,5959,5758,5759
12867,5759,5960,5959
12868,5961,5960,5759
12869,5759,5760,5961
12870,5338,5337,5517
12871,5517,5518,5338
12872,5147,5761,5760
12873,5760,5146,5147
12874,5761,5762,5963
12875,5963,5962,5761
12876,5761,5147,5148
12877,5148,5762,5761
12878,5962,5961,5760
12879,5760,5761,5962
12880,6573,7054,7055
12881,7055,6574,6573
12882,6787,6786,6381
12883,6381,6382,6787
12884,5967,6382,6381
12885,6381,5966,5967
12886,5965,5966,6381
12887,6381,6380,5965
12888,7187,7188,7054
12889,7054,7053,7187
12890,6784,7187,7186
12891,7186,6783,6784
12892,6573,6572,7053
12893,7053,7054,6573
12894,6378,6379,6784
12895,6784,6783,6378
12896,5524,5525,5345
12897,5345,5344,5524
12898,5768,5767,5153
12899,5153,5154,5768
12900,5967,5766,5767
12901,5767,5968,5967
12902,5969,5968,5767
12903,5767,5768,5969
12904,5525,5526,5346
12905,5346,5345,5525
12906,5769,5770,5971
12907,5971,5970,5769
12908,5970,5969,5768
12909,5768,5769,5970
12910,5770,5769,5155
12911,5155,5156,5770
12912,7196,7062,7061
12913,7061,7195,7196
12914,7195,7194,6791
12915,6791,6792,7195
12916,6582,6581,7062
12917,7062,7063,6582
12918,6389,6390,6795
12919,6795,6794,6389
12920,6389,5974,5975
12921,5975,6390,6389
12922,5974,6389,6388
12923,6388,5973,5974
12924,7061,7062,6581
12925,6581,6580,7061
12926,6387,6792,6791
12927,6791,6386,6387
12928,6576,7057,7058
12929,7058,6577,6576
12930,6788,6787,6382
12931,6382,6383,6788
12932,5967,5968,6383
12933,6383,6382,5967
12934,5969,6384,6383
12935,6383,5968,5969
12936,7059,7058,7192
12937,7192,7193,7059
12938,6790,6791,7194
12939,7194,7193,6790
12940,7059,6578,6577
12941,6577,7058,7059
12942,6790,6385,6386
12943,6386,6791,6790
12944,5350,5349,5529
12945,5529,5530,5350
12946,5975,5974,5773
12947,5773,5774,5975
12948,5973,5772,5773
12949,5773,5974,5973
12950,5774,5773,5159
12951,5159,5160,5774
12952,5528,5529,5349
12953,5349,5348,5528
12954,5971,5770,5771
12955,5771,5972,5971
12956,5973,5972,5771
12957,5771,5772,5973
12958,5553,5554,5374
12959,5374,5373,5553
12960,5796,5182,5183
12961,5183,5797,5796
12962,5999,5998,5797
12963,5797,5798,5999
12964,5796,5797,5998
12965,5998,5997,5796
12966,5798,5797,5183
12967,5183,5184,5798
12968,5373,5372,5552
12969,5552,5553,5373
12970,5182,5796,5795
12971,5795,5181,5182
12972,5995,5794,5795
12973,5795,5996,5995
12974,5997,5996,5795
12975,5795,5796,5997
12976,6991,6601,6600
12977,6600,6993,6991
12978,6812,6811,6406
12979,6406,6407,6812
12980,5991,5992,6407
12981,6407,6406,5991
12982,5993,6408,6407
12983,6407,5992,5993
12984,6991,7216,7217
12985,7217,6989,6991
12986,7218,7217,6814
12987,6814,6815,7218
12988,6989,6602,6601
12989,6601,6991,6989
12990,6409,6410,6815
12991,6815,6814,6409
12992,5549,5369,5368
12993,5368,5548,5549
12994,5991,5790,5791
12995,5791,5992,5991
12996,5993,5992,5791
12997,5791,5792,5993
12998,5370,5369,5549
12999,5549,5550,5370
13000,5178,5179,5793
13001,5793,5792,5178
13002,5995,5994,5793
13003,5793,5794,5995
13004,5794,5793,5179
13005,5179,5180,5794
13006,5993,5792,5793
13007,5793,5994,5993
13008,6981,6606,6605
13009,6605,6983,6981
13010,6819,6818,6413
13011,6413,6414,6819
13012,5999,6414,6413
13013,6413,5998,5999
13014,6412,5997,5998
13015,5998,6413,6412
13016,6985,7219,7220
13017,7220,6983,6985
13018,6816,7219,7218
13019,7218,6815,6816
13020,6983,6605,6604
13021,6604,6985,6983
13022,6410,6411,6816
13023,6816,6815,6410
13024,5557,5377,5376
13025,5376,5556,5557
13026,5800,5799,5185
13027,5185,5186,5800
13028,5999,5798,5799
13029,5799,6000,5999
13030,6001,6000,5799
13031,5799,5800,6001
13032,5557,5558,5378
13033,5378,5377,5557
13034,6003,6002,5801
13035,5801,5802,6003
13036,6001,5800,5801
13037,5801,6002,6001
13038,5802,5801,5187
13039,5187,5188,5802
13040,6969,7227,7228
13041,7228,6967,6969
13042,7226,6823,6824
13043,6824,7227,7226
13044,6965,6614,6613
13045,6613,6967,6965
13046,6827,6826,6421
13047,6421,6422,6827
13048,6007,6422,6421
13049,6421,6006,6007
13050,6420,6005,6006
13051,6006,6421,6420
13052,6967,6613,6612
13053,6612,6969,6967
13054,6418,6419,6824
13055,6824,6823,6418
13056,6975,6609,6608
13057,6608,6977,6975
13058,6820,6819,6414
13059,6414,6415,6820
13060,5999,6000,6415
13061,6415,6414,5999
13062,6001,6416,6415
13063,6415,6000,6001
13064,6975,7224,7225
13065,7225,6973,6975
13066,6822,6823,7226
13067,7226,7225,6822
13068,6973,6610,6609
13069,6609,6975,6973
13070,6417,6418,6823
13071,6823,6822,6417
13072,5561,5562,5382
13073,5382,5381,5561
13074,6007,6006,5805
13075,5805,5806,6007
13076,5804,5805,6006
13077,6006,6005,5804
13078,5806,5805,5191
13079,5191,5192,5806
13080,5381,5380,5560
13081,5560,5561,5381
13082,6003,5802,5803
13083,5803,6004,6003
13084,6005,6004,5803
13085,5803,5804,6005
13086,5625,5406,5405
13087,5405,5627,5625
13088,5828,5214,5215
13089,5215,5829,5828
13090,6031,6030,5829
13091,5829,5830,6031
13092,5828,5829,6030
13093,6030,6029,5828
13094,5830,5829,5215
13095,5215,5216,5830
13096,5627,5405,5404
13097,5404,5629,5627
13098,5214,5828,5827
13099,5827,5213,5214
13100,6027,5826,5827
13101,5827,6028,6027
13102,6029,6028,5827
13103,5827,5828,6029
13104,6927,6633,6632
13105,6632,6929,6927
13106,6844,6843,6438
13107,6438,6439,6844
13108,6023,6024,6439
13109,6439,6438,6023
13110,6440,6439,6024
13111,6024,6025,6440
13112,6927,7248,7249
13113,7249,6925,6927
13114,7250,7249,6846
13115,6846,6847,7250
13116,6925,6634,6633
13117,6633,6927,6925
13118,6441,6442,6847
13119,6847,6846,6441
13120,5636,5401,5400
13121,5400,5638,5636
13122,6023,5822,5823
13123,5823,6024,6023
13124,6025,6024,5823
13125,5823,5824,6025
13126,5634,5402,5401
13127,5401,5636,5634
13128,5825,5824,5210
13129,5210,5211,5825
13130,6027,6026,5825
13131,5825,5826,6027
13132,5826,5825,5211
13133,5211,5212,5826
13134,6025,5824,5825
13135,5825,6026,6025
13136,6917,6638,6637
13137,6637,6919,6917
13138,6851,6850,6445
13139,6445,6446,6851
13140,6031,6446,6445
13141,6445,6030,6031
13142,6029,6030,6445
13143,6445,6444,6029
13144,6921,7251,7252
13145,7252,6919,6921
13146,6848,7251,7250
13147,7250,6847,6848
13148,6919,6637,6636
13149,6636,6921,6919
13150,6442,6443,6848
13151,6848,6847,6442
13152,5619,5409,5408
13153,5408,5621,5619
13154,5832,5831,5217
13155,5217,5218,5832
13156,6031,5830,5831
13157,5831,6032,6031
13158,6033,6032,5831
13159,5831,5832,6033
13160,5617,5410,5409
13161,5409,5619,5617
13162,6035,6034,5833
13163,5833,5834,6035
13164,6033,5832,5833
13165,5833,6034,6033
13166,5834,5833,5219
13167,5219,5220,5834
13168,6905,7259,7260
13169,7260,6903,6905
13170,7258,6855,6856
13171,6856,7259,7258
13172,6901,6646,6645
13173,6645,6903,6901
13174,6859,6858,6453
13175,6453,6454,6859
13176,6039,6454,6453
13177,6453,6038,6039
13178,6037,6038,6453
13179,6453,6452,6037
13180,6903,6645,6644
13181,6644,6905,6903
13182,6450,6451,6856
13183,6856,6855,6450
13184,6911,6641,6640
13185,6640,6913,6911
13186,6852,6851,6446
13187,6446,6447,6852
13188,6031,6032,6447
13189,6447,6446,6031
13190,6033,6448,6447
13191,6447,6032,6033
13192,6911,7256,7257
13193,7257,6909,6911
13194,6854,6855,7258
13195,7258,7257,6854
13196,6909,6642,6641
13197,6641,6911,6909
13198,6449,6450,6855
13199,6855,6854,6449
13200,5609,5414,5413
13201,5413,5611,5609
13202,6039,6038,5837
13203,5837,5838,6039
13204,5836,5837,6038
13205,6038,6037,5836
13206,5838,5837,5223
13207,5223,5224,5838
13208,5611,5413,5412
13209,5412,5613,5611
13210,6035,5834,5835
13211,5835,6036,6035
13212,6037,6036,5835
13213,5835,5836,6037
13214,5624,5626,5265
13215,5265,5264,5624
13216,5074,5688,5687
13217,5687,5073,5074
13218,5887,5686,5687
13219,5687,5888,5887
13220,5889,5888,5687
13221,5687,5688,5889
13222,5687,5686,5072
13223,5072,5073,5687
13224,5626,5628,5266
13225,5266,5265,5626
13226,5688,5074,5075
13227,5075,5689,5688
13228,5891,5890,5689
13229,5689,5690,5891
13230,5688,5689,5890
13231,5890,5889,5688
13232,6926,6928,6502
13233,6502,6501,6926
13234,6714,6309,6310
13235,6310,6715,6714
13236,5895,6310,6309
13237,6309,5894,5895
13238,5893,5894,6309
13239,6309,6308,5893
13240,6926,6924,7115
13241,7115,7116,6926
13242,7114,6711,6712
13243,6712,7115,7114
13244,6924,6926,6501
13245,6501,6500,6924
13246,6306,6307,6712
13247,6712,6711,6306
13248,5635,5637,5270
13249,5270,5269,5635
13250,5895,5894,5693
13251,5693,5694,5895
13252,5893,5692,5693
13253,5693,5894,5893
13254,5633,5635,5269
13255,5269,5268,5633
13256,5692,5691,5077
13257,5077,5078,5692
13258,5891,5690,5691
13259,5691,5892,5891
13260,5691,5690,5076
13261,5076,5077,5691
13262,5692,5893,5892
13263,5892,5691,5692
13264,6916,6918,6497
13265,6497,6496,6916
13266,6708,6707,6302
13267,6302,6303,6708
13268,5887,5888,6303
13269,6303,6302,5887
13270,5889,6304,6303
13271,6303,5888,5889
13272,6920,6918,7112
13273,7112,7113,6920
13274,6710,6711,7114
13275,7114,7113,6710
13276,6918,6920,6498
13277,6498,6497,6918
13278,6305,6306,6711
13279,6711,6710,6305
13280,5618,5620,5262
13281,5262,5261,5618
13282,5685,5684,5070
13283,5070,5071,5685
13284,5887,5886,5685
13285,5685,5686,5887
13286,5885,5684,5685
13287,5685,5886,5885
13288,5616,5618,5261
13289,5261,5260,5616
13290,5883,5682,5683
13291,5683,5884,5883
13292,5684,5885,5884
13293,5884,5683,5684
13294,6900,6902,6489
13295,6489,6488,6900
13296,6700,6699,6294
13297,6294,6295,6700
13298,5879,5880,6295
13299,6295,6294,5879
13300,5881,6296,6295
13301,6295,5880,5881
13302,6904,6902,7104
13303,7104,7105,6904
13304,7106,7105,6702
13305,6702,6703,7106
13306,6902,6904,6490
13307,6490,6489,6902
13308,6297,6298,6703
13309,6703,6702,6297
13310,5608,5610,5257
13311,5257,5256,5608
13312,5680,5679,5065
13313,5065,5066,5680
13314,5879,5678,5679
13315,5679,5880,5879
13316,5679,5678,5064
13317,5064,5065,5679
13318,5881,5880,5679
13319,5679,5680,5881
13320,5610,5612,5258
13321,5258,5257,5610
13322,5681,5680,5066
13323,5066,5067,5681
13324,5883,5882,5681
13325,5681,5682,5883
13326,5881,5680,5681
13327,5681,5882,5881
13328,6910,6912,6494
13329,6494,6493,6910
13330,6706,6301,6302
13331,6302,6707,6706
13332,5887,6302,6301
13333,6301,5886,5887
13334,5885,5886,6301
13335,6301,6300,5885
13336,6910,6908,7107
13337,7107,7108,6910
13338,6704,7107,7106
13339,7106,6703,6704
13340,6908,6910,6493
13341,6493,6492,6908
13342,6298,6299,6704
13343,6704,6703,6298
13344,5477,5297,5296
13345,5296,5476,5477
13346,5720,5719,5105
13347,5105,5106,5720
13348,5919,5718,5719
13349,5719,5920,5919
13350,5720,5921,5920
13351,5920,5719,5720
13352,5719,5718,5104
13353,5104,5105,5719
13354,5298,5297,5477
13355,5477,5478,5298
13356,5106,5107,5721
13357,5721,5720,5106
13358,5923,5922,5721
13359,5721,5722,5923
13360,5921,5720,5721
13361,5721,5922,5921
13362,6990,6992,6534
13363,6534,6533,6990
13364,6746,6341,6342
13365,6342,6747,6746
13366,5927,6342,6341
13367,6341,5926,5927
13368,5925,5926,6341
13369,6341,6340,5925
13370,6990,6988,7147
13371,7147,7148,6990
13372,7146,6743,6744
13373,6744,7147,7146
13374,6988,6990,6533
13375,6533,6532,6988
13376,6338,6339,6744
13377,6744,6743,6338
13378,5301,5481,5482
13379,5482,5302,5301
13380,5927,5926,5725
13381,5725,5726,5927
13382,5925,5724,5725
13383,5725,5926,5925
13384,5481,5301,5300
13385,5300,5480,5481
13386,5724,5723,5109
13387,5109,5110,5724
13388,5923,5722,5723
13389,5723,5924,5923
13390,5723,5722,5108
13391,5108,5109,5723
13392,5724,5925,5924
13393,5924,5723,5724
13394,6980,6982,6529
13395,6529,6528,6980
13396,6740,6739,6334
13397,6334,6335,6740
13398,5919,5920,6335
13399,6335,6334,5919
13400,6336,6335,5920
13401,5920,5921,6336
13402,6984,6982,7144
13403,7144,7145,6984
13404,6742,6743,7146
13405,7146,7145,6742
13406,6982,6984,6530
13407,6530,6529,6982
13408,6337,6338,6743
13409,6743,6742,6337
13410,5293,5473,5474
13411,5474,5294,5293
13412,5717,5716,5102
13413,5102,5103,5717
13414,5919,5918,5717
13415,5717,5718,5919
13416,5716,5717,5918
13417,5918,5917,5716
13418,5473,5293,5292
13419,5292,5472,5473
13420,5915,5714,5715
13421,5715,5916,5915
13422,5917,5916,5715
13423,5715,5716,5917
13424,6964,6966,6521
13425,6521,6520,6964
13426,6732,6731,6326
13427,6326,6327,6732
13428,5911,5912,6327
13429,6327,6326,5911
13430,5913,6328,6327
13431,6327,5912,5913
13432,6968,6966,7136
13433,7136,7137,6968
13434,7138,7137,6734
13435,6734,6735,7138
13436,6966,6968,6522
13437,6522,6521,6966
13438,6329,6330,6735
13439,6735,6734,6329
13440,5469,5289,5288
13441,5288,5468,5469
13442,5712,5711,5097
13443,5097,5098,5712
13444,5911,5710,5711
13445,5711,5912,5911
13446,5711,5710,5096
13447,5096,5097,5711
13448,5913,5912,5711
13449,5711,5712,5913
13450,5289,5469,5470
13451,5470,5290,5289
13452,5713,5712,5098
13453,5098,5099,5713
13454,5915,5914,5713
13455,5713,5714,5915
13456,5913,5712,5713
13457,5713,5914,5913
13458,6974,6976,6526
13459,6526,6525,6974
13460,6738,6333,6334
13461,6334,6739,6738
13462,5919,6334,6333
13463,6333,5918,5919
13464,6332,5917,5918
13465,5918,6333,6332
13466,6974,6972,7139
13467,7139,7140,6974
13468,6736,7139,7138
13469,7138,6735,6736
13470,6972,6974,6525
13471,6525,6524,6972
13472,6330,6331,6736
13473,6736,6735,6330
13474,5509,5329,5328
13475,5328,5508,5509
13476,5137,5138,5752
13477,5752,5751,5137
13478,5751,5952,5951
13479,5951,5750,5751
13480,5952,5751,5752
13481,5752,5953,5952
13482,5751,5750,5136
13483,5136,5137,5751
13484,5510,5330,5329
13485,5329,5509,5510
13486,5753,5752,5138
13487,5138,5139,5753
13488,5955,5954,5753
13489,5753,5754,5955
13490,5953,5752,5753
13491,5753,5954,5953
13492,6565,7046,7047
13493,7047,6566,6565
13494,6779,6778,6373
13495,6373,6374,6779
13496,6374,6373,5958
13497,5958,5959,6374
13498,5957,5958,6373
13499,6373,6372,5957
13500,7045,7179,7180
13501,7180,7046,7045
13502,7179,7178,6775
13503,6775,6776,7179
13504,7045,7046,6565
13505,6565,6564,7045
13506,6370,6371,6776
13507,6776,6775,6370
13508,5334,5333,5513
13509,5513,5514,5334
13510,5758,5959,5958
13511,5958,5757,5758
13512,5957,5756,5757
13513,5757,5958,5957
13514,5332,5512,5513
13515,5513,5333,5332
13516,5756,5755,5141
13517,5141,5142,5756
13518,5955,5754,5755
13519,5755,5956,5955
13520,5755,5754,5140
13521,5140,5141,5755
13522,5957,5956,5755
13523,5755,5756,5957
13524,7041,7042,6561
13525,6561,6560,7041
13526,6367,6772,6771
13527,6771,6366,6367
13528,6367,6366,5951
13529,5951,5952,6367
13530,5952,5953,6368
13531,6368,6367,5952
13532,7043,7042,7176
13533,7176,7177,7043
13534,6774,6775,7178
13535,7178,7177,6774
13536,7043,6562,6561
13537,6561,7042,7043
13538,6369,6370,6775
13539,6775,6774,6369
13540,5326,5325,5505
13541,5505,5506,5326
13542,5749,5748,5134
13543,5134,5135,5749
13544,5749,5750,5951
13545,5951,5950,5749
13546,5950,5949,5748
13547,5748,5749,5950
13548,5324,5504,5505
13549,5505,5325,5324
13550,5747,5948,5947
13551,5947,5746,5747
13552,5948,5747,5748
13553,5748,5949,5948
13554,6552,7033,7034
13555,7034,6553,6552
13556,6359,6764,6763
13557,6763,6358,6359
13558,6359,6358,5943
13559,5943,5944,6359
13560,5944,5945,6360
13561,6360,6359,5944
13562,7035,7034,7168
13563,7168,7169,7035
13564,6766,6767,7170
13565,7170,7169,6766
13566,7035,6554,6553
13567,6553,7034,7035
13568,6766,6361,6362
13569,6362,6767,6766
13570,5320,5500,5501
13571,5501,5321,5320
13572,5744,5743,5129
13573,5129,5130,5744
13574,5943,5742,5743
13575,5743,5944,5943
13576,5743,5742,5128
13577,5128,5129,5743
13578,5945,5944,5743
13579,5743,5744,5945
13580,5502,5322,5321
13581,5321,5501,5502
13582,5745,5744,5130
13583,5130,5131,5745
13584,5947,5946,5745
13585,5745,5746,5947
13586,5945,5744,5745
13587,5745,5946,5945
13588,7039,6558,6557
13589,6557,7038,7039
13590,6770,6365,6366
13591,6366,6771,6770
13592,5951,6366,6365
13593,6365,5950,5951
13594,5949,5950,6365
13595,6365,6364,5949
13596,7172,7038,7037
13597,7037,7171,7172
13598,6768,7171,7170
13599,7170,6767,6768
13600,6557,6556,7037
13601,7037,7038,6557
13602,6362,6363,6768
13603,6768,6767,6362
13604,5361,5360,5540
13605,5540,5541,5361
13606,5783,5169,5170
13607,5170,5784,5783
13608,5983,5782,5783
13609,5783,5984,5983
13610,5985,5984,5783
13611,5783,5784,5985
13612,5169,5783,5782
13613,5782,5168,5169
13614,5541,5542,5362
13615,5362,5361,5541
13616,5785,5784,5170
13617,5170,5171,5785
13618,5987,5986,5785
13619,5785,5786,5987
13620,5784,5785,5986
13621,5986,5985,5784
13622,6997,6598,6597
13623,6597,6999,6997
13624,6810,6405,6406
13625,6406,6811,6810
13626,5991,6406,6405
13627,6405,5990,5991
13628,6404,5989,5990
13629,5990,6405,6404
13630,7001,7211,7212
13631,7212,6999,7001
13632,7210,6807,6808
13633,6808,7211,7210
13634,6999,6597,6596
13635,6596,7001,6999
13636,6402,6403,6808
13637,6808,6807,6402
13638,5366,5365,5545
13639,5545,5546,5366
13640,5991,5990,5789
13641,5789,5790,5991
13642,5989,5788,5789
13643,5789,5990,5989
13644,5364,5544,5545
13645,5545,5365,5364
13646,5788,5787,5173
13647,5173,5174,5788
13648,5987,5786,5787
13649,5787,5988,5987
13650,5787,5786,5172
13651,5172,5173,5787
13652,5989,5988,5787
13653,5787,5788,5989
13654,6593,6592,7009
13655,7009,7007,6593
13656,6804,6803,6398
13657,6398,6399,6804
13658,6399,6398,5983
13659,5983,5984,6399
13660,5985,6400,6399
13661,6399,5984,5985
13662,7007,7208,7209
13663,7209,7005,7007
13664,6806,6807,7210
13665,7210,7209,6806
13666,7005,6594,6593
13667,6593,7007,7005
13668,6401,6402,6807
13669,6807,6806,6401
13670,5358,5357,5537
13671,5537,5538,5358
13672,5781,5780,5166
13673,5166,5167,5781
13674,5781,5782,5983
13675,5983,5982,5781
13676,5982,5981,5780
13677,5780,5781,5982
13678,5356,5536,5537
13679,5537,5357,5356
13680,5980,5979,5778
13681,5778,5779,5980
13682,5779,5780,5981
13683,5981,5980,5779
13684,7065,7066,6585
13685,6585,6584,7065
13686,6391,6796,6795
13687,6795,6390,6391
13688,5975,5976,6391
13689,6391,6390,5975
13690,5977,6392,6391
13691,6391,5976,5977
13692,7067,7066,7200
13693,7200,7201,7067
13694,7202,7201,6798
13695,6798,6799,7202
13696,7067,6586,6585
13697,6585,7066,7067
13698,6393,6394,6799
13699,6799,6798,6393
13700,5532,5533,5353
13701,5353,5352,5532
13702,5161,5162,5776
13703,5776,5775,5161
13704,5975,5774,5775
13705,5775,5976,5975
13706,5775,5774,5160
13707,5160,5161,5775
13708,5977,5976,5775
13709,5775,5776,5977
13710,5354,5353,5533
13711,5533,5534,5354
13712,5163,5777,5776
13713,5776,5162,5163
13714,5777,5778,5979
13715,5979,5978,5777
13716,5978,5977,5776
13717,5776,5777,5978
13718,7013,6590,6589
13719,6589,7015,7013
13720,6802,6397,6398
13721,6398,6803,6802
13722,5983,6398,6397
13723,6397,5982,5983
13724,5981,5982,6397
13725,6397,6396,5981
13726,7069,7203,7204
13727,7204,7015,7069
13728,6800,7203,7202
13729,7202,6799,6800
13730,7015,6589,6588
13731,6588,7069,7015
13732,6394,6395,6800
13733,6800,6799,6394
13734,5393,5392,5655
13735,5655,5653,5393
13736,5202,5816,5815
13737,5815,5201,5202
13738,6015,5814,5815
13739,5815,6016,6015
13740,6017,6016,5815
13741,5815,5816,6017
13742,5815,5814,5200
13743,5200,5201,5815
13744,5651,5394,5393
13745,5393,5653,5651
13746,5816,5202,5203
13747,5203,5817,5816
13748,6019,6018,5817
13749,5817,5818,6019
13750,6017,5816,5817
13751,5817,6018,6017
13752,6933,6630,6629
13753,6629,6935,6933
13754,6842,6437,6438
13755,6438,6843,6842
13756,6023,6438,6437
13757,6437,6022,6023
13758,6021,6022,6437
13759,6437,6436,6021
13760,6937,7243,7244
13761,7244,6935,6937
13762,7242,6839,6840
13763,6840,7243,7242
13764,6935,6629,6628
13765,6628,6937,6935
13766,6434,6435,6840
13767,6840,6839,6434
13768,5643,5398,5397
13769,5397,5645,5643
13770,6023,6022,5821
13771,5821,5822,6023
13772,5820,5821,6022
13773,6022,6021,5820
13774,5645,5397,5396
13775,5396,5647,5645
13776,5206,5820,5819
13777,5819,5205,5206
13778,6019,5818,5819
13779,5819,6020,6019
13780,5819,5818,5204
13781,5204,5205,5819
13782,6021,6020,5819
13783,5819,5820,6021
13784,6943,6625,6624
13785,6624,6945,6943
13786,6836,6835,6430
13787,6430,6431,6836
13788,6015,6016,6431
13789,6431,6430,6015
13790,6432,6431,6016
13791,6016,6017,6432
13792,6943,7240,7241
13793,7241,6941,6943
13794,6838,6839,7242
13795,7242,7241,6838
13796,6941,6626,6625
13797,6625,6943,6941
13798,6433,6434,6839
13799,6839,6838,6433
13800,5389,5569,5570
13801,5570,5390,5389
13802,5813,5812,5198
13803,5198,5199,5813
13804,6015,6014,5813
13805,5813,5814,6015
13806,5812,5813,6014
13807,6014,6013,5812
13808,5569,5389,5388
13809,5388,5568,5569
13810,6011,5810,5811
13811,5811,6012,6011
13812,6013,6012,5811
13813,5811,5812,6013
13814,6959,6617,6616
13815,6616,6961,6959
13816,6828,6827,6422
13817,6422,6423,6828
13818,6007,6008,6423
13819,6423,6422,6007
13820,6009,6424,6423
13821,6423,6008,6009
13822,6959,7232,7233
13823,7233,6957,6959
13824,7234,7233,6830
13825,6830,6831,7234
13826,6957,6618,6617
13827,6617,6959,6957
13828,6425,6426,6831
13829,6831,6830,6425
13830,5385,5384,5564
13831,5564,5565,5385
13832,5808,5807,5193
13833,5193,5194,5808
13834,6007,5806,5807
13835,5807,6008,6007
13836,5807,5806,5192
13837,5192,5193,5807
13838,6009,6008,5807
13839,5807,5808,6009
13840,5565,5566,5386
13841,5386,5385,5565
13842,5809,5808,5194
13843,5194,5195,5809
13844,6011,6010,5809
13845,5809,5810,6011
13846,5808,5809,6010
13847,6010,6009,5808
13848,6949,6622,6621
13849,6621,6951,6949
13850,6834,6429,6430
13851,6430,6835,6834
13852,6015,6430,6429
13853,6429,6014,6015
13854,6013,6014,6429
13855,6429,6428,6013
13856,6953,7235,7236
13857,7236,6951,6953
13858,6832,7235,7234
13859,7234,6831,6832
13860,6951,6621,6620
13861,6620,6953,6951
13862,6426,6427,6832
13863,6832,6831,6426
13864,5441,5588,5586
13865,5586,5439,5441
13866,5848,5847,5233
13867,5233,5234,5848
13868,6047,5846,5847
13869,5847,6048,6047
13870,5848,6049,6048
13871,6048,5847,5848
13872,5847,5846,5232
13873,5232,5233,5847
13874,5439,5586,5584
13875,5584,5435,5439
13876,5234,5042,5639
13877,5639,5848,5234
13878,5639,5457,6051
13879,6051,6050,5639
13880,5848,5639,6050
13881,6050,6049,5848
13882,6666,7075,7076
13883,7076,6664,6666
13884,6874,6469,6470
13885,6470,6875,6874
13886,6055,6470,6469
13887,6469,6054,6055
13888,6053,6054,6469
13889,6469,6468,6053
13890,7276,7075,7074
13891,7074,7275,7276
13892,7274,6871,6872
13893,6872,7275,7274
13894,6668,7074,7075
13895,7075,6666,6668
13896,6466,6467,6872
13897,6872,6871,6466
13898,6676,7070,7071
13899,7071,6674,6676
13900,6868,6867,6462
13901,6462,6463,6868
13902,6047,6048,6463
13903,6463,6462,6047
13904,6049,6464,6463
13905,6463,6048,6049
13906,7272,7273,7072
13907,7072,7071,7272
13908,6870,6871,7274
13909,7274,7273,6870
13910,6674,7071,7072
13911,7072,6672,6674
13912,6465,6466,6871
13913,6871,6870,6465
13914,5593,5422,5421
13915,5421,5595,5593
13916,6047,6046,5845
13917,5845,5846,6047
13918,5846,5845,5231
13919,5231,5232,5846
13920,6045,5844,5845
13921,5845,6046,6045
13922,5595,5421,5420
13923,5420,5597,5595
13924,5844,5843,5229
13925,5229,5230,5844
13926,6043,5842,5843
13927,5843,6044,6043
13928,5843,5842,5228
13929,5228,5229,5843
13930,6045,6044,5843
13931,5843,5844,6045
13932,6895,6649,6648
13933,6648,6897,6895
13934,6860,6859,6454
13935,6454,6455,6860
13936,6039,6040,6455
13937,6455,6454,6039
13938,6041,6456,6455
13939,6455,6040,6041
13940,6895,7264,7265
13941,7265,6893,6895
13942,7266,7265,6862
13943,6862,6863,7266
13944,6893,6650,6649
13945,6649,6895,6893
13946,6863,6862,6457
13947,6457,6458,6863
13948,5603,5417,5416
13949,5416,5605,5603
13950,5226,5840,5839
13951,5839,5225,5226
13952,6039,5838,5839
13953,5839,6040,6039
13954,6041,6040,5839
13955,5839,5840,6041
13956,5601,5418,5417
13957,5417,5603,5601
13958,6043,6042,5841
13959,5841,5842,6043
13960,5842,5841,5227
13961,5227,5228,5842
13962,6041,5840,5841
13963,5841,6042,6041
13964,6885,6654,6653
13965,6653,6887,6885
13966,6866,6461,6462
13967,6462,6867,6866
13968,6047,6462,6461
13969,6461,6046,6047
13970,6045,6046,6461
13971,6461,6460,6045
13972,6889,7267,7268
13973,7268,6887,6889
13974,6864,7267,7266
13975,7266,6863,6864
13976,6887,6653,6652
13977,6652,6889,6887
13978,6458,6459,6864
13979,6864,6863,6458
13980,7278,6875,6876
13981,6876,7279,7278
13982,7081,7279,7280
13983,7280,6880,7081
13984,6682,6683,7086
13985,7086,7085,6682
13986,7017,7084,7085
13987,7085,7018,7017
13988,6876,6875,6470
13989,6470,6471,6876
13990,6055,6056,6471
13991,6471,6470,6055
13992,6880,6658,6660
13993,6660,7081,6880
13994,6057,6472,6471
13995,6471,6056,6057
13996,6880,7280,7281
13997,7281,6879,6880
13998,7281,6878,6679
13999,6679,7282,7281
14000,6658,6880,6879
14001,6879,6656,6658
14002,6679,6878,6473
14003,6473,6274,6679
14004,7080,7284,7282
14005,7282,6679,7080
14006,6477,7080,6679
14007,6679,6274,6477
14008,6274,6271,6477
14009,6683,6682,6277
14010,6277,6278,6683
14011,5863,6278,6277
14012,6277,5862,5863
14013,6659,6657,7017
14014,7017,7018,6659
14015,5861,5862,6277
14016,6277,6276,5861
14017,7084,7017,7078
14018,7078,7083,7084
14019,7083,7283,6881
14020,6881,6680,7083
14021,6657,6655,7078
14022,7078,7017,6657
14023,6680,6881,6275
14024,6275,6474,6680
14025,5863,5862,5661
14026,5661,5662,5863
14027,5662,5661,5047
14028,5047,5048,5662
14029,5427,5426,5574
14030,5574,5575,5427
14031,5861,5660,5661
14032,5661,5862,5861
14033,5573,5574,5426
14034,5426,5425,5573
14035,5859,6059,5658
14036,5658,5659,5859
14037,5859,5659,5660
14038,5660,5861,5859
14039,5659,5658,5044
14040,5044,5045,5659
14041,5657,5458,5246
14042,5246,5442,5657
14043,5445,5041,5043
14044,5445,5043,5849
14045,5849,5858,5445
14046,6059,6061,5849
14047,5849,5658,6059
14048,5044,5658,5849
14049,5849,5043,5044
14050,6061,6063,5858
14051,5858,5849,6061
14052,7296,7297,7295
14053,7295,7294,7296
14054,7319,7321,7296
14055,7296,7294,7319
14056,7319,7320,7322
14057,7322,7321,7319
14058,7323,7298,7296
14059,7296,7321,7323
14060,7323,7321,7322
14061,7322,7324,7323
14062,7300,7302,7303
14063,7303,7301,7300
14064,7327,7302,7300
14065,7300,7325,7327
14066,7327,7325,7326
14067,7326,7328,7327
14068,7323,7325,7300
14069,7300,7298,7323
14070,7323,7324,7326
14071,7326,7325,7323
14072,7309,7285,7308
14073,7308,7310,7309
14074,7310,7335,7336
14075,7336,7309,7310
14076,7310,7308,7333
14077,7333,7335,7310
14078,7336,7335,7333
14079,7333,7334,7336
14080,7283,7285,7082
14081,7082,6881,7283
14082,7306,7331,7333
14083,7333,7308,7306
14084,7332,7334,7333
14085,7333,7331,7332
14086,7303,7302,7304
14087,7304,7305,7303
14088,7327,7329,7304
14089,7304,7302,7327
14090,7327,7328,7330
14091,7330,7329,7327
14092,7331,7306,7304
14093,7304,7329,7331
14094,7331,7329,7330
14095,7330,7332,7331
14096,6476,6272,6275
14097,6476,6275,6881
14098,6881,7082,6476
14099,7295,7293,7292
14100,7292,7294,7295
14101,7319,7294,7292
14102,7292,7317,7319
14103,7319,7317,7318
14104,7318,7320,7319
14105,7315,7317,7292
14106,7292,7290,7315
14107,7315,7316,7318
14108,7318,7317,7315
14109,7287,7286,7288
14110,7288,7289,7287
14111,7311,7313,7288
14112,7288,7286,7311
14113,7311,7286,7287
14114,7287,7312,7311
14115,7312,7314,7313
14116,7313,7311,7312
14117,7315,7290,7288
14118,7288,7313,7315
14119,7313,7314,7316
14120,7316,7315,7313
14121,5438,5440,4940
14122,4940,4843,5438
14123,4937,5429,5431
14124,5431,4841,4937
14125,4941,5248,5249
14126,5249,4845,4941
14127,4944,4847,5253
14128,5253,5254,4944
14129,4956,4859,5277
14130,5277,5278,4956
14131,4953,5272,5273
14132,5273,4857,4953
14133,4957,5280,5281
14134,5281,4861,4957
14135,4960,4863,5285
14136,5285,5286,4960
14137,4972,4875,5309
14138,5309,5310,4972
14139,4969,5304,5305
14140,5305,4873,4969
14141,4973,5312,5313
14142,5313,4877,4973
14143,4976,4879,5317
14144,5317,5318,4976
14145,4988,4891,5341
14146,5341,5342,4988
14147,4985,5336,5337
14148,5337,4889,4985
14149,4989,5344,5345
14150,5345,4893,4989
14151,4992,4895,5349
14152,5349,5350,4992
14153,5004,4907,5373
14154,5373,5374,5004
14155,5001,5368,5369
14156,5369,4905,5001
14157,5005,5376,5377
14158,5377,4909,5005
14159,5008,4911,5381
14160,5381,5382,5008
14161,5020,4923,5405
14162,5405,5406,5020
14163,5017,5400,5401
14164,5401,4921,5017
14165,5021,5408,5409
14166,5409,4925,5021
14167,5024,4927,5413
14168,5413,5414,5024
14169,4949,5264,5265
14170,5265,4853,4949
14171,4952,4855,5269
14172,5269,5270,4952
14173,4948,4851,5261
14174,5261,5262,4948
14175,4945,5256,5257
14176,5257,4849,4945
14177,4965,5296,5297
14178,5297,4869,4965
14179,4968,4871,5301
14180,5301,5302,4968
14181,4964,4867,5293
14182,5293,5294,4964
14183,4961,5288,5289
14184,5289,4865,4961
14185,4981,5328,5329
14186,5329,4885,4981
14187,4984,4887,5333
14188,5333,5334,4984
14189,4980,4883,5325
14190,5325,5326,4980
14191,4977,5320,5321
14192,5321,4881,4977
14193,4997,5360,5361
14194,5361,4901,4997
14195,5000,4903,5365
14196,5365,5366,5000
14197,4996,4899,5357
14198,5357,5358,4996
14199,4993,5352,5353
14200,5353,4897,4993
14201,5013,5392,5393
14202,5393,4917,5013
14203,5016,4919,5397
14204,5397,5398,5016
14205,5012,4915,5389
14206,5389,5390,5012
14207,5009,5384,5385
14208,5385,4913,5009
14209,5439,4933,5029
14210,5029,5441,5439
14211,5028,4931,5421
14212,5421,5422,5028
14213,5025,5416,5417
14214,5417,4929,5025
14215,4936,4839,5426
14216,5426,5427,4936
14217,5436,5438,4843
14218,4843,4939,5436
14219,5431,5432,4938
14220,4938,4841,5431
14221,4942,4845,5249
14222,5249,5250,4942
14223,4943,5252,5253
14224,5253,4847,4943
14225,4955,5276,5277
14226,5277,4859,4955
14227,4954,4857,5273
14228,5273,5274,4954
14229,4958,4861,5281
14230,5281,5282,4958
14231,4959,5284,5285
14232,5285,4863,4959
14233,4971,5308,5309
14234,5309,4875,4971
14235,4970,4873,5305
14236,5305,5306,4970
14237,4974,4877,5313
14238,5313,5314,4974
14239,4975,5316,5317
14240,5317,4879,4975
14241,4987,5340,5341
14242,5341,4891,4987
14243,4986,4889,5337
14244,5337,5338,4986
14245,4990,4893,5345
14246,5345,5346,4990
14247,4991,5348,5349
14248,5349,4895,4991
14249,5003,5372,5373
14250,5373,4907,5003
14251,5002,4905,5369
14252,5369,5370,5002
14253,5006,4909,5377
14254,5377,5378,5006
14255,5007,5380,5381
14256,5381,4911,5007
14257,5019,5404,5405
14258,5405,4923,5019
14259,5018,4921,5401
14260,5401,5402,5018
14261,5022,4925,5409
14262,5409,5410,5022
14263,5023,5412,5413
14264,5413,4927,5023
14265,4950,4853,5265
14266,5265,5266,4950
14267,4951,5268,5269
14268,5269,4855,4951
14269,4947,5260,5261
14270,5261,4851,4947
14271,4946,4849,5257
14272,5257,5258,4946
14273,4966,4869,5297
14274,5297,5298,4966
14275,4967,5300,5301
14276,5301,4871,4967
14277,4963,5292,5293
14278,5293,4867,4963
14279,4962,4865,5289
14280,5289,5290,4962
14281,4982,4885,5329
14282,5329,5330,4982
14283,4983,5332,5333
14284,5333,4887,4983
14285,4979,5324,5325
14286,5325,4883,4979
14287,4978,4881,5321
14288,5321,5322,4978
14289,4998,4901,5361
14290,5361,5362,4998
14291,4999,5364,5365
14292,5365,4903,4999
14293,4995,5356,5357
14294,5357,4899,4995
14295,4994,4897,5353
14296,5353,5354,4994
14297,5014,4917,5393
14298,5393,5394,5014
14299,5015,5396,5397
14300,5397,4919,5015
14301,5011,5388,5389
14302,5389,4915,5011
14303,5010,4913,5385
14304,5385,5386,5010
14305,5435,5030,4933
14306,4933,5439,5435
14307,5444,5453,5450
14308,5450,5244,5444
14309,5453,5451,6055
14310,6055,6054,5453
14311,5444,5242,5451
14312,5451,5453,5444
14313,5453,6054,6053
14314,6053,5450,5453
14315,5583,5632,5437
14316,5437,5430,5583
14317,5027,5420,5421
14318,5421,4931,5027
14319,5026,4929,5417
14320,5417,5418,5026
14321,5454,6056,6055
14322,6055,5451,5454
14323,5446,5454,5451
14324,5451,5242,5446
14325,5237,5855,5852
14326,5852,5038,5237
14327,5446,5243,5452
14328,5452,5454,5446
14329,5454,5452,6057
14330,6057,6056,5454
14331,5245,5039,5235
14332,5245,5235,5656
14333,5656,5856,5245
14334,4935,5425,5426
14335,5426,4839,4935
14336,5032,4835,5442
14337,5442,5246,5032
14338,4741,5055,5054
14339,5054,4645,4741
14340,4740,4645,5054
14341,5054,5053,4740
14342,4738,4643,5050
14343,5050,5049,4738
14344,4739,5051,5050
14345,5050,4643,4739
14346,4742,4647,5058
14347,5058,5057,4742
14348,4743,5059,5058
14349,5058,4647,4743
14350,4745,5063,5062
14351,5062,4649,4745
14352,4744,4649,5062
14353,5062,5061,4744
14354,4757,5087,5086
14355,5086,4661,4757
14356,4756,4661,5086
14357,5086,5085,4756
14358,4754,4659,5082
14359,5082,5081,4754
14360,4755,5083,5082
14361,5082,4659,4755
14362,4758,4663,5090
14363,5090,5089,4758
14364,4759,5091,5090
14365,5090,4663,4759
14366,4761,5095,5094
14367,5094,4665,4761
14368,4760,4665,5094
14369,5094,5093,4760
14370,4773,5119,5118
14371,5118,4677,4773
14372,4772,4677,5118
14373,5118,5117,4772
14374,4770,4675,5114
14375,5114,5113,4770
14376,4771,5115,5114
14377,5114,4675,4771
14378,4774,4679,5122
14379,5122,5121,4774
14380,4775,5123,5122
14381,5122,4679,4775
14382,4777,5127,5126
14383,5126,4681,4777
14384,4776,4681,5126
14385,5126,5125,4776
14386,4789,5151,5150
14387,5150,4693,4789
14388,4788,4693,5150
14389,5150,5149,4788
14390,4786,4691,5146
14391,5146,5145,4786
14392,4787,5147,5146
14393,5146,4691,4787
14394,4790,4695,5154
14395,5154,5153,4790
14396,4791,5155,5154
14397,5154,4695,4791
14398,4793,5159,5158
14399,5158,4697,4793
14400,4792,4697,5158
14401,5158,5157,4792
14402,4805,5183,5182
14403,5182,4709,4805
14404,4804,4709,5182
14405,5182,5181,4804
14406,4802,4707,5178
14407,5178,5177,4802
14408,4803,5179,5178
14409,5178,4707,4803
14410,4806,4711,5186
14411,5186,5185,4806
14412,4807,5187,5186
14413,5186,4711,4807
14414,4809,5191,5190
14415,5190,4713,4809
14416,4808,4713,5190
14417,5190,5189,4808
14418,4821,5215,5214
14419,5214,4725,4821
14420,4820,4725,5214
14421,5214,5213,4820
14422,4818,4723,5210
14423,5210,5209,4818
14424,4819,5211,5210
14425,5210,4723,4819
14426,4822,4727,5218
14427,5218,5217,4822
14428,4823,5219,5218
14429,5218,4727,4823
14430,4825,5223,5222
14431,5222,4729,4825
14432,4824,4729,5222
14433,5222,5221,4824
14434,4750,4655,5074
14435,5074,5073,4750
14436,4751,5075,5074
14437,5074,4655,4751
14438,4753,5079,5078
14439,5078,4657,4753
14440,4752,4657,5078
14441,5078,5077,4752
14442,4749,5071,5070
14443,5070,4653,4749
14444,4748,4653,5070
14445,5070,5069,4748
14446,4746,4651,5066
14447,5066,5065,4746
14448,4747,5067,5066
14449,5066,4651,4747
14450,4766,4671,5106
14451,5106,5105,4766
14452,4767,5107,5106
14453,5106,4671,4767
14454,4769,5111,5110
14455,5110,4673,4769
14456,4768,4673,5110
14457,5110,5109,4768
14458,4765,5103,5102
14459,5102,4669,4765
14460,4764,4669,5102
14461,5102,5101,4764
14462,4762,4667,5098
14463,5098,5097,4762
14464,4763,5099,5098
14465,5098,4667,4763
14466,4782,4687,5138
14467,5138,5137,4782
14468,4783,5139,5138
14469,5138,4687,4783
14470,4785,5143,5142
14471,5142,4689,4785
14472,4784,4689,5142
14473,5142,5141,4784
14474,4781,5135,5134
14475,5134,4685,4781
14476,4780,4685,5134
14477,5134,5133,4780
14478,4778,4683,5130
14479,5130,5129,4778
14480,4779,5131,5130
14481,5130,4683,4779
14482,4798,4703,5170
14483,5170,5169,4798
14484,4799,5171,5170
14485,5170,4703,4799
14486,4801,5175,5174
14487,5174,4705,4801
14488,4800,4705,5174
14489,5174,5173,4800
14490,4797,5167,5166
14491,5166,4701,4797
14492,4796,4701,5166
14493,5166,5165,4796
14494,4794,4699,5162
14495,5162,5161,4794
14496,4795,5163,5162
14497,5162,4699,4795
14498,4814,4719,5202
14499,5202,5201,4814
14500,4815,5203,5202
14501,5202,4719,4815
14502,4817,5207,5206
14503,5206,4721,4817
14504,4816,4721,5206
14505,5206,5205,4816
14506,4813,5199,5198
14507,5198,4717,4813
14508,4812,4717,5198
14509,5198,5197,4812
14510,4810,4715,5194
14511,5194,5193,4810
14512,4811,5195,5194
14513,5194,4715,4811
14514,4830,4735,5234
14515,5234,5233,4830
14516,5042,5234,4735
14517,4735,4831,5042
14518,4829,5231,5230
14519,5230,4733,4829
14520,4828,4733,5230
14521,5230,5229,4828
14522,4826,4731,5226
14523,5226,5225,4826
14524,4827,5227,5226
14525,5226,4731,4827
14526,4737,5047,5046
14527,5046,4641,4737
14528,4736,4641,5046
14529,5046,5045,4736
14530,5041,4833,4639
14531,4639,5043,5041
14532,2112,2107,1894
14533,2112,1894,1890
14534,1890,1896,2112
14535,209,207,510
14536,510,504,209
14537,504,510,728
14538,728,625,504
14539,3175,3072,2864
14540,2864,2967,3175
14541,3385,3181,3175
14542,3175,3177,3385
14543,3181,3179,3072
14544,3072,3175,3181
14545,2967,2858,3177
14546,3177,3175,2967
14547,210,505,511
14548,511,208,210
14549,505,626,729
14550,729,511,505
14551,3176,2968,2865
14552,2865,3073,3176
14553,3386,3178,3176
14554,3176,3283,3386
14555,3283,3176,3073
14556,3073,3180,3283
14557,2968,3176,3178
14558,3178,2861,2968
14559,1675,1677,1883
14560,1883,1780,1675
14561,1253,1360,1251
14562,1251,1241,1253
14563,1998,2113,2329
14564,2329,2232,1998
14565,2232,2329,2444
14566,2444,2341,2232
14567,1676,1781,1884
14568,1884,1678,1676
14569,1254,1242,1252
14570,1252,1361,1254
14571,1999,2233,2332
14572,2332,2114,1999
14573,2233,2342,2445
14574,2445,2332,2233
14575,3803,3699,3701
14576,3701,3914,3803
14577,3914,4213,4214
14578,4214,3803,3914
14579,3909,3700,3698
14580,3698,4008,3909
14581,4128,3909,4134
14582,4134,4148,4128
14583,3909,4008,4134
14584,4148,4218,4217
14585,4217,4128,4148
14586,4216,4218,4148
14587,4148,4134,4216
14588,4435,4433,4217
14589,4217,4218,4435
14590,5239,4837,4836
14591,4836,5245,5239
14592,4536,4836,4837
14593,4837,4434,4536
14594,6269,6062,6066
14595,6066,6273,6269
14596,5858,5657,5442
14597,5442,5445,5858
14598,6063,6064,5657
14599,5657,5858,6063
14600,6270,6475,6064
14601,6064,6063,6270
14602,5856,5857,5239
14603,5239,5245,5856
14604,6062,5857,5856
14605,5856,6066,6062
14606,5442,4835,4832
14607,4832,5445,5442
14608,4534,4433,4832
14609,4832,4835,4534
14610,1464,1482,1466
14611,1466,1357,1464
14612,1463,1356,1465
14613,1465,1481,1463
14614,2115,2111,2106
14615,2106,2117,2115
14616,2115,2117,2127
14617,2127,2123,2115
14618,2116,2118,2107
14619,2107,2112,2116
14620,2116,2124,2128
14621,2128,2118,2116
14622,4587,4478,4324
14623,4587,4324,4326
14624,4326,4477,4587
14625,4578,4469,4325
14626,4578,4325,4323
14627,4323,4468,4578
14628,1885,1780,1883
14629,1883,1891,1885
14630,2119,2121,2105
14631,2105,2103,2119
14632,2339,2125,2121
14633,2121,2224,2339
14634,1886,1892,1884
14635,1884,1781,1886
14636,2225,2128,2120
14637,2120,2122,2225
14638,2340,2225,2122
14639,2122,2126,2340
14640,4585,4476,4328
14641,4585,4328,4330
14642,4330,4475,4585
14643,4580,4471,4329
14644,4580,4329,4327
14645,4327,4470,4580
14646,4322,4212,4124
14647,4124,4324,4322
14648,4577,4468,4323
14649,4577,4323,4321
14650,4321,4467,4577
14651,1893,1889,1885
14652,1885,1891,1893
14653,1894,1892,1886
14654,1886,1890,1894
14655,4586,4477,4326
14656,4586,4326,4328
14657,4328,4476,4586
14658,4583,4474,4320
14659,4583,4320,4319
14660,4319,4473,4583
14661,4579,4470,4327
14662,4579,4327,4325
14663,4325,4469,4579
14664,4582,4473,4319
14665,4582,4319,4318
14666,4318,4472,4582
*MATERIAL, NAME=CFRP
*ELASTIC
7e+10,0.3
*DENSITY
1600
*SHELL SECTION, ELSET=ALL_SHELL, MATERIAL=CFRP
0.0025
*NSET, NSET=ALLNODES, GENERATE
1,7336,1
*NSET, NSET=MOUNT
1,2,3,4,5,6,7,8,9,10,11,12,13,14,15,16
17,18,19,20,21,22,23,24,25,26,27,28,29,30,31,32
33,34,35,36,37,38,39,40,41,42,43,44,45,46,47,48
49,50,51,52,53,54,55,56,57,58,59,60,61,62,63,64
65,66,67,68,69,70,71,72,73,74,75,76,77,78,79,80
81,82,83,84,85,86,87,88,89,90,91,92,93,94,95,96
97,98,99,100,101,102,103,104,105,106,107,108,109,110,111,112
113,114,115,116,117,118,119,120,121,122,123,124,125,126,127,128
129,130,131,132,133,134,135,136,137,138,139,140,141,142,143,144
145,146,147,148,149,150,151,152,153,154,155,156,157,158,159,160
161,162,163,164,165,166,167,168,169,170,171,172,173,174,175,176
177,178,179,180,181,182,183,184,185,186,187,188,189,190,191,192
193,194,195,196,197,198,199,200,201,202,203,204,205,206
*STEP
*STATIC
*NODE PRINT, NSET=ALLNODES
U
*EL PRINT, ELSET=ALL_SHELL
S
*NODE FILE, NSET=ALLNODES
U
*EL FILE, ELSET=ALL_SHELL
S
*DLOAD
1,P,779.363708
2,P,537.096558
3,P,537.096558
4,P,537.24292
5,P,537.24292
6,P,990.423584
7,P,990.423584
8,P,990.357849
9,P,990.357849
10,P,849.749023
11,P,849.749023
12,P,993.908325
13,P,993.908325
14,P,849.987244
15,P,849.987244
16,P,992.591003
17,P,992.591003
18,P,1107.93103
19,P,1107.93103
20,P,1027.24036
21,P,1027.24036
22,P,1105.35144
23,P,1105.35144
24,P,579.721252
25,P,579.721252
26,P,1029.12646
27,P,1029.12646
28,P,581.231689
29,P,581.231689
30,P,515.60376
31,P,515.60376
32,P,515.60376
33,P,1016.49139
34,P,1016.49139
35,P,738.040161
36,P,738.040161
37,P,696.528687
38,P,696.528687
39,P,1015.17236
40,P,1015.17236
41,P,463.783936
42,P,463.783936
43,P,737.690857
44,P,737.690857
45,P,693.854248
46,P,693.854248
47,P,464.279785
48,P,464.279785
49,P,584.715393
50,P,584.715393
51,P,340.371277
52,P,340.371277
53,P,947.577515
54,P,947.577515
55,P,807.273804
56,P,807.273804
57,P,1096.23242
58,P,1096.23242
59,P,720.451782
60,P,720.451782
61,P,639.986206
62,P,639.986206
63,P,696.704285
64,P,696.704285
65,P,609.689819
66,P,609.689819
67,P,596.648376
68,P,596.648376
69,P,339.65979
70,P,339.65979
71,P,949.916931
72,P,949.916931
73,P,806.375549
74,P,806.375549
75,P,1099.16956
76,P,1099.16956
77,P,725.23999
78,P,725.23999
79,P,650.521301
80,P,650.521301
81,P,718.894348
82,P,718.894348
83,P,610.877197
84,P,610.877197
85,P,602.226868
86,P,602.226868
87,P,962.84552
88,P,962.84552
89,P,681.902527
90,P,681.902527
91,P,545.357849
92,P,545.357849
93,P,839.681946
94,P,839.681946
95,P,963.008667
96,P,963.008667
97,P,745.235962
98,P,745.235962
99,P,545.561768
100,P,545.561768
101,P,175.71788
102,P,175.71788
103,P,681.025452
104,P,681.025452
105,P,545.548096
106,P,545.548096
107,P,837.22229
108,P,837.22229
109,P,745.327881
110,P,745.327881
111,P,548.074097
112,P,548.074097
113,P,179.060547
114,P,179.060547
115,P,717.281433
116,P,717.281433
117,P,749.264343
118,P,749.264343
119,P,550.717651
120,P,550.717651
121,P,550.717651
122,P,697.241577
123,P,697.241577
124,P,701.861938
125,P,701.861938
126,P,784.689209
127,P,784.689209
128,P,719.734253
129,P,719.734253
130,P,525.074158
131,P,525.074158
132,P,379.329071
133,P,379.329071
134,P,411.529083
135,P,411.529083
136,P,419.146545
137,P,419.146545
138,P,409.875854
139,P,409.875854
140,P,376.565277
141,P,376.565277
142,P,559.626282
143,P,559.626282
144,P,-1981.29529
145,P,-1981.29529
146,P,-2170.38501
147,P,-2170.38501
148,P,590.82489
149,P,590.82489
150,P,461.602386
151,P,461.602386
152,P,-2170.85986
153,P,-2170.85986
154,P,-2191.88745
155,P,-2191.88745
156,P,464.291687
157,P,464.291687
158,P,503.539093
159,P,503.539093
160,P,-2194.14209
161,P,-2194.14209
162,P,-2198.57495
163,P,-2198.57495
164,P,505.3927
165,P,505.3927
166,P,516.05719
167,P,516.05719
168,P,-2198.57568
169,P,-2198.57568
170,P,-2194.12012
171,P,-2194.12012
172,P,516.052673
173,P,516.052673
174,P,505.253326
175,P,505.253326
176,P,-2191.85913
177,P,-2191.85913
178,P,-2170.80688
179,P,-2170.80688
180,P,503.384369
181,P,503.384369
182,P,463.707428
183,P,463.707428
184,P,-2170.32788
185,P,-2170.32788
186,P,-1981.15344
187,P,-1981.15344
188,P,460.963684
189,P,460.963684
190,P,586.633789
191,P,586.633789
192,P,-1918.54944
193,P,-1918.54944
194,P,647.899048
195,P,647.899048
196,P,377.268188
197,P,377.268188
198,P,410.076324
199,P,410.076324
200,P,419.150177
201,P,419.150177
202,P,411.348907
203,P,411.348907
204,P,378.682648
205,P,378.682648
206,P,518.24585
207,P,518.24585
208,P,-1918.32117
209,P,-1918.32117
210,P,643.410095
211,P,643.410095
212,P,-2129.92798
213,P,-2129.92798
214,P,694.217346
215,P,694.217346
216,P,694.217346
217,P,-2134.64624
218,P,-2134.64624
219,P,777.492065
220,P,458.611847
221,P,458.611847
222,P,456.495239
223,P,456.495239
224,P,-2182.90967
225,P,-2182.90967
226,P,-2183.55493
227,P,-2183.55493
228,P,485.056915
229,P,485.056915
230,P,488.049438
231,P,488.049438
232,P,-2197.66309
233,P,-2197.66309
234,P,-2198.43359
235,P,-2198.43359
236,P,513.39447
237,P,513.39447
238,P,514.093079
239,P,514.093079
240,P,-2198.42773
241,P,-2198.42773
242,P,-2197.65063
243,P,-2197.65063
244,P,514.038391
245,P,514.038391
246,P,513.329468
247,P,513.329468
248,P,-2183.51733
249,P,-2183.51733
250,P,-2182.86426
251,P,-2182.86426
252,P,487.753571
253,P,487.753571
254,P,484.730804
255,P,484.730804
256,P,-2134.58423
257,P,-2134.58423
258,P,-2129.85962
259,P,-2129.85962
260,P,455.243408
261,P,455.243408
262,P,457.195465
263,P,457.195465
264,P,567.455505
265,P,567.455505
266,P,384.025696
267,P,384.025696
268,P,395.332153
269,P,395.332153
270,P,417.589172
271,P,417.589172
272,P,417.97702
273,P,417.97702
274,P,397.266724
275,P,397.266724
276,P,378.413452
277,P,378.413452
278,P,-2072.8457
279,P,-2072.8457
280,P,690.729248
281,P,690.729248
282,P,630.730408
283,P,630.730408
284,P,-2160.86646
285,P,-2160.86646
286,P,714.598938
287,P,714.598938
288,P,676.695129
289,P,676.695129
290,P,288.668793
291,P,288.668793
292,P,176.155273
293,P,176.155273
294,P,493.360565
295,P,493.360565
296,P,234.394257
297,P,234.394257
298,P,181.174652
299,P,181.174652
300,P,303.417084
301,P,303.417084
302,P,457.001801
303,P,457.001801
304,P,127.387634
305,P,127.387634
306,P,143.50412
307,P,143.50412
308,P,300.651703
309,P,300.651703
310,P,-2177.48999
311,P,-2177.48999
312,P,724.414673
313,P,724.414673
314,P,747.427856
315,P,747.427856
316,P,-2187.87573
317,P,-2187.87573
318,P,804.228943
319,P,804.228943
320,P,794.427551
321,P,794.427551
322,P,38.7379341
323,P,38.7379341
324,P,119.394768
325,P,119.394768
326,P,472.885895
327,P,472.885895
328,P,80.951561
329,P,80.951561
330,P,259.502869
331,P,259.502869
332,P,-8.47329712
333,P,-8.47329712
334,P,497.862152
335,P,497.862152
336,P,-13.3962107
337,P,-13.3962107
338,P,-4.7157855
339,P,-4.7157855
340,P,-15.8002815
341,P,-15.8002815
342,P,-2193.14014
343,P,-2193.14014
344,P,807.321594
345,P,807.321594
346,P,814.447083
347,P,814.447083
348,P,-2199.32104
349,P,-2199.32104
350,P,826.893677
351,P,826.893677
352,P,826.043091
353,P,826.043091
354,P,-22.2354755
355,P,-22.2354755
356,P,-15.1765938
357,P,-15.1765938
358,P,509.530945
359,P,509.530945
360,P,-17.9986801
361,P,-17.9986801
362,P,-17.7870197
363,P,-17.7870197
364,P,-28.5015812
365,P,-28.5015812
366,P,515.692627
367,P,515.692627
368,P,-26.9756756
369,P,-26.9756756
370,P,-25.0008545
371,P,-25.0008545
372,P,-29.1074104
373,P,-29.1074104
374,P,-2199.32666
375,P,-2199.32666
376,P,826.896484
377,P,826.896484
378,P,826.049866
379,P,826.049866
380,P,-2193.11206
381,P,-2193.11206
382,P,807.290283
383,P,807.290283
384,P,814.417236
385,P,814.417236
386,P,-28.5208931
387,P,-28.5208931
388,P,-26.9816189
389,P,-26.9816189
390,P,515.670227
391,P,515.670227
392,P,-25.0393162
393,P,-25.0393162
394,P,-29.1096058
395,P,-29.1096058
396,P,-22.2624378
397,P,-22.2624378
398,P,509.426849
399,P,509.426849
400,P,-15.2349405
401,P,-15.2349405
402,P,-18.0589657
403,P,-18.0589657
404,P,-17.8044376
405,P,-17.8044376
406,P,-2187.84717
407,P,-2187.84717
408,P,804.198914
409,P,804.198914
410,P,794.389038
411,P,794.389038
412,P,-2177.43994
413,P,-2177.43994
414,P,724.139343
415,P,724.139343
416,P,747.23468
417,P,747.23468
418,P,-8.47433472
419,P,-8.47433472
420,P,-13.4537439
421,P,-13.4537439
422,P,497.654388
423,P,497.654388
424,P,-4.77123308
425,P,-4.77123308
426,P,-15.812727
427,P,-15.812727
428,P,38.7669182
429,P,38.7669182
430,P,472.431335
431,P,472.431335
432,P,119.280045
433,P,119.280045
434,P,80.9111176
435,P,80.9111176
436,P,259.456665
437,P,259.456665
438,P,-2160.81323
439,P,-2160.81323
440,P,714.302063
441,P,714.302063
442,P,676.323975
443,P,676.323975
444,P,-2072.75439
445,P,-2072.75439
446,P,689.875549
447,P,689.875549
448,P,630.104065
449,P,630.104065
450,P,303.286316
451,P,303.286316
452,P,127.239647
453,P,127.239647
454,P,456.165131
455,P,456.165131
456,P,143.198853
457,P,143.198853
458,P,300.593567
459,P,300.593567
460,P,288.538635
461,P,288.538635
462,P,490.665802
463,P,490.665802
464,P,175.809235
465,P,175.809235
466,P,182.413086
467,P,182.413086
468,P,234.315674
469,P,234.315674
470,P,792.973083
471,P,792.973083
472,P,379.883972
473,P,379.883972
474,P,397.636414
475,P,397.636414
476,P,418.04306
477,P,418.04306
478,P,417.511566
479,P,417.511566
480,P,394.933624
481,P,394.933624
482,P,382.33139
483,P,382.33139
484,P,796.017578
485,P,796.017578
486,P,853.936829
487,P,853.936829
488,P,-2092.44385
489,P,-2092.44385
490,P,390.156738
491,P,390.156738
492,P,166.243713
493,P,166.243713
494,P,675.774902
495,P,675.774902
496,P,630.757019
497,P,630.757019
498,P,20.210247
499,P,20.210247
500,P,120.327141
501,P,120.327141
502,P,-2156.05762
503,P,-2156.05762
504,P,701.603699
505,P,701.603699
506,P,664.749146
507,P,664.749146
508,P,810.782104
509,P,810.782104
510,P,752.10907
511,P,752.10907
512,P,67.975914
513,P,67.975914
514,P,707.889709
515,P,707.889709
516,P,307.828369
517,P,307.828369
518,P,479.626984
519,P,479.626984
520,P,182.716354
521,P,182.716354
522,P,186.04921
523,P,186.04921
524,P,330.220612
525,P,330.220612
526,P,300.505859
527,P,300.505859
528,P,455.911865
529,P,455.911865
530,P,167.981491
531,P,167.981491
532,P,147.686981
533,P,147.686981
534,P,318.238068
535,P,318.238068
536,P,-2179.44141
537,P,-2179.44141
538,P,822.76825
539,P,822.76825
540,P,849.621338
541,P,849.621338
542,P,771.77356
543,P,771.77356
544,P,754.441101
545,P,754.441101
546,P,877.394226
547,P,877.394226
548,P,857.741516
549,P,857.741516
550,P,-2186.81201
551,P,-2186.81201
552,P,777.152283
553,P,777.152283
554,P,790.300415
555,P,790.300415
556,P,913.761353
557,P,913.761353
558,P,902.907532
559,P,902.907532
560,P,883.542236
561,P,883.542236
562,P,898.250366
563,P,898.250366
564,P,25.0379009
565,P,25.0379009
566,P,476.214691
567,P,476.214691
568,P,46.923851
569,P,46.923851
570,P,72.4484634
571,P,72.4484634
572,P,9.64724731
573,P,9.64724731
574,P,-5.3834753
575,P,-5.3834753
576,P,495.430328
577,P,495.430328
578,P,34.0139275
579,P,34.0139275
580,P,0.704493999
581,P,0.704493999
582,P,5.64308119
583,P,5.64308119
584,P,-2196.42676
585,P,-2196.42676
586,P,917.259094
587,P,917.259094
588,P,925.351013
589,P,925.351013
590,P,821.421448
591,P,821.421448
592,P,816.592102
593,P,816.592102
594,P,933.214294
595,P,933.214294
596,P,927.823364
597,P,927.823364
598,P,-2199.31787
599,P,-2199.31787
600,P,822.717346
601,P,822.717346
602,P,825.411255
603,P,825.411255
604,P,939.516418
605,P,939.516418
606,P,938.519043
607,P,938.519043
608,P,934.710938
609,P,934.710938
610,P,937.783325
611,P,937.783325
612,P,-23.418314
613,P,-23.418314
614,P,510.802704
615,P,510.802704
616,P,-18.1279736
617,P,-18.1279736
618,P,-18.4240036
619,P,-18.4240036
620,P,-25.6464882
621,P,-25.6464882
622,P,-28.0436478
623,P,-28.0436478
624,P,515.385742
625,P,515.385742
626,P,-18.3650742
627,P,-18.3650742
628,P,-23.1109886
629,P,-23.1109886
630,P,-26.4083633
631,P,-26.4083633
632,P,-2199.32153
633,P,-2199.32153
634,P,939.519592
635,P,939.519592
636,P,938.525391
637,P,938.525391
638,P,822.707581
639,P,822.707581
640,P,825.414734
641,P,825.414734
642,P,934.704834
643,P,934.704834
644,P,937.787354
645,P,937.787354
646,P,-2196.40161
647,P,-2196.40161
648,P,821.408569
649,P,821.408569
650,P,816.565552
651,P,816.565552
652,P,917.234924
653,P,917.234924
654,P,925.331116
655,P,925.331116
656,P,933.207275
657,P,933.207275
658,P,927.805908
659,P,927.805908
660,P,-28.0696106
661,P,-28.0696106
662,P,515.356445
663,P,515.356445
664,P,-18.4276142
665,P,-18.4276142
666,P,-23.1583748
667,P,-23.1583748
668,P,-26.4448586
669,P,-26.4448586
670,P,-23.4480343
671,P,-23.4480343
672,P,510.709473
673,P,510.709473
674,P,-18.1898785
675,P,-18.1898785
676,P,-18.4853516
677,P,-18.4853516
678,P,-25.6829166
679,P,-25.6829166
680,P,-2186.78271
681,P,-2186.78271
682,P,913.742126
683,P,913.742126
684,P,902.882874
685,P,902.882874
686,P,777.066223
687,P,777.066223
688,P,790.250916
689,P,790.250916
690,P,883.482849
691,P,883.482849
692,P,898.216003
693,P,898.216003
694,P,-2179.38965
695,P,-2179.38965
696,P,771.672485
697,P,771.672485
698,P,754.270691
699,P,754.270691
700,P,822.57666
701,P,822.57666
702,P,849.48407
703,P,849.48407
704,P,877.325928
705,P,877.325928
706,P,857.621826
707,P,857.621826
708,P,-5.37969351
709,P,-5.37969351
710,P,495.204559
711,P,495.204559
712,P,33.9742432
713,P,33.9742432
714,P,0.651426673
715,P,0.651426673
716,P,5.66591311
717,P,5.66591311
718,P,25.0722828
719,P,25.0722828
720,P,475.793915
721,P,475.793915
722,P,46.8918648
723,P,46.8918648
724,P,72.4164505
725,P,72.4164505
726,P,9.67800045
727,P,9.67800045
728,P,-2156.00659
729,P,-2156.00659
730,P,810.578979
731,P,810.578979
732,P,751.878357
733,P,751.878357
734,P,701.069214
735,P,701.069214
736,P,664.343689
737,P,664.343689
738,P,67.8670959
739,P,67.8670959
740,P,707.65033
741,P,707.65033
742,P,-2092.36377
743,P,-2092.36377
744,P,675.233948
745,P,675.233948
746,P,630.152344
747,P,630.152344
748,P,389.905792
749,P,389.905792
750,P,166.094528
751,P,166.094528
752,P,20.107193
753,P,20.107193
754,P,120.216263
755,P,120.216263
756,P,300.340698
757,P,300.340698
758,P,454.992981
759,P,454.992981
760,P,167.433853
761,P,167.433853
762,P,147.304047
763,P,147.304047
764,P,318.024658
765,P,318.024658
766,P,307.673737
767,P,307.673737
768,P,477.383392
769,P,477.383392
770,P,182.206711
771,P,182.206711
772,P,186.589951
773,P,186.589951
774,P,329.996826
775,P,329.996826
776,P,-636.849915
777,P,-636.849915
778,P,-694.480835
779,P,-694.480835
780,P,217.439209
781,P,217.439209
782,P,436.075378
783,P,436.075378
784,P,253.432419
785,P,253.432419
786,P,-48.2099228
787,P,-48.2099228
788,P,-48.2099228
789,P,-44.4828377
790,P,-44.4828377
791,P,-44.4828377
792,P,-965.119202
793,P,-965.119202
794,P,-976.847351
795,P,-976.847351
796,P,115.821915
797,P,115.821915
798,P,385.92218
799,P,385.92218
800,P,99.3108063
801,P,99.3108063
802,P,-748.134094
803,P,-748.134094
804,P,-748.134094
805,P,-603.613831
806,P,-603.613831
807,P,-603.613831
808,P,-1071.4895
809,P,-1071.4895
810,P,-1075.59106
811,P,-1075.59106
812,P,-15.3038254
813,P,-15.3038254
814,P,414.72345
815,P,414.72345
816,P,-17.0064697
817,P,-17.0064697
818,P,-1054.00598
819,P,-1054.00598
820,P,-1054.00598
821,P,-1020.71576
822,P,-1020.71576
823,P,-1020.71576
824,P,-1088.09058
825,P,-1088.09058
826,P,-1088.62708
827,P,-1088.62708
828,P,-34.729557
829,P,-34.729557
830,P,418.963501
831,P,418.963501
832,P,-31.4470062
833,P,-31.4470062
834,P,-179.246796
835,P,-179.246796
836,P,-78.2177124
837,P,-78.2177124
838,P,-1069.08411
839,P,-1069.08411
840,P,-1066.1748
841,P,-1066.1748
842,P,-13.9853868
843,P,-13.9853868
844,P,405.190125
845,P,405.190125
846,P,-6.50353861
847,P,-6.50353861
848,P,-970.532043
849,P,-970.532043
850,P,-970.532043
851,P,-1008.03125
852,P,-1008.03125
853,P,-1008.03125
854,P,-953.789856
855,P,-953.789856
856,P,-942.158691
857,P,-942.158691
858,P,119.30426
859,P,119.30426
860,P,372.435669
861,P,372.435669
862,P,128.936096
863,P,128.936096
864,P,-411.366302
865,P,-411.366302
866,P,-411.366302
867,P,-550.307373
868,P,-550.307373
869,P,-550.307373
870,P,-2030.75366
871,P,-2030.75366
872,P,-2168.6814
873,P,-2168.6814
874,P,678.020569
875,P,678.020569
876,P,543.798706
877,P,543.798706
878,P,459.668335
879,P,459.668335
880,P,577.905273
881,P,577.905273
882,P,577.856384
883,P,577.856384
884,P,-2173.50732
885,P,-2173.50732
886,P,-2190.33618
887,P,-2190.33618
888,P,580.887268
889,P,580.887268
890,P,466.791748
891,P,466.791748
892,P,583.284058
893,P,583.284058
894,P,501.927704
895,P,501.927704
896,P,623.964844
897,P,623.964844
898,P,622.431763
899,P,622.431763
900,P,-2198.81128
901,P,-2198.81128
902,P,-2198.90308
903,P,-2198.90308
904,P,626.556396
905,P,626.556396
906,P,506.714783
907,P,506.714783
908,P,516.008545
909,P,516.008545
910,P,638.963318
911,P,638.963318
912,P,638.940674
913,P,638.940674
914,P,-2198.90552
915,P,-2198.90552
916,P,-2198.7915
917,P,-2198.7915
918,P,638.957153
919,P,638.957153
920,P,515.999329
921,P,515.999329
922,P,638.933105
923,P,638.933105
924,P,506.587738
925,P,506.587738
926,P,626.4599
927,P,626.4599
928,P,627.850342
929,P,627.850342
930,P,-2190.30347
931,P,-2190.30347
932,P,-2173.4563
933,P,-2173.4563
934,P,623.851257
935,P,623.851257
936,P,501.755035
937,P,501.755035
938,P,466.25531
939,P,466.25531
940,P,580.381348
941,P,580.381348
942,P,582.8255
943,P,582.8255
944,P,-2168.62231
945,P,-2168.62231
946,P,-2030.64514
947,P,-2030.64514
948,P,577.347595
949,P,577.347595
950,P,458.967224
951,P,458.967224
952,P,577.24823
953,P,577.24823
954,P,540.102661
955,P,540.102661
956,P,675.40332
957,P,675.40332
958,P,618.197144
959,P,618.197144
960,P,755.939819
961,P,755.939819
962,P,181.775787
963,P,181.775787
964,P,214.636948
965,P,214.636948
966,P,-671.99585
967,P,-671.99585
968,P,-661.829285
969,P,-661.829285
970,P,373.377563
971,P,373.377563
972,P,119.48999
973,P,119.48999
974,P,129.32431
975,P,129.32431
976,P,-411.07605
977,P,-411.07605
978,P,-411.07605
979,P,-550.243835
980,P,-550.243835
981,P,-550.243835
982,P,-1026.55029
983,P,-1026.55029
984,P,-1020.33765
985,P,-1020.33765
986,P,405.458801
987,P,405.458801
988,P,-13.9200106
989,P,-13.9200106
990,P,-6.44589615
991,P,-6.44589615
992,P,-970.68573
993,P,-970.68573
994,P,-970.68573
995,P,-1008.16864
996,P,-1008.16864
997,P,-1008.16864
998,P,-1080.46045
999,P,-1080.46045
1000,P,-1079.41443
1001,P,-1079.41443
1002,P,418.994354
1003,P,418.994354
1004,P,-34.722084
1005,P,-34.722084
1006,P,-31.4069481
1007,P,-31.4069481
1008,P,-179.256882
1009,P,-179.256882
1010,P,-78.2176208
1011,P,-78.2176208
1012,P,-1082.28784
1013,P,-1082.28784
1014,P,-1084.40906
1015,P,-1084.40906
1016,P,414.598328
1017,P,414.598328
1018,P,-15.3665533
1019,P,-15.3665533
1020,P,-17.0694523
1021,P,-17.0694523
1022,P,-1053.90137
1023,P,-1053.90137
1024,P,-1053.90137
1025,P,-1020.57874
1026,P,-1020.57874
1027,P,-1020.57874
1028,P,-1033.62817
1029,P,-1033.62817
1030,P,-1040.82593
1031,P,-1040.82593
1032,P,385.405975
1033,P,385.405975
1034,P,115.686752
1035,P,115.686752
1036,P,99.2549362
1037,P,99.2549362
1038,P,-748.0625
1039,P,-748.0625
1040,P,-748.0625
1041,P,-603.631958
1042,P,-603.631958
1043,P,-603.631958
1044,P,-684.029785
1045,P,-684.029785
1046,P,-700.971802
1047,P,-700.971802
1048,P,432.400146
1049,P,432.400146
1050,P,218.539017
1051,P,218.539017
1052,P,258.618805
1053,P,258.618805
1054,P,-198.156067
1055,P,-198.156067
1056,P,-198.156067
1057,P,-820.67395
1058,P,-820.67395
1059,P,-820.67395
1060,P,755.713806
1061,P,755.713806
1062,P,180.155365
1063,P,180.155365
1064,P,214.598602
1065,P,214.598602
1066,P,1558.60852
1067,P,1558.60852
1068,P,-2121.94702
1069,P,-2121.94702
1070,P,1528.6427
1071,P,1528.6427
1072,P,1555.84009
1073,P,1555.84009
1074,P,923.813538
1075,P,923.813538
1076,P,983.340332
1077,P,983.340332
1078,P,-2142.41089
1079,P,-2142.41089
1080,P,1736.10938
1081,P,1736.10938
1082,P,1750.50171
1083,P,1750.50171
1084,P,1620.26794
1085,P,1620.26794
1086,P,1043.69653
1087,P,1043.69653
1088,P,978.876404
1089,P,978.876404
1090,P,515.987854
1091,P,515.987854
1092,P,515.987854
1093,P,463.005768
1094,P,463.005768
1095,P,577.254333
1096,P,577.254333
1097,P,456.098114
1098,P,456.098114
1099,P,573.547119
1100,P,573.547119
1101,P,578.613342
1102,P,578.613342
1103,P,1784.99548
1104,P,1784.99548
1105,P,1772.34595
1106,P,1772.34595
1107,P,-2182.31152
1108,P,-2182.31152
1109,P,1848.79126
1110,P,1848.79126
1111,P,1856.63
1112,P,1856.63
1113,P,1082.33459
1114,P,1082.33459
1115,P,1132.94885
1116,P,1132.94885
1117,P,-2184.93237
1118,P,-2184.93237
1119,P,1911.98584
1120,P,1911.98584
1121,P,1876.54919
1122,P,1876.54919
1123,P,1183.34497
1124,P,1183.34497
1125,P,1154.76807
1126,P,1154.76807
1127,P,482.331726
1128,P,482.331726
1129,P,603.26062
1130,P,603.26062
1131,P,600.536621
1132,P,600.536621
1133,P,490.479767
1134,P,490.479767
1135,P,607.342407
1136,P,607.342407
1137,P,1927.31348
1138,P,1927.31348
1139,P,-2197.43457
1140,P,-2197.43457
1141,P,1946.71631
1142,P,1946.71631
1143,P,1195.07874
1144,P,1195.07874
1145,P,1209.75903
1146,P,1209.75903
1147,P,-2198.93164
1148,P,-2198.93164
1149,P,1959.17529
1150,P,1959.17529
1151,P,1953.67114
1152,P,1953.67114
1153,P,1219.47498
1154,P,1219.47498
1155,P,1215.09143
1156,P,1215.09143
1157,P,512.702271
1158,P,512.702271
1159,P,635.641052
1160,P,635.641052
1161,P,514.570312
1162,P,514.570312
1163,P,636.770447
1164,P,636.770447
1165,P,637.297546
1166,P,637.297546
1167,P,1959.16626
1168,P,1959.16626
1169,P,1959.26416
1170,P,1959.26416
1171,P,-2198.93115
1172,P,-2198.93115
1173,P,1953.63977
1174,P,1953.63977
1175,P,1952.02991
1176,P,1952.02991
1177,P,1219.4718
1178,P,1219.4718
1179,P,1215.07861
1180,P,1215.07861
1181,P,-2197.41431
1182,P,-2197.41431
1183,P,1927.26709
1184,P,1927.26709
1185,P,1946.69885
1186,P,1946.69885
1187,P,1195.04468
1188,P,1195.04468
1189,P,1209.74731
1190,P,1209.74731
1191,P,514.525391
1192,P,514.525391
1193,P,636.733765
1194,P,636.733765
1195,P,637.269409
1196,P,637.269409
1197,P,512.627014
1198,P,512.627014
1199,P,635.590759
1200,P,635.590759
1201,P,1911.94995
1202,P,1911.94995
1203,P,-2184.89917
1204,P,-2184.89917
1205,P,1876.46753
1206,P,1876.46753
1207,P,1183.31128
1208,P,1183.31128
1209,P,1154.71228
1210,P,1154.71228
1211,P,-2182.25952
1212,P,-2182.25952
1213,P,1784.94934
1214,P,1784.94934
1215,P,1848.73499
1216,P,1848.73499
1217,P,1082.25671
1218,P,1082.25671
1219,P,1132.88806
1220,P,1132.88806
1221,P,490.208099
1222,P,490.208099
1223,P,607.122803
1224,P,607.122803
1225,P,481.975861
1226,P,481.975861
1227,P,603.007019
1228,P,603.007019
1229,P,600.255127
1230,P,600.255127
1231,P,1736.06873
1232,P,1736.06873
1233,P,1750.50647
1234,P,1750.50647
1235,P,-2142.35327
1236,P,-2142.35327
1237,P,1620.38086
1238,P,1620.38086
1239,P,1594.5127
1240,P,1594.5127
1241,P,1043.62781
1242,P,1043.62781
1243,P,978.889709
1244,P,978.889709
1245,P,-2121.87671
1246,P,-2121.87671
1247,P,1559.05359
1248,P,1559.05359
1249,P,1528.88184
1250,P,1528.88184
1251,P,924.179443
1252,P,924.179443
1253,P,983.416687
1254,P,983.416687
1255,P,454.973907
1256,P,454.973907
1257,P,572.558838
1258,P,572.558838
1259,P,577.708374
1260,P,577.708374
1261,P,461.380951
1262,P,461.380951
1263,P,576.16626
1264,P,576.16626
1265,P,-438.671753
1266,P,-438.671753
1267,P,-693.48999
1268,P,-693.48999
1269,P,-730.086792
1270,P,-730.086792
1271,P,418.258514
1272,P,418.258514
1273,P,247.039886
1274,P,247.039886
1275,P,268.315613
1276,P,268.315613
1277,P,-73.3889084
1278,P,-73.3889084
1279,P,-73.3889084
1280,P,-228.723114
1281,P,-228.723114
1282,P,-228.723114
1283,P,-140.271255
1284,P,-140.271255
1285,P,-18.3539276
1286,P,-18.3539276
1287,P,-164.795532
1288,P,-164.795532
1289,P,-107.653969
1290,P,-107.653969
1291,P,-610.068542
1292,P,-610.068542
1293,P,-621.699219
1294,P,-621.699219
1295,P,-995.03009
1296,P,-995.03009
1297,P,-986.858643
1298,P,-986.858643
1299,P,-641.820435
1300,P,-641.820435
1301,P,-632.785828
1302,P,-632.785828
1303,P,388.43042
1304,P,388.43042
1305,P,77.8577194
1306,P,77.8577194
1307,P,95.5283585
1308,P,95.5283585
1309,P,-774.248962
1310,P,-774.248962
1311,P,-774.248962
1312,P,-850.552612
1313,P,-850.552612
1314,P,-850.552612
1315,P,290.677063
1316,P,290.677063
1317,P,236.809448
1318,P,236.809448
1319,P,287.813782
1320,P,287.813782
1321,P,249.412415
1322,P,249.412415
1323,P,-727.029968
1324,P,-727.029968
1325,P,-1073.31152
1326,P,-1073.31152
1327,P,-1074.92993
1328,P,-1074.92993
1329,P,415.66687
1330,P,415.66687
1331,P,-14.2238083
1332,P,-14.2238083
1333,P,-16.9092102
1334,P,-16.9092102
1335,P,-1062.56213
1336,P,-1062.56213
1337,P,-1062.56213
1338,P,-1067.74487
1339,P,-1067.74487
1340,P,-1067.74487
1341,P,158.056274
1342,P,158.056274
1343,P,144.930481
1344,P,144.930481
1345,P,159.401871
1346,P,159.401871
1347,P,185.557953
1348,P,185.557953
1349,P,-745.545959
1350,P,-745.545959
1351,P,-1087.40771
1352,P,-1087.40771
1353,P,-1088.42712
1354,P,-1088.42712
1355,P,-745.295593
1356,P,-745.295593
1357,P,418.789062
1358,P,418.789062
1359,P,-13.8454351
1360,P,-13.8454351
1361,P,-26.9000168
1362,P,-26.9000168
1363,P,-312.710815
1364,P,-312.710815
1365,P,-1050.43335
1366,P,-1050.43335
1367,P,-1050.43335
1368,P,-73.2241516
1369,P,-73.2241516
1370,P,-65.0794373
1371,P,-65.0794373
1372,P,-36.32938
1373,P,-36.32938
1374,P,189.482239
1375,P,189.482239
1376,P,-724.320068
1377,P,-724.320068
1378,P,-1057.1731
1379,P,-1057.1731
1380,P,-1062.27454
1381,P,-1062.27454
1382,P,-711.553345
1383,P,-711.553345
1384,P,-716.773926
1385,P,-716.773926
1386,P,403.238495
1387,P,403.238495
1388,P,58.2983742
1389,P,58.2983742
1390,P,-0.673505366
1391,P,-0.673505366
1392,P,-961.314087
1393,P,-961.314087
1394,P,-961.314087
1395,P,-901.148315
1396,P,-901.148315
1397,P,-901.148315
1398,P,124.006401
1399,P,124.006401
1400,P,142.909378
1401,P,142.909378
1402,P,122.603012
1403,P,122.603012
1404,P,221.762146
1405,P,221.762146
1406,P,-905.912354
1407,P,-905.912354
1408,P,-927.44696
1409,P,-927.44696
1410,P,-579.584045
1411,P,-579.584045
1412,P,-579.823975
1413,P,-579.823975
1414,P,372.088959
1415,P,372.088959
1416,P,163.600327
1417,P,163.600327
1418,P,131.7939
1419,P,131.7939
1420,P,-385.929352
1421,P,-385.929352
1422,P,-385.929352
1423,P,-288.159271
1424,P,-288.159271
1425,P,-288.159271
1426,P,-120.674927
1427,P,-120.674927
1428,P,222.317978
1429,P,222.317978
1430,P,-144.495087
1431,P,-144.495087
1432,P,-85.1175537
1433,P,-85.1175537
1434,P,1797.05212
1435,P,1797.05212
1436,P,1645.69958
1437,P,1645.69958
1438,P,1580.73816
1439,P,1580.73816
1440,P,1873.38794
1441,P,1873.38794
1442,P,-2058.48242
1443,P,-2058.48242
1444,P,727.633728
1445,P,727.633728
1446,P,660.020874
1447,P,660.020874
1448,P,716.414062
1449,P,716.414062
1450,P,638.537598
1451,P,638.537598
1452,P,716.071289
1453,P,716.071289
1454,P,710.739685
1455,P,710.739685
1456,P,2326.54492
1457,P,2326.54492
1458,P,2010.97717
1459,P,2010.97717
1460,P,2298.6875
1461,P,2298.6875
1462,P,2034.7323
1463,P,2034.7323
1464,P,-2165.53052
1465,P,-2165.53052
1466,P,633.679077
1467,P,633.679077
1468,P,704.11969
1469,P,704.11969
1470,P,628.346252
1471,P,628.346252
1472,P,624.111572
1473,P,624.111572
1474,P,691.243225
1475,P,691.243225
1476,P,624.249084
1477,P,624.249084
1478,P,271.003693
1479,P,271.003693
1480,P,274.552765
1481,P,274.552765
1482,P,190.709488
1483,P,190.709488
1484,P,174.367981
1485,P,174.367981
1486,P,512.56366
1487,P,512.56366
1488,P,589.462952
1489,P,589.462952
1490,P,250.109772
1491,P,250.109772
1492,P,226.608948
1493,P,226.608948
1494,P,208.569687
1495,P,208.569687
1496,P,177.699173
1497,P,177.699173
1498,P,325.335388
1499,P,325.335388
1500,P,305.709015
1501,P,305.709015
1502,P,457.788452
1503,P,457.788452
1504,P,583.022461
1505,P,583.022461
1506,P,133.062057
1507,P,133.062057
1508,P,183.205414
1509,P,183.205414
1510,P,206.267044
1511,P,206.267044
1512,P,139.045303
1513,P,139.045303
1514,P,305.735748
1515,P,305.735748
1516,P,304.696228
1517,P,304.696228
1518,P,2450.53809
1519,P,2450.53809
1520,P,2156.49707
1521,P,2156.49707
1522,P,2140.80396
1523,P,2140.80396
1524,P,2469.09277
1525,P,2469.09277
1526,P,-2176.00854
1527,P,-2176.00854
1528,P,640.127197
1529,P,640.127197
1530,P,732.382446
1531,P,732.382446
1532,P,645.826233
1533,P,645.826233
1534,P,740.493347
1535,P,740.493347
1536,P,657.587341
1537,P,657.587341
1538,P,652.066467
1539,P,652.066467
1540,P,2612.2937
1541,P,2612.2937
1542,P,2269.10913
1543,P,2269.10913
1544,P,2602.85303
1545,P,2602.85303
1546,P,2276.80078
1547,P,2276.80078
1548,P,-2189.09351
1549,P,-2189.09351
1550,P,705.879395
1551,P,705.879395
1552,P,801.397949
1553,P,801.397949
1554,P,703.424316
1555,P,703.424316
1556,P,697.40332
1557,P,697.40332
1558,P,797.773926
1559,P,797.773926
1560,P,700.291931
1561,P,700.291931
1562,P,81.1485138
1563,P,81.1485138
1564,P,85.6324844
1565,P,85.6324844
1566,P,106.451714
1567,P,106.451714
1568,P,165.980026
1569,P,165.980026
1570,P,469.968719
1571,P,469.968719
1572,P,589.613098
1573,P,589.613098
1574,P,80.3643646
1575,P,80.3643646
1576,P,90.5624542
1577,P,90.5624542
1578,P,175.757523
1579,P,175.757523
1580,P,269.242035
1581,P,269.242035
1582,P,-1.46239674
1583,P,-1.46239674
1584,P,-11.3130598
1585,P,-11.3130598
1586,P,499.781006
1587,P,499.781006
1588,P,618.25647
1589,P,618.25647
1590,P,-11.319232
1591,P,-11.319232
1592,P,-10.2320995
1593,P,-10.2320995
1594,P,-1.79334414
1595,P,-1.79334414
1596,P,-8.48801517
1597,P,-8.48801517
1598,P,-13.7367859
1599,P,-13.7367859
1600,P,-9.25160599
1601,P,-9.25160599
1602,P,2650.86621
1603,P,2650.86621
1604,P,2315.39111
1605,P,2315.39111
1606,P,2310.65356
1607,P,2310.65356
1608,P,2655.30298
1609,P,2655.30298
1610,P,-2195.80054
1611,P,-2195.80054
1612,P,708.608093
1613,P,708.608093
1614,P,809.627563
1615,P,809.627563
1616,P,710.618591
1617,P,710.618591
1618,P,812.314392
1619,P,812.314392
1620,P,714.74585
1621,P,714.74585
1622,P,712.92511
1623,P,712.92511
1624,P,2688.32812
1625,P,2688.32812
1626,P,2342.92456
1627,P,2342.92456
1628,P,2687.11597
1629,P,2687.11597
1630,P,2343.92236
1631,P,2343.92236
1632,P,-2199.27979
1633,P,-2199.27979
1634,P,725.289246
1635,P,725.289246
1636,P,826.754883
1637,P,826.754883
1638,P,725.183594
1639,P,725.183594
1640,P,724.615723
1641,P,724.615723
1642,P,826.442505
1643,P,826.442505
1644,P,724.932495
1645,P,724.932495
1646,P,-15.5580845
1647,P,-15.5580845
1648,P,-21.1139622
1649,P,-21.1139622
1650,P,-16.3929977
1651,P,-16.3929977
1652,P,-12.2098179
1653,P,-12.2098179
1654,P,508.323639
1655,P,508.323639
1656,P,631.253235
1657,P,631.253235
1658,P,-15.8737984
1659,P,-15.8737984
1660,P,-17.4477329
1661,P,-17.4477329
1662,P,-19.5555782
1663,P,-19.5555782
1664,P,-11.2948723
1665,P,-11.2948723
1666,P,-21.2710876
1667,P,-21.2710876
1668,P,-28.8824673
1669,P,-28.8824673
1670,P,515.859863
1671,P,515.859863
1672,P,638.631714
1673,P,638.631714
1674,P,-26.7622452
1675,P,-26.7622452
1676,P,-22.6509399
1677,P,-22.6509399
1678,P,-21.498148
1679,P,-21.498148
1680,P,-26.1539631
1681,P,-26.1539631
1682,P,-29.0979462
1683,P,-29.0979462
1684,P,-22.0081863
1685,P,-22.0081863
1686,P,2688.31421
1687,P,2688.31421
1688,P,2342.9082
1689,P,2342.9082
1690,P,2343.90771
1691,P,2343.90771
1692,P,2687.10132
1693,P,2687.10132
1694,P,-2199.28491
1695,P,-2199.28491
1696,P,725.289734
1697,P,725.289734
1698,P,826.762329
1699,P,826.762329
1700,P,725.186951
1701,P,725.186951
1702,P,826.449707
1703,P,826.449707
1704,P,724.617859
1705,P,724.617859
1706,P,724.935242
1707,P,724.935242
1708,P,2650.84448
1709,P,2650.84448
1710,P,2315.36914
1711,P,2315.36914
1712,P,2655.302
1713,P,2655.302
1714,P,2310.63989
1715,P,2310.63989
1716,P,-2195.77783
1717,P,-2195.77783
1718,P,708.55719
1719,P,708.55719
1720,P,809.592346
1721,P,809.592346
1722,P,710.567139
1723,P,710.567139
1724,P,714.700012
1725,P,714.700012
1726,P,812.280212
1727,P,812.280212
1728,P,712.877869
1729,P,712.877869
1730,P,-21.2949562
1731,P,-21.2949562
1732,P,-28.8957577
1733,P,-28.8957577
1734,P,-26.7798328
1735,P,-26.7798328
1736,P,-22.6549072
1737,P,-22.6549072
1738,P,515.842468
1739,P,515.842468
1740,P,638.620605
1741,P,638.620605
1742,P,-21.5293827
1743,P,-21.5293827
1744,P,-26.1818142
1745,P,-26.1818142
1746,P,-29.1064243
1747,P,-29.1064243
1748,P,-22.0109577
1749,P,-22.0109577
1750,P,-15.5986643
1751,P,-15.5986643
1752,P,-21.1388092
1753,P,-21.1388092
1754,P,508.210785
1755,P,508.210785
1756,P,631.173035
1757,P,631.173035
1758,P,-16.4536743
1759,P,-16.4536743
1760,P,-12.2569523
1761,P,-12.2569523
1762,P,-15.9264965
1763,P,-15.9264965
1764,P,-17.5083866
1765,P,-17.5083866
1766,P,-19.5765343
1767,P,-19.5765343
1768,P,-11.326292
1769,P,-11.326292
1770,P,2612.26489
1771,P,2612.26489
1772,P,2269.09082
1773,P,2269.09082
1774,P,2276.75928
1775,P,2276.75928
1776,P,2602.85474
1777,P,2602.85474
1778,P,-2189.06494
1779,P,-2189.06494
1780,P,705.825439
1781,P,705.825439
1782,P,801.367859
1783,P,801.367859
1784,P,703.366516
1785,P,703.366516
1786,P,797.738098
1787,P,797.738098
1788,P,697.333313
1789,P,697.333313
1790,P,700.228943
1791,P,700.228943
1792,P,2450.57349
1793,P,2450.57349
1794,P,2156.53247
1795,P,2156.53247
1796,P,2469.17676
1797,P,2469.17676
1798,P,2140.82544
1799,P,2140.82544
1800,P,-2175.95776
1801,P,-2175.95776
1802,P,639.753662
1803,P,639.753662
1804,P,732.130066
1805,P,732.130066
1806,P,645.486755
1807,P,645.486755
1808,P,657.319885
1809,P,657.319885
1810,P,740.267395
1811,P,740.267395
1812,P,651.765381
1813,P,651.765381
1814,P,-1.47952592
1815,P,-1.47952592
1816,P,-11.3190241
1817,P,-11.3190241
1818,P,-11.3774567
1819,P,-11.3774567
1820,P,-10.2772913
1821,P,-10.2772913
1822,P,499.59317
1823,P,499.59317
1824,P,618.113403
1825,P,618.113403
1826,P,-1.83198357
1827,P,-1.83198357
1828,P,-8.54526806
1829,P,-8.54526806
1830,P,-13.7470417
1831,P,-13.7470417
1832,P,-9.28018856
1833,P,-9.28018856
1834,P,81.1538696
1835,P,81.1538696
1836,P,85.6479492
1837,P,85.6479492
1838,P,469.47699
1839,P,469.47699
1840,P,589.229431
1841,P,589.229431
1842,P,106.368401
1843,P,106.368401
1844,P,165.897141
1845,P,165.897141
1846,P,80.3453979
1847,P,80.3453979
1848,P,90.5048828
1849,P,90.5048828
1850,P,175.756454
1851,P,175.756454
1852,P,269.171875
1853,P,269.171875
1854,P,2326.646
1855,P,2326.646
1856,P,2011.11755
1857,P,2011.11755
1858,P,2034.80847
1859,P,2034.80847
1860,P,2298.85181
1861,P,2298.85181
1862,P,-2165.47754
1863,P,-2165.47754
1864,P,633.270142
1865,P,633.270142
1866,P,703.798584
1867,P,703.798584
1868,P,627.904724
1869,P,627.904724
1870,P,690.897705
1871,P,690.897705
1872,P,623.590942
1873,P,623.590942
1874,P,623.770264
1875,P,623.770264
1876,P,1797.41077
1877,P,1797.41077
1878,P,1646.03174
1879,P,1646.03174
1880,P,1873.72266
1881,P,1873.72266
1882,P,1581.10815
1883,P,1581.10815
1884,P,-2058.38623
1885,P,-2058.38623
1886,P,726.243896
1887,P,726.243896
1888,P,659.079407
1889,P,659.079407
1890,P,715.145691
1891,P,715.145691
1892,P,715.082703
1893,P,715.082703
1894,P,637.811829
1895,P,637.811829
1896,P,709.684509
1897,P,709.684509
1898,P,325.15155
1899,P,325.15155
1900,P,305.605255
1901,P,305.605255
1902,P,132.87085
1903,P,132.87085
1904,P,183.096405
1905,P,183.096405
1906,P,457.021942
1907,P,457.021942
1908,P,582.31134
1909,P,582.31134
1910,P,206.034943
1911,P,206.034943
1912,P,138.797256
1913,P,138.797256
1914,P,305.651428
1915,P,305.651428
1916,P,304.611603
1917,P,304.611603
1918,P,274.440796
1919,P,274.440796
1920,P,270.890106
1921,P,270.890106
1922,P,509.377197
1923,P,509.377197
1924,P,587.725525
1925,P,587.725525
1926,P,175.588531
1927,P,175.588531
1928,P,190.437546
1929,P,190.437546
1930,P,208.76033
1931,P,208.76033
1932,P,179.419083
1933,P,179.419083
1934,P,250.011734
1935,P,250.011734
1936,P,226.411728
1937,P,226.411728
1938,P,584.197021
1939,P,584.197021
1940,P,-16.2445564
1941,P,-16.2445564
1942,P,-652.666138
1943,P,-652.666138
1944,P,-656.12616
1945,P,-656.12616
1946,P,-939.154846
1947,P,-939.154846
1948,P,-888.557739
1949,P,-888.557739
1950,P,170.287964
1951,P,170.287964
1952,P,373.132843
1953,P,373.132843
1954,P,164.40416
1955,P,164.40416
1956,P,132.297287
1957,P,132.297287
1958,P,-385.479095
1959,P,-385.479095
1960,P,-385.479095
1961,P,-285.524689
1962,P,-285.524689
1963,P,-285.524689
1964,P,-120.562843
1965,P,-120.562843
1966,P,222.455643
1967,P,222.455643
1968,P,-144.446075
1969,P,-144.446075
1970,P,-84.6522598
1971,P,-84.6522598
1972,P,-48.325779
1973,P,-48.325779
1974,P,-1004.15631
1975,P,-1004.15631
1976,P,-1012.82947
1977,P,-1012.82947
1978,P,-677.123108
1979,P,-677.123108
1980,P,-670.025269
1981,P,-670.025269
1982,P,403.531708
1983,P,403.531708
1984,P,58.3491669
1985,P,58.3491669
1986,P,-0.616449237
1987,P,-0.616449237
1988,P,-961.476196
1989,P,-961.476196
1990,P,-961.476196
1991,P,-901.313354
1992,P,-901.313354
1993,P,-901.313354
1994,P,123.789604
1995,P,123.789604
1996,P,142.731995
1997,P,142.731995
1998,P,122.38591
1999,P,122.38591
2000,P,221.602493
2001,P,221.602493
2002,P,-123.952095
2003,P,-123.952095
2004,P,-1076.04529
2005,P,-1076.04529
2006,P,-1077.51648
2007,P,-1077.51648
2008,P,418.828827
2009,P,418.828827
2010,P,-13.7838211
2011,P,-13.7838211
2012,P,-26.8507786
2013,P,-26.8507786
2014,P,-312.725922
2015,P,-312.725922
2016,P,-1050.4646
2017,P,-1050.4646
2018,P,-1050.4646
2019,P,-73.288559
2020,P,-73.288559
2021,P,-65.0855179
2022,P,-65.0855179
2023,P,-36.4035072
2024,P,-36.4035072
2025,P,189.375839
2026,P,189.375839
2027,P,-1086.55872
2028,P,-1086.55872
2029,P,-1085.9408
2030,P,-1085.9408
2031,P,-738.973694
2032,P,-738.973694
2033,P,-740.847412
2034,P,-740.847412
2035,P,415.556183
2036,P,415.556183
2037,P,-14.2849884
2038,P,-14.2849884
2039,P,-16.9710083
2040,P,-16.9710083
2041,P,-1062.4679
2042,P,-1062.4679
2043,P,-1062.4679
2044,P,-1067.68311
2045,P,-1067.68311
2046,P,-1067.68311
2047,P,158.140549
2048,P,158.140549
2049,P,145.092148
2050,P,145.092148
2051,P,159.481598
2052,P,159.481598
2053,P,185.649429
2054,P,185.649429
2055,P,-108.760437
2056,P,-108.760437
2057,P,-1051.79004
2058,P,-1051.79004
2059,P,-1046.98853
2060,P,-1046.98853
2061,P,-692.877869
2062,P,-692.877869
2063,P,387.948456
2064,P,387.948456
2065,P,77.8132401
2066,P,77.8132401
2067,P,95.4883347
2068,P,95.4883347
2069,P,-774.15979
2070,P,-774.15979
2071,P,-774.15979
2072,P,-850.404968
2073,P,-850.404968
2074,P,-850.404968
2075,P,290.658691
2076,P,290.658691
2077,P,236.677917
2078,P,236.677917
2079,P,287.816406
2080,P,287.816406
2081,P,249.552124
2082,P,249.552124
2083,P,-21.770874
2084,P,-21.770874
2085,P,-9.19156075
2086,P,-9.19156075
2087,P,-872.689331
2088,P,-872.689331
2089,P,-764.34906
2090,P,-764.34906
2091,P,-978.634338
2092,P,-978.634338
2093,P,-984.923767
2094,P,-984.923767
2095,P,123.782318
2096,P,123.782318
2097,P,415.328705
2098,P,415.328705
2099,P,246.285034
2100,P,246.285034
2101,P,270.643311
2102,P,270.643311
2103,P,-137.737946
2104,P,-137.737946
2105,P,-137.737946
2106,P,-234.10968
2107,P,-234.10968
2108,P,-234.10968
2109,P,-92.862381
2110,P,-92.862381
2111,P,-143.054825
2112,P,-143.054825
2113,P,-107.819717
2114,P,-107.819717
2115,P,583.960938
2116,P,583.960938
2117,P,1202.36987
2118,P,1202.36987
2119,P,1416.70874
2120,P,1416.70874
2121,P,1359.75525
2122,P,1359.75525
2123,P,1252.97009
2124,P,1252.97009
2125,P,1631.3606
2126,P,1631.3606
2127,P,1694.16943
2128,P,1694.16943
2129,P,2003.2959
2130,P,2003.2959
2131,P,1708.57385
2132,P,1708.57385
2133,P,1946.22058
2134,P,1946.22058
2135,P,1756.88171
2136,P,1756.88171
2137,P,-2111.49634
2138,P,-2111.49634
2139,P,1332.55969
2140,P,1332.55969
2141,P,1472.44836
2142,P,1472.44836
2143,P,1301.76086
2144,P,1301.76086
2145,P,1513.47949
2146,P,1513.47949
2147,P,1629.68481
2148,P,1629.68481
2149,P,1747.90051
2150,P,1747.90051
2151,P,1037.2074
2152,P,1037.2074
2153,P,290.205261
2154,P,290.205261
2155,P,1020.2948
2156,P,1020.2948
2157,P,966.559082
2158,P,966.559082
2159,P,219.458878
2160,P,219.458878
2161,P,764.174316
2162,P,764.174316
2163,P,653.437378
2164,P,653.437378
2165,P,755.278381
2166,P,755.278381
2167,P,726.35144
2168,P,726.35144
2169,P,637.964233
2170,P,637.964233
2171,P,740.413635
2172,P,740.413635
2173,P,1013.2995
2174,P,1013.2995
2175,P,39.2172508
2176,P,39.2172508
2177,P,1129.58228
2178,P,1129.58228
2179,P,1054.34045
2180,P,1054.34045
2181,P,76.7765503
2182,P,76.7765503
2183,P,1090.31531
2184,P,1090.31531
2185,P,2231.36914
2186,P,2231.36914
2187,P,1980.90234
2188,P,1980.90234
2189,P,2263.90405
2190,P,2263.90405
2191,P,1953.04419
2192,P,1953.04419
2193,P,-2149.6416
2194,P,-2149.6416
2195,P,1557.44971
2196,P,1557.44971
2197,P,1742.02893
2198,P,1742.02893
2199,P,1763.67065
2200,P,1763.67065
2201,P,1537.30432
2202,P,1537.30432
2203,P,1714.87476
2204,P,1714.87476
2205,P,1697.6377
2206,P,1697.6377
2207,P,1487.33936
2208,P,1487.33936
2209,P,1714.22009
2210,P,1714.22009
2211,P,1688.81519
2212,P,1688.81519
2213,P,1511.12976
2214,P,1511.12976
2215,P,1650.02954
2216,P,1650.02954
2217,P,1670.3822
2218,P,1670.3822
2219,P,759.045227
2220,P,759.045227
2221,P,705.830322
2222,P,705.830322
2223,P,720.502625
2224,P,720.502625
2225,P,630.57782
2226,P,630.57782
2227,P,679.337524
2228,P,679.337524
2229,P,662.135986
2230,P,662.135986
2231,P,797.322937
2232,P,797.322937
2233,P,942.240479
2234,P,942.240479
2235,P,1027.91699
2236,P,1027.91699
2237,P,778.663391
2238,P,778.663391
2239,P,913.904663
2240,P,913.904663
2241,P,927.953064
2242,P,927.953064
2243,P,278.259735
2244,P,278.259735
2245,P,1014.03833
2246,P,1014.03833
2247,P,985.98938
2248,P,985.98938
2249,P,603.611511
2250,P,603.611511
2251,P,-168.994949
2252,P,-168.994949
2253,P,-218.276428
2254,P,-218.276428
2255,P,292.070007
2256,P,292.070007
2257,P,321.148834
2258,P,321.148834
2259,P,469.708344
2260,P,469.708344
2261,P,584.821167
2262,P,584.821167
2263,P,190.027283
2264,P,190.027283
2265,P,224.531036
2266,P,224.531036
2267,P,216.755554
2268,P,216.755554
2269,P,188.795334
2270,P,188.795334
2271,P,331.598175
2272,P,331.598175
2273,P,322.803467
2274,P,322.803467
2275,P,-294.641693
2276,P,-294.641693
2277,P,-260.703339
2278,P,-260.703339
2279,P,-542.748291
2280,P,-542.748291
2281,P,123.774292
2282,P,123.774292
2283,P,324.128998
2284,P,324.128998
2285,P,300.652802
2286,P,300.652802
2287,P,455.52005
2288,P,455.52005
2289,P,584.800781
2290,P,584.800781
2291,P,583.737366
2292,P,583.737366
2293,P,158.688889
2294,P,158.688889
2295,P,219.693909
2296,P,219.693909
2297,P,209.423019
2298,P,209.423019
2299,P,152.424042
2300,P,152.424042
2301,P,306.029846
2302,P,306.029846
2303,P,323.279999
2304,P,323.279999
2305,P,388.881073
2306,P,388.881073
2307,P,376.36142
2308,P,376.36142
2309,P,315.496948
2310,P,315.496948
2311,P,355.954987
2312,P,355.954987
2313,P,1648.39526
2314,P,1648.39526
2315,P,1875.12756
2316,P,1875.12756
2317,P,1860.94922
2318,P,1860.94922
2319,P,1661.47534
2320,P,1661.47534
2321,P,1801.03027
2322,P,1801.03027
2323,P,2505.77173
2324,P,2505.77173
2325,P,2173.88599
2326,P,2173.88599
2327,P,2489.52905
2328,P,2489.52905
2329,P,2187.59058
2330,P,2187.59058
2331,P,-2181.14819
2332,P,-2181.14819
2333,P,1687.58911
2334,P,1687.58911
2335,P,1890.98022
2336,P,1890.98022
2337,P,1676.25696
2338,P,1676.25696
2339,P,1903.31873
2340,P,1903.31873
2341,P,1836.72168
2342,P,1836.72168
2343,P,1827.39624
2344,P,1827.39624
2345,P,832.16687
2346,P,832.16687
2347,P,1094.552
2348,P,1094.552
2349,P,841.636108
2350,P,841.636108
2351,P,993.901672
2352,P,993.901672
2353,P,986.201233
2354,P,986.201233
2355,P,677.880859
2356,P,677.880859
2357,P,766.557251
2358,P,766.557251
2359,P,673.45697
2360,P,673.45697
2361,P,663.356018
2362,P,663.356018
2363,P,760.377136
2364,P,760.377136
2365,P,668.282837
2366,P,668.282837
2367,P,1123.69336
2368,P,1123.69336
2369,P,1023.41089
2370,P,1023.41089
2371,P,871.528625
2372,P,871.528625
2373,P,1017.76929
2374,P,1017.76929
2375,P,864.492004
2376,P,864.492004
2377,P,1010.31372
2378,P,1010.31372
2379,P,2579.70142
2380,P,2579.70142
2381,P,2259.01587
2382,P,2259.01587
2383,P,2590.7561
2384,P,2590.7561
2385,P,2249.91968
2386,P,2249.91968
2387,P,-2186.15601
2388,P,-2186.15601
2389,P,1762.0708
2390,P,1762.0708
2391,P,1977.08667
2392,P,1977.08667
2393,P,1983.96252
2394,P,1983.96252
2395,P,1755.81262
2396,P,1755.81262
2397,P,1905.27625
2398,P,1905.27625
2399,P,1739.87927
2400,P,1739.87927
2401,P,1967.92737
2402,P,1967.92737
2403,P,1959.80054
2404,P,1959.80054
2405,P,1747.30237
2406,P,1747.30237
2407,P,1885.72559
2408,P,1885.72559
2409,P,1891.39062
2410,P,1891.39062
2411,P,682.521729
2412,P,682.521729
2413,P,781.578735
2414,P,781.578735
2415,P,686.321899
2416,P,686.321899
2417,P,693.811768
2418,P,693.811768
2419,P,786.339478
2420,P,786.339478
2421,P,690.405212
2422,P,690.405212
2423,P,1062.43347
2424,P,1062.43347
2425,P,910.649658
2426,P,910.649658
2427,P,1059.54248
2428,P,1059.54248
2429,P,1178.05237
2430,P,1178.05237
2431,P,906.611145
2432,P,906.611145
2433,P,1051.80737
2434,P,1051.80737
2435,P,1055.36609
2436,P,1055.36609
2437,P,888.492554
2438,P,888.492554
2439,P,1161.78491
2440,P,1161.78491
2441,P,893.849243
2442,P,893.849243
2443,P,1041.97913
2444,P,1041.97913
2445,P,108.027542
2446,P,108.027542
2447,P,22.4444561
2448,P,22.4444561
2449,P,-101.089333
2450,P,-101.089333
2451,P,61.0822105
2452,P,61.0822105
2453,P,57.148613
2454,P,57.148613
2455,P,18.016592
2456,P,18.016592
2457,P,479.111359
2458,P,479.111359
2459,P,593.919067
2460,P,593.919067
2461,P,56.2855148
2462,P,56.2855148
2463,P,32.525528
2464,P,32.525528
2465,P,64.5690765
2466,P,64.5690765
2467,P,64.122406
2468,P,64.122406
2469,P,13.499835
2470,P,13.499835
2471,P,23.7259216
2472,P,23.7259216
2473,P,37.4566841
2474,P,37.4566841
2475,P,43.8571701
2476,P,43.8571701
2477,P,2.26124406
2478,P,2.26124406
2479,P,-2.05765486
2480,P,-2.05765486
2481,P,493.203613
2482,P,493.203613
2483,P,615.133484
2484,P,615.133484
2485,P,19.2012939
2486,P,19.2012939
2487,P,23.7217407
2488,P,23.7217407
2489,P,2.72474861
2490,P,2.72474861
2491,P,8.32527161
2492,P,8.32527161
2493,P,1.66440618
2494,P,1.66440618
2495,P,17.2148056
2496,P,17.2148056
2497,P,13.8576126
2498,P,13.8576126
2499,P,16.1015282
2500,P,16.1015282
2501,P,21.4946346
2502,P,21.4946346
2503,P,19.0409107
2504,P,19.0409107
2505,P,1790.60645
2506,P,1790.60645
2507,P,2019.1366
2508,P,2019.1366
2509,P,2014.85767
2510,P,2014.85767
2511,P,1794.45923
2512,P,1794.45923
2513,P,1932.82227
2514,P,1932.82227
2515,P,1935.85669
2516,P,1935.85669
2517,P,2665.17896
2518,P,2665.17896
2519,P,2320.30957
2520,P,2320.30957
2521,P,2660.51245
2522,P,2660.51245
2523,P,2324.42188
2524,P,2324.42188
2525,P,-2197.06079
2526,P,-2197.06079
2527,P,1802.06384
2528,P,1802.06384
2529,P,2023.63672
2530,P,2023.63672
2531,P,1798.63904
2532,P,1798.63904
2533,P,2027.38013
2534,P,2027.38013
2535,P,1943.62854
2536,P,1943.62854
2537,P,1941.09387
2538,P,1941.09387
2539,P,1067.07434
2540,P,1067.07434
2541,P,919.806641
2542,P,919.806641
2543,P,1069.64697
2544,P,1069.64697
2545,P,1198.93213
2546,P,1198.93213
2547,P,922.894226
2548,P,922.894226
2549,P,720.724426
2550,P,720.724426
2551,P,820.045288
2552,P,820.045288
2553,P,719.550659
2554,P,719.550659
2555,P,716.606628
2556,P,716.606628
2557,P,818.330994
2558,P,818.330994
2559,P,718.094116
2560,P,718.094116
2561,P,1207.30579
2562,P,1207.30579
2563,P,931.679443
2564,P,931.679443
2565,P,1082.55835
2566,P,1082.55835
2567,P,1078.84204
2568,P,1078.84204
2569,P,929.758728
2570,P,929.758728
2571,P,1080.61841
2572,P,1080.61841
2573,P,2683.10083
2574,P,2683.10083
2575,P,2341.30542
2576,P,2341.30542
2577,P,2685.18701
2578,P,2685.18701
2579,P,2339.56958
2580,P,2339.56958
2581,P,-2199.44385
2582,P,-2199.44385
2583,P,1818.26843
2584,P,1818.26843
2585,P,2044.14197
2586,P,2044.14197
2587,P,2045.02441
2588,P,2045.02441
2589,P,1817.46558
2590,P,1817.46558
2591,P,1958.67908
2592,P,1958.67908
2593,P,1958.03845
2594,P,1958.03845
2595,P,1814.77625
2596,P,1814.77625
2597,P,2042.69336
2598,P,2042.69336
2599,P,2041.17151
2600,P,2041.17151
2601,P,1816.13477
2602,P,1816.13477
2603,P,1955.67432
2604,P,1955.67432
2605,P,1956.62732
2606,P,1956.62732
2607,P,721.83905
2608,P,721.83905
2609,P,823.717712
2610,P,823.717712
2611,P,722.682129
2612,P,722.682129
2613,P,724.090027
2614,P,724.090027
2615,P,824.700134
2616,P,824.700134
2617,P,723.501404
2618,P,723.501404
2619,P,939.35083
2620,P,939.35083
2621,P,1090.81824
2622,P,1090.81824
2623,P,1219.0343
2624,P,1219.0343
2625,P,938.986572
2626,P,938.986572
2627,P,1090.0188
2628,P,1090.0188
2629,P,1090.46863
2630,P,1090.46863
2631,P,935.843628
2632,P,935.843628
2633,P,1087.16882
2634,P,1087.16882
2635,P,1216.54346
2636,P,1216.54346
2637,P,936.972961
2638,P,936.972961
2639,P,3.33287573
2640,P,3.33287573
2641,P,1.93880081
2642,P,1.93880081
2643,P,-16.6193924
2644,P,-16.6193924
2645,P,-24.2765503
2646,P,-24.2765503
2647,P,511.743713
2648,P,511.743713
2649,P,633.091858
2650,P,633.091858
2651,P,-18.3651237
2652,P,-18.3651237
2653,P,-17.656332
2654,P,-17.656332
2655,P,-16.6807842
2656,P,-16.6807842
2657,P,-18.4109459
2658,P,-18.4109459
2659,P,-25.1445332
2660,P,-25.1445332
2661,P,-18.3107491
2662,P,-18.3107491
2663,P,-0.694295824
2664,P,-0.694295824
2665,P,0.311703116
2666,P,0.311703116
2667,P,34.0958366
2668,P,34.0958366
2669,P,-135.488724
2670,P,-135.488724
2671,P,-20.6970959
2672,P,-20.6970959
2673,P,-27.6446304
2674,P,-27.6446304
2675,P,515.07135
2676,P,515.07135
2677,P,638.18512
2678,P,638.18512
2679,P,637.874329
2680,P,637.874329
2681,P,-19.0135498
2682,P,-19.0135498
2683,P,-18.1674461
2684,P,-18.1674461
2685,P,-20.572401
2686,P,-20.572401
2687,P,-20.7440052
2688,P,-20.7440052
2689,P,-27.0212803
2690,P,-27.0212803
2691,P,-18.9809151
2692,P,-18.9809151
2693,P,-6.23160362
2694,P,-6.23160362
2695,P,-5.97972298
2696,P,-5.97972298
2697,P,-5.0768466
2698,P,-5.0768466
2699,P,-5.48146057
2700,P,-5.48146057
2701,P,1818.24646
2702,P,1818.24646
2703,P,2044.12073
2704,P,2044.12073
2705,P,2045.00513
2706,P,2045.00513
2707,P,1817.44104
2708,P,1817.44104
2709,P,1958.66101
2710,P,1958.66101
2711,P,2683.0835
2712,P,2683.0835
2713,P,2341.2854
2714,P,2341.2854
2715,P,2685.16943
2716,P,2685.16943
2717,P,2339.54883
2718,P,2339.54883
2719,P,-2199.44385
2720,P,-2199.44385
2721,P,1814.74451
2722,P,1814.74451
2723,P,2042.66748
2724,P,2042.66748
2725,P,1816.10449
2726,P,1816.10449
2727,P,2041.14453
2728,P,2041.14453
2729,P,1955.64478
2730,P,1955.64478
2731,P,1956.59912
2732,P,1956.59912
2733,P,939.358459
2734,P,939.358459
2735,P,1219.02747
2736,P,1219.02747
2737,P,938.993408
2738,P,938.993408
2739,P,1090.02234
2740,P,1090.02234
2741,P,1090.47217
2742,P,1090.47217
2743,P,721.821167
2744,P,721.821167
2745,P,823.711914
2746,P,823.711914
2747,P,722.669983
2748,P,722.669983
2749,P,724.088257
2750,P,724.088257
2751,P,824.700073
2752,P,824.700073
2753,P,723.495789
2754,P,723.495789
2755,P,1216.53223
2756,P,1216.53223
2757,P,1086.04553
2758,P,1086.04553
2759,P,935.839966
2760,P,935.839966
2761,P,1087.16626
2762,P,1087.16626
2763,P,936.973938
2764,P,936.973938
2765,P,1088.38818
2766,P,1088.38818
2767,P,2665.17676
2768,P,2665.17676
2769,P,2320.29688
2770,P,2320.29688
2771,P,2660.51465
2772,P,2660.51465
2773,P,2324.40894
2774,P,2324.40894
2775,P,-2197.04004
2776,P,-2197.04004
2777,P,1790.5675
2778,P,1790.5675
2779,P,2019.10962
2780,P,2019.10962
2781,P,2014.82751
2782,P,2014.82751
2783,P,1794.43091
2784,P,1794.43091
2785,P,1932.80542
2786,P,1932.80542
2787,P,1802.03894
2788,P,1802.03894
2789,P,2023.61621
2790,P,2023.61621
2791,P,2027.35913
2792,P,2027.35913
2793,P,1798.6145
2794,P,1798.6145
2795,P,1943.60986
2796,P,1943.60986
2797,P,1941.06824
2798,P,1941.06824
2799,P,720.7005
2800,P,720.7005
2801,P,820.027954
2802,P,820.027954
2803,P,719.520874
2804,P,719.520874
2805,P,716.566162
2806,P,716.566162
2807,P,818.307556
2808,P,818.307556
2809,P,718.057678
2810,P,718.057678
2811,P,1067.05591
2812,P,1067.05591
2813,P,919.783142
2814,P,919.783142
2815,P,1069.6272
2816,P,1069.6272
2817,P,1198.91296
2818,P,1198.91296
2819,P,922.868835
2820,P,922.868835
2821,P,1075.55945
2822,P,1075.55945
2823,P,1073.15051
2824,P,1073.15051
2825,P,931.66925
2826,P,931.66925
2827,P,1207.29077
2828,P,1207.29077
2829,P,929.743286
2830,P,929.743286
2831,P,1080.60925
2832,P,1080.60925
2833,P,-6.23860836
2834,P,-6.23860836
2835,P,29.3472824
2836,P,29.3472824
2837,P,29.0540771
2838,P,29.0540771
2839,P,-5.98918438
2840,P,-5.98918438
2841,P,-20.7291851
2842,P,-20.7291851
2843,P,-27.6757584
2844,P,-27.6757584
2845,P,515.036255
2846,P,515.036255
2847,P,638.166992
2848,P,638.166992
2849,P,-19.0725994
2850,P,-19.0725994
2851,P,-18.2239494
2852,P,-18.2239494
2853,P,-20.6124878
2854,P,-20.6124878
2855,P,-20.7984009
2856,P,-20.7984009
2857,P,-27.0561905
2858,P,-27.0561905
2859,P,-19.0275879
2860,P,-19.0275879
2861,P,-5.09201908
2862,P,-5.09201908
2863,P,-5.49439573
2864,P,-5.49439573
2865,P,-16.6630344
2866,P,-16.6630344
2867,P,-24.3094254
2868,P,-24.3094254
2869,P,511.657623
2870,P,511.657623
2871,P,633.021179
2872,P,633.021179
2873,P,-18.4285316
2874,P,-18.4285316
2875,P,-17.71451
2876,P,-17.71451
2877,P,-16.7356606
2878,P,-16.7356606
2879,P,-18.4737854
2880,P,-18.4737854
2881,P,-25.1793976
2882,P,-25.1793976
2883,P,-18.3602943
2884,P,-18.3602943
2885,P,3.32695794
2886,P,3.32695794
2887,P,1.928689
2888,P,1.928689
2889,P,-0.705667913
2890,P,-0.705667913
2891,P,0.303563565
2892,P,0.303563565
2893,P,1761.98914
2894,P,1761.98914
2895,P,1977.0376
2896,P,1977.0376
2897,P,1983.90198
2898,P,1983.90198
2899,P,1755.73828
2900,P,1755.73828
2901,P,1905.20935
2902,P,1905.20935
2903,P,1900.38525
2904,P,1900.38525
2905,P,2579.72559
2906,P,2579.72559
2907,P,2258.9917
2908,P,2258.9917
2909,P,2590.73462
2910,P,2590.73462
2911,P,2249.88574
2912,P,2249.88574
2913,P,-2186.12427
2914,P,-2186.12427
2915,P,1739.80078
2916,P,1739.80078
2917,P,1967.87634
2918,P,1967.87634
2919,P,1747.22327
2920,P,1747.22327
2921,P,1959.73694
2922,P,1959.73694
2923,P,1885.67151
2924,P,1885.67151
2925,P,1891.29651
2926,P,1891.29651
2927,P,1062.4093
2928,P,1062.4093
2929,P,910.631165
2930,P,910.631165
2931,P,1059.52734
2932,P,1059.52734
2933,P,1178.00781
2934,P,1178.00781
2935,P,906.587585
2936,P,906.587585
2937,P,682.392029
2938,P,682.392029
2939,P,781.50415
2940,P,781.50415
2941,P,686.208984
2942,P,686.208984
2943,P,693.730713
2944,P,693.730713
2945,P,786.279846
2946,P,786.279846
2947,P,690.309814
2948,P,690.309814
2949,P,1161.73572
2950,P,1161.73572
2951,P,888.442383
2952,P,888.442383
2953,P,1036.22437
2954,P,1036.22437
2955,P,1046.09631
2956,P,1046.09631
2957,P,893.810913
2958,P,893.810913
2959,P,1041.94885
2960,P,1041.94885
2961,P,2505.81885
2962,P,2505.81885
2963,P,2173.92603
2964,P,2173.92603
2965,P,2489.58716
2966,P,2489.58716
2967,P,2187.57764
2968,P,2187.57764
2969,P,-2181.0979
2970,P,-2181.0979
2971,P,1648.37598
2972,P,1648.37598
2973,P,1875.10889
2974,P,1875.10889
2975,P,1860.95691
2976,P,1860.95691
2977,P,1661.41895
2978,P,1661.41895
2979,P,1800.97131
2980,P,1800.97131
2981,P,1811.52856
2982,P,1811.52856
2983,P,1687.5415
2984,P,1687.5415
2985,P,1890.97473
2986,P,1890.97473
2987,P,1903.27747
2988,P,1903.27747
2989,P,1676.20825
2990,P,1676.20825
2991,P,1836.67493
2992,P,1836.67493
2993,P,1827.34351
2994,P,1827.34351
2995,P,677.728271
2996,P,677.728271
2997,P,766.437012
2998,P,766.437012
2999,P,673.281372
3000,P,673.281372
3001,P,663.123047
3002,P,663.123047
3003,P,760.235535
3004,P,760.235535
3005,P,668.077148
3006,P,668.077148
3007,P,831.988037
3008,P,831.988037
3009,P,976.081848
3010,P,976.081848
3011,P,1094.47546
3012,P,1094.47546
3013,P,841.475891
3014,P,841.475891
3015,P,993.805603
3016,P,993.805603
3017,P,986.092896
3018,P,986.092896
3019,P,871.446411
3020,P,871.446411
3021,P,1017.70721
3022,P,1017.70721
3023,P,1123.62793
3024,P,1123.62793
3025,P,864.393188
3026,P,864.393188
3027,P,13.8707886
3028,P,13.8707886
3029,P,16.1219349
3030,P,16.1219349
3031,P,2.24814081
3032,P,2.24814081
3033,P,-2.04772973
3034,P,-2.04772973
3035,P,492.957245
3036,P,492.957245
3037,P,614.973877
3038,P,614.973877
3039,P,19.1567974
3040,P,19.1567974
3041,P,23.7039185
3042,P,23.7039185
3043,P,2.68983769
3044,P,2.68983769
3045,P,8.27601624
3046,P,8.27601624
3047,P,1.67995715
3048,P,1.67995715
3049,P,17.2204685
3050,P,17.2204685
3051,P,21.5205193
3052,P,21.5205193
3053,P,19.0655632
3054,P,19.0655632
3055,P,56.1383018
3056,P,56.1383018
3057,P,-79.8517456
3058,P,-79.8517456
3059,P,57.16259
3060,P,57.16259
3061,P,18.0528698
3062,P,18.0528698
3063,P,478.72525
3064,P,478.72525
3065,P,593.574036
3066,P,593.574036
3067,P,596.711548
3068,P,596.711548
3069,P,56.2556877
3070,P,56.2556877
3071,P,32.514122
3072,P,32.514122
3073,P,64.5577927
3074,P,64.5577927
3075,P,64.0920944
3076,P,64.0920944
3077,P,13.5335302
3078,P,13.5335302
3079,P,23.7379036
3080,P,23.7379036
3081,P,108.063766
3082,P,108.063766
3083,P,61.1228943
3084,P,61.1228943
3085,P,37.4990959
3086,P,37.4990959
3087,P,43.9024277
3088,P,43.9024277
3089,P,1557.46741
3090,P,1557.46741
3091,P,1742.10815
3092,P,1742.10815
3093,P,1763.72083
3094,P,1763.72083
3095,P,1537.33911
3096,P,1537.33911
3097,P,1714.87048
3098,P,1714.87048
3099,P,2231.57129
3100,P,2231.57129
3101,P,1981.03113
3102,P,1981.03113
3103,P,2264.0376
3104,P,2264.0376
3105,P,1953.18652
3106,P,1953.18652
3107,P,-2149.58618
3108,P,-2149.58618
3109,P,1487.44141
3110,P,1487.44141
3111,P,1714.32056
3112,P,1714.32056
3113,P,1511.18396
3114,P,1511.18396
3115,P,1688.92554
3116,P,1688.92554
3117,P,1650.13953
3118,P,1650.13953
3119,P,1670.42175
3120,P,1670.42175
3121,P,797.107239
3122,P,797.107239
3123,P,1027.85706
3124,P,1027.85706
3125,P,778.4375
3126,P,778.4375
3127,P,913.769775
3128,P,913.769775
3129,P,927.80835
3130,P,927.80835
3131,P,758.32074
3132,P,758.32074
3133,P,705.30249
3134,P,705.30249
3135,P,719.819763
3136,P,719.819763
3137,P,630.015198
3138,P,630.015198
3139,P,678.868713
3140,P,678.868713
3141,P,661.51709
3142,P,661.51709
3143,P,985.981262
3144,P,985.981262
3145,P,1168.76733
3146,P,1168.76733
3147,P,278.126587
3148,P,278.126587
3149,P,1013.99066
3150,P,1013.99066
3151,P,603.364868
3152,P,603.364868
3153,P,884.745422
3154,P,884.745422
3155,P,2003.56519
3156,P,2003.56519
3157,P,1708.88977
3158,P,1708.88977
3159,P,1946.55127
3160,P,1946.55127
3161,P,1757.16064
3162,P,1757.16064
3163,P,-2111.42725
3164,P,-2111.42725
3165,P,1202.74426
3166,P,1202.74426
3167,P,1417.03308
3168,P,1417.03308
3169,P,1360.13269
3170,P,1360.13269
3171,P,1253.30762
3172,P,1253.30762
3173,P,1631.7439
3174,P,1631.7439
3175,P,1332.82275
3176,P,1332.82275
3177,P,1472.7439
3178,P,1472.7439
3179,P,1513.75549
3180,P,1513.75549
3181,P,1302.0625
3182,P,1302.0625
3183,P,1630.00281
3184,P,1630.00281
3185,P,1748.25037
3186,P,1748.25037
3187,P,763.40387
3188,P,763.40387
3189,P,652.87915
3190,P,652.87915
3191,P,754.450256
3192,P,754.450256
3193,P,725.405823
3194,P,725.405823
3195,P,637.378174
3196,P,637.378174
3197,P,739.524414
3198,P,739.524414
3199,P,1037.37012
3200,P,1037.37012
3201,P,289.79126
3202,P,289.79126
3203,P,1020.12537
3204,P,1020.12537
3205,P,966.831299
3206,P,966.831299
3207,P,219.193054
3208,P,219.193054
3209,P,1031.2666
3210,P,1031.2666
3211,P,1018.3045
3212,P,1018.3045
3213,P,39.1294289
3214,P,39.1294289
3215,P,1013.40839
3216,P,1013.40839
3217,P,76.6866837
3218,P,76.6866837
3219,P,1090.16663
3220,P,1090.16663
3221,P,388.84256
3222,P,388.84256
3223,P,-942.874817
3224,P,-942.874817
3225,P,-971.940247
3226,P,-971.940247
3227,P,376.346497
3228,P,376.346497
3229,P,323.89798
3230,P,323.89798
3231,P,300.479248
3232,P,300.479248
3233,P,454.50592
3234,P,454.50592
3235,P,584.03302
3236,P,584.03302
3237,P,158.172607
3238,P,158.172607
3239,P,219.292816
3240,P,219.292816
3241,P,209.13414
3242,P,209.13414
3243,P,151.971252
3244,P,151.971252
3245,P,305.815948
3246,P,305.815948
3247,P,322.972076
3248,P,322.972076
3249,P,315.450256
3250,P,315.450256
3251,P,355.917114
3252,P,355.917114
3253,P,291.89856
3254,P,291.89856
3255,P,320.948853
3256,P,320.948853
3257,P,467.818146
3258,P,467.818146
3259,P,583.287903
3260,P,583.287903
3261,P,189.667587
3262,P,189.667587
3263,P,224.143173
3264,P,224.143173
3265,P,216.749344
3266,P,216.749344
3267,P,188.766922
3268,P,188.766922
3269,P,331.384186
3270,P,331.384186
3271,P,322.491669
3272,P,322.491669
3273,P,-168.949249
3274,P,-168.949249
3275,P,-218.253632
3276,P,-218.253632
3277,P,-294.653748
3278,P,-294.653748
3279,P,-260.700012
3280,P,-260.700012
3281,P,486.518982
3282,P,486.518982
3283,P,381.257843
3284,P,381.257843
3285,P,325.558502
3286,P,325.558502
3287,P,324.976013
3288,P,324.976013
3289,P,412.57312
3290,P,412.57312
3291,P,340.802673
3292,P,340.802673
3293,P,419.12204
3294,P,419.12204
3295,P,342.787109
3296,P,342.787109
3297,P,408.536407
3298,P,408.536407
3299,P,374.868713
3300,P,374.868713
3301,P,-581.741577
3302,P,-581.741577
3303,P,-509.404419
3304,P,-509.404419
3305,P,205.729218
3306,P,205.729218
3307,P,-613.777039
3308,P,-613.777039
3309,P,-1768.02356
3310,P,-1768.02356
3311,P,812.895325
3312,P,812.895325
3313,P,728.384705
3314,P,728.384705
3315,P,1125.94873
3316,P,1125.94873
3317,P,375.640808
3318,P,375.640808
3319,P,324.704926
3320,P,324.704926
3321,P,324.312622
3322,P,324.312622
3323,P,408.757874
3324,P,408.757874
3325,P,419.135162
3326,P,419.135162
3327,P,342.886993
3328,P,342.886993
3329,P,412.413818
3330,P,412.413818
3331,P,340.605957
3332,P,340.605957
3333,P,380.664673
3334,P,380.664673
3335,P,324.342072
3336,P,324.342072
3337,P,480.826447
3338,P,480.826447
3339,P,-1767.57666
3340,P,-1767.57666
3341,P,809.997375
3342,P,809.997375
3343,P,723.724243
3344,P,723.724243
3345,P,210.721817
3346,P,210.721817
3347,P,-142.586075
3348,P,-142.586075
3349,P,-142.586075
3350,P,390.893127
3351,P,390.893127
3352,P,393.175262
3353,P,393.175262
3354,P,330.48172
3355,P,330.48172
3356,P,331.339203
3357,P,331.339203
3358,P,417.089203
3359,P,417.089203
3360,P,343.212189
3361,P,343.212189
3362,P,418.280487
3363,P,418.280487
3364,P,343.41098
3365,P,343.41098
3366,P,399.214783
3367,P,399.214783
3368,P,375.569763
3369,P,375.569763
3370,P,1374.67224
3371,P,1374.67224
3372,P,617.496338
3373,P,617.496338
3374,P,617.496338
3375,P,682.015869
3376,P,682.015869
3377,P,879.472717
3378,P,879.472717
3379,P,376.868713
3380,P,376.868713
3381,P,325.381653
3382,P,325.381653
3383,P,399.558838
3384,P,399.558838
3385,P,418.337585
3386,P,418.337585
3387,P,343.407318
3388,P,343.407318
3389,P,343.483521
3390,P,343.483521
3391,P,417.001343
3392,P,417.001343
3393,P,343.11554
3394,P,343.11554
3395,P,343.126129
3396,P,343.126129
3397,P,392.748962
3398,P,392.748962
3399,P,388.902893
3400,P,388.902893
3401,P,331.012878
3402,P,331.012878
3403,P,1375.41711
3404,P,1375.41711
3405,P,617.319641
3406,P,617.319641
3407,P,617.319641
3408,P,681.365662
3409,P,681.365662
3410,P,882.427307
3411,P,882.427307
3412,P,632.214966
3413,P,632.214966
3414,P,632.214966
3415,P,584.960632
3416,P,584.960632
3417,P,226.256668
3418,P,226.256668
3419,P,23.6936455
3420,P,23.6936455
3421,P,457.440979
3422,P,457.440979
3423,P,489.661499
3424,P,489.661499
3425,P,239.559784
3426,P,239.559784
3427,P,-80.2603989
3428,P,-80.2603989
3429,P,-103.267128
3430,P,-103.267128
3431,P,-30.1716003
3432,P,-30.1716003
3433,P,-30.1716003
3434,P,195.407928
3435,P,195.407928
3436,P,375.860382
3437,P,375.860382
3438,P,375.860382
3439,P,294.886627
3440,P,294.886627
3441,P,316.405609
3442,P,316.405609
3443,P,316.405609
3444,P,13.9619455
3445,P,13.9619455
3446,P,-25.0899105
3447,P,-25.0899105
3448,P,-25.0899105
3449,P,110.367973
3450,P,110.367973
3451,P,288.221344
3452,P,288.221344
3453,P,383.675049
3454,P,383.675049
3455,P,326.327728
3456,P,326.327728
3457,P,102.936989
3458,P,102.936989
3459,P,331.546265
3460,P,331.546265
3461,P,-554.336731
3462,P,-554.336731
3463,P,-714.770447
3464,P,-714.770447
3465,P,-714.770447
3466,P,219.847794
3467,P,219.847794
3468,P,133.496902
3469,P,133.496902
3470,P,133.496902
3471,P,219.741745
3472,P,219.741745
3473,P,132.90126
3474,P,132.90126
3475,P,132.90126
3476,P,-444.012421
3477,P,-444.012421
3478,P,-664.156738
3479,P,-664.156738
3480,P,-664.156738
3481,P,-16.1655064
3482,P,-16.1655064
3483,P,-13.9250221
3484,P,-13.9250221
3485,P,413.8172
3486,P,413.8172
3487,P,341.607361
3488,P,341.607361
3489,P,342.099792
3490,P,342.099792
3491,P,-16.8584766
3492,P,-16.8584766
3493,P,-14.1559534
3494,P,-14.1559534
3495,P,210.878586
3496,P,210.878586
3497,P,-1044.16382
3498,P,-1044.16382
3499,P,-1044.16382
3500,P,230.077118
3501,P,230.077118
3502,P,134.732559
3503,P,134.732559
3504,P,134.732559
3505,P,229.706558
3506,P,229.706558
3507,P,134.858398
3508,P,134.858398
3509,P,134.858398
3510,P,203.878113
3511,P,203.878113
3512,P,-1032.95215
3513,P,-1032.95215
3514,P,-1032.95215
3515,P,-34.5218468
3516,P,-34.5218468
3517,P,-46.1661873
3518,P,-46.1661873
3519,P,419.035583
3520,P,419.035583
3521,P,342.964813
3522,P,342.964813
3523,P,343.101532
3524,P,343.101532
3525,P,-33.6747284
3526,P,-33.6747284
3527,P,-42.8097801
3528,P,-42.8097801
3529,P,-60.0903091
3530,P,-60.0903091
3531,P,-120.945709
3532,P,-120.945709
3533,P,229.608719
3534,P,229.608719
3535,P,130.179688
3536,P,130.179688
3537,P,130.179688
3538,P,229.532196
3539,P,229.532196
3540,P,130.363159
3541,P,130.363159
3542,P,130.363159
3543,P,-60.4319839
3544,P,-60.4319839
3545,P,-90.9644165
3546,P,-90.9644165
3547,P,-90.9644165
3548,P,-90.9644165
3549,P,-90.9644165
3550,P,-12.3514547
3551,P,-12.3514547
3552,P,-13.250906
3553,P,-13.250906
3554,P,406.761169
3555,P,406.761169
3556,P,-9.9822216
3557,P,-9.9822216
3558,P,-10.1520309
3559,P,-10.1520309
3560,P,181.073654
3561,P,181.073654
3562,P,-982.44165
3563,P,-982.44165
3564,P,-982.44165
3565,P,228.227325
3566,P,228.227325
3567,P,134.195663
3568,P,134.195663
3569,P,134.195663
3570,P,228.815475
3571,P,228.815475
3572,P,133.922409
3573,P,133.922409
3574,P,133.922409
3575,P,201.279816
3576,P,201.279816
3577,P,-995.231506
3578,P,-995.231506
3579,P,-995.231506
3580,P,122.313538
3581,P,122.313538
3582,P,271.166199
3583,P,271.166199
3584,P,373.19223
3585,P,373.19223
3586,P,126.058632
3587,P,126.058632
3588,P,253.786804
3589,P,253.786804
3590,P,-325.828827
3591,P,-325.828827
3592,P,-445.825256
3593,P,-445.825256
3594,P,-445.825256
3595,P,219.195145
3596,P,219.195145
3597,P,133.640778
3598,P,133.640778
3599,P,133.640778
3600,P,219.038712
3601,P,219.038712
3602,P,134.586411
3603,P,134.586411
3604,P,134.586411
3605,P,-403.635773
3606,P,-403.635773
3607,P,-506.104828
3608,P,-506.104828
3609,P,-506.104828
3610,P,-369.842621
3611,P,-369.842621
3612,P,-394.751343
3613,P,-394.751343
3614,P,1001.75177
3615,P,1001.75177
3616,P,968.779419
3617,P,968.779419
3618,P,-1108.20911
3619,P,-1108.20911
3620,P,-1108.20911
3621,P,748.050659
3622,P,748.050659
3623,P,922.827759
3624,P,922.827759
3625,P,814.306274
3626,P,814.306274
3627,P,1052.18591
3628,P,1052.18591
3629,P,869.064514
3630,P,869.064514
3631,P,188.656219
3632,P,188.656219
3633,P,204.389862
3634,P,204.389862
3635,P,212.775055
3636,P,212.775055
3637,P,212.044601
3638,P,212.044601
3639,P,216.904022
3640,P,216.904022
3641,P,875.206055
3642,P,875.206055
3643,P,219.867493
3644,P,219.867493
3645,P,374.044983
3646,P,374.044983
3647,P,325.514008
3648,P,325.514008
3649,P,122.545212
3650,P,122.545212
3651,P,271.42627
3652,P,271.42627
3653,P,126.36618
3654,P,126.36618
3655,P,254.316727
3656,P,254.316727
3657,P,-325.47934
3658,P,-325.47934
3659,P,-445.621277
3660,P,-445.621277
3661,P,-445.621277
3662,P,219.966095
3663,P,219.966095
3664,P,134.288605
3665,P,134.288605
3666,P,134.288605
3667,P,219.725998
3668,P,219.725998
3669,P,135.305664
3670,P,135.305664
3671,P,135.305664
3672,P,-403.535736
3673,P,-403.535736
3674,P,-505.995483
3675,P,-505.995483
3676,P,-505.995483
3677,P,407.008789
3678,P,407.008789
3679,P,337.795166
3680,P,337.795166
3681,P,337.029877
3682,P,337.029877
3683,P,-12.2917557
3684,P,-12.2917557
3685,P,-13.2014017
3686,P,-13.2014017
3687,P,-9.92331314
3688,P,-9.92331314
3689,P,-10.117465
3690,P,-10.117465
3691,P,181.069504
3692,P,181.069504
3693,P,-982.582458
3694,P,-982.582458
3695,P,-982.582458
3696,P,228.523956
3697,P,228.523956
3698,P,134.442688
3699,P,134.442688
3700,P,134.442688
3701,P,229.072189
3702,P,229.072189
3703,P,134.20163
3704,P,134.20163
3705,P,134.20163
3706,P,201.30304
3707,P,201.30304
3708,P,-995.360962
3709,P,-995.360962
3710,P,-995.360962
3711,P,419.059387
3712,P,419.059387
3713,P,342.992279
3714,P,342.992279
3715,P,343.137543
3716,P,343.137543
3717,P,-34.5042
3718,P,-34.5042
3719,P,-46.1596718
3720,P,-46.1596718
3721,P,-33.6457596
3722,P,-33.6457596
3723,P,-42.7733421
3724,P,-42.7733421
3725,P,-60.0672302
3726,P,-60.0672302
3727,P,-120.951904
3728,P,-120.951904
3729,P,229.615555
3730,P,229.615555
3731,P,130.180054
3732,P,130.180054
3733,P,130.180054
3734,P,229.532974
3735,P,229.532974
3736,P,130.364304
3737,P,130.364304
3738,P,130.364304
3739,P,-60.4264488
3740,P,-60.4264488
3741,P,-90.9672012
3742,P,-90.9672012
3743,P,-90.9672012
3744,P,-90.9672012
3745,P,-90.9672012
3746,P,413.677429
3747,P,413.677429
3748,P,-16.2322311
3749,P,-16.2322311
3750,P,-13.9763155
3751,P,-13.9763155
3752,P,-16.9241142
3753,P,-16.9241142
3754,P,-14.2093792
3755,P,-14.2093792
3756,P,210.821762
3757,P,210.821762
3758,P,-1044.03601
3759,P,-1044.03601
3760,P,-1044.03601
3761,P,229.864822
3762,P,229.864822
3763,P,134.511276
3764,P,134.511276
3765,P,134.511276
3766,P,229.473251
3767,P,229.473251
3768,P,134.658707
3769,P,134.658707
3770,P,134.658707
3771,P,203.841568
3772,P,203.841568
3773,P,-1032.82056
3774,P,-1032.82056
3775,P,-1032.82056
3776,P,383.125885
3777,P,383.125885
3778,P,110.263985
3779,P,110.263985
3780,P,288.025909
3781,P,288.025909
3782,P,102.866211
3783,P,102.866211
3784,P,331.436615
3785,P,331.436615
3786,P,-554.297058
3787,P,-554.297058
3788,P,-714.728394
3789,P,-714.728394
3790,P,-714.728394
3791,P,219.23851
3792,P,219.23851
3793,P,132.893768
3794,P,132.893768
3795,P,132.893768
3796,P,219.10376
3797,P,219.10376
3798,P,132.332108
3799,P,132.332108
3800,P,132.332108
3801,P,-444.059967
3802,P,-444.059967
3803,P,-664.136169
3804,P,-664.136169
3805,P,-664.136169
3806,P,452.826965
3807,P,452.826965
3808,P,233.464996
3809,P,233.464996
3810,P,31.7652721
3811,P,31.7652721
3812,P,247.674622
3813,P,247.674622
3814,P,-64.7196198
3815,P,-64.7196198
3816,P,-87.7580948
3817,P,-87.7580948
3818,P,-342.451965
3819,P,-342.451965
3820,P,-342.451965
3821,P,180.283813
3822,P,180.283813
3823,P,360.820496
3824,P,360.820496
3825,P,265.262146
3826,P,265.262146
3827,P,310.442322
3828,P,310.442322
3829,P,-91.6864243
3830,P,-91.6864243
3831,P,-508.997925
3832,P,-508.997925
3833,P,-508.997925
3834,P,1002.20715
3835,P,1002.20715
3836,P,969.406128
3837,P,969.406128
3838,P,-1106.61597
3839,P,-1106.61597
3840,P,-1106.61597
3841,P,747.150879
3842,P,747.150879
3843,P,922.582458
3844,P,922.582458
3845,P,814.12323
3846,P,814.12323
3847,P,1051.46753
3848,P,1051.46753
3849,P,869.517944
3850,P,869.517944
3851,P,188.163162
3852,P,188.163162
3853,P,203.172302
3854,P,203.172302
3855,P,212.590393
3856,P,212.590393
3857,P,212.082291
3858,P,212.082291
3859,P,216.986786
3860,P,216.986786
3861,P,872.423035
3862,P,872.423035
3863,P,221.970673
3864,P,221.970673
3865,P,13.7625504
3866,P,13.7625504
3867,P,402.342834
3868,P,402.342834
3869,P,382.200867
3870,P,382.200867
3871,P,467.310883
3872,P,467.310883
3873,P,289.205963
3874,P,289.205963
3875,P,38.9880257
3876,P,38.9880257
3877,P,280.962921
3878,P,280.962921
3879,P,-98.6114502
3880,P,-98.6114502
3881,P,-129.615387
3882,P,-129.615387
3883,P,-103.073784
3884,P,-103.073784
3885,P,-103.073784
3886,P,204.812851
3887,P,204.812851
3888,P,161.832443
3889,P,161.832443
3890,P,161.832443
3891,P,180.185867
3892,P,180.185867
3893,P,180.185867
3894,P,224.409271
3895,P,224.409271
3896,P,-228.066437
3897,P,-228.066437
3898,P,-145.382095
3899,P,-145.382095
3900,P,-145.382095
3901,P,-84.7439575
3902,P,-84.7439575
3903,P,221.183044
3904,P,221.183044
3905,P,-32.6225624
3906,P,-32.6225624
3907,P,36.4667778
3908,P,36.4667778
3909,P,163.452301
3910,P,163.452301
3911,P,108.253227
3912,P,108.253227
3913,P,-70.8647537
3914,P,-70.8647537
3915,P,376.934418
3916,P,376.934418
3917,P,110.014114
3918,P,110.014114
3919,P,268.626923
3920,P,268.626923
3921,P,51.4027672
3922,P,51.4027672
3923,P,-5.69126511
3924,P,-5.69126511
3925,P,89.742836
3926,P,89.742836
3927,P,-56.3186646
3928,P,-56.3186646
3929,P,-217.375305
3930,P,-217.375305
3931,P,184.096634
3932,P,184.096634
3933,P,-102.846031
3934,P,-102.846031
3935,P,-247.942474
3936,P,-247.942474
3937,P,-203.496552
3938,P,-203.496552
3939,P,-69.5317612
3940,P,-69.5317612
3941,P,-186.714615
3942,P,-186.714615
3943,P,-222.248383
3944,P,-222.248383
3945,P,-153.772568
3946,P,-153.772568
3947,P,-113.590347
3948,P,-113.590347
3949,P,390.666931
3950,P,390.666931
3951,P,86.1912384
3952,P,86.1912384
3953,P,346.12738
3954,P,346.12738
3955,P,91.35849
3956,P,91.35849
3957,P,337.674744
3958,P,337.674744
3959,P,-572.721008
3960,P,-572.721008
3961,P,-794.058289
3962,P,-794.058289
3963,P,-794.058289
3964,P,222.885483
3965,P,222.885483
3966,P,132.829559
3967,P,132.829559
3968,P,132.829559
3969,P,132.686462
3970,P,132.686462
3971,P,132.686462
3972,P,223.628174
3973,P,223.628174
3974,P,-509.64447
3975,P,-509.64447
3976,P,-813.463257
3977,P,-813.463257
3978,P,-813.463257
3979,P,289.830536
3980,P,289.830536
3981,P,-73.8273544
3982,P,-73.8273544
3983,P,112.180374
3984,P,112.180374
3985,P,-316.081024
3986,P,-316.081024
3987,P,-424.300659
3988,P,-424.300659
3989,P,-467.256165
3990,P,-467.256165
3991,P,285.308289
3992,P,285.308289
3993,P,115.495605
3994,P,115.495605
3995,P,-294.754333
3996,P,-294.754333
3997,P,113.285217
3998,P,113.285217
3999,P,-317.69278
4000,P,-317.69278
4001,P,-510.081757
4002,P,-510.081757
4003,P,-475.061462
4004,P,-475.061462
4005,P,105.119431
4006,P,105.119431
4007,P,282.77417
4008,P,282.77417
4009,P,224.012054
4010,P,224.012054
4011,P,-522.375
4012,P,-522.375
4013,P,-509.337952
4014,P,-509.337952
4015,P,-515.6203
4016,P,-515.6203
4017,P,-509.403076
4018,P,-509.403076
4019,P,282.382538
4020,P,282.382538
4021,P,253.604675
4022,P,253.604675
4023,P,108.331306
4024,P,108.331306
4025,P,233.489304
4026,P,233.489304
4027,P,416.371338
4028,P,416.371338
4029,P,342.869019
4030,P,342.869019
4031,P,-15.3600016
4032,P,-15.3600016
4033,P,-5.68415737
4034,P,-5.68415737
4035,P,-16.2354031
4036,P,-16.2354031
4037,P,-13.2853184
4038,P,-13.2853184
4039,P,214.093033
4040,P,214.093033
4041,P,-1068.85681
4042,P,-1068.85681
4043,P,-1068.85681
4044,P,231.437943
4045,P,231.437943
4046,P,134.393143
4047,P,134.393143
4048,P,134.393143
4049,P,134.80191
4050,P,134.80191
4051,P,134.80191
4052,P,231.355103
4053,P,231.355103
4054,P,236.679504
4055,P,236.679504
4056,P,-1071.46863
4057,P,-1071.46863
4058,P,-1071.46863
4059,P,152.794937
4060,P,152.794937
4061,P,129.951492
4062,P,129.951492
4063,P,124.786797
4064,P,124.786797
4065,P,75.7255325
4066,P,75.7255325
4067,P,79.0735855
4068,P,79.0735855
4069,P,151.125656
4070,P,151.125656
4071,P,116.152481
4072,P,116.152481
4073,P,122.184799
4074,P,122.184799
4075,P,83.027565
4076,P,83.027565
4077,P,80.7380524
4078,P,80.7380524
4079,P,103.137207
4080,P,103.137207
4081,P,132.106049
4082,P,132.106049
4083,P,165.418121
4084,P,165.418121
4085,P,135.075958
4086,P,135.075958
4087,P,81.5914459
4088,P,81.5914459
4089,P,83.8312531
4090,P,83.8312531
4091,P,84.2101288
4092,P,84.2101288
4093,P,84.1221237
4094,P,84.1221237
4095,P,166.966827
4096,P,166.966827
4097,P,100.643677
4098,P,100.643677
4099,P,131.907181
4100,P,131.907181
4101,P,101.923584
4102,P,101.923584
4103,P,135.56546
4104,P,135.56546
4105,P,418.605774
4106,P,418.605774
4107,P,343.29129
4108,P,343.29129
4109,P,-14.7077055
4110,P,-14.7077055
4111,P,-3.25665665
4112,P,-3.25665665
4113,P,-19.1791325
4114,P,-19.1791325
4115,P,-33.3362274
4116,P,-33.3362274
4117,P,-26.1623535
4118,P,-26.1623535
4119,P,-687.846008
4120,P,-687.846008
4121,P,-687.846008
4122,P,230.849365
4123,P,230.849365
4124,P,133.790695
4125,P,133.790695
4126,P,133.790695
4127,P,133.141434
4128,P,133.141434
4129,P,133.141434
4130,P,231.129715
4131,P,231.129715
4132,P,250.833649
4133,P,250.833649
4134,P,-974.397095
4135,P,-974.397095
4136,P,-974.397095
4137,P,-974.397095
4138,P,-70.6556702
4139,P,-70.6556702
4140,P,95.8055191
4141,P,95.8055191
4142,P,20.6771278
4143,P,20.6771278
4144,P,-2.61988783
4145,P,-2.61988783
4146,P,28.9419537
4147,P,28.9419537
4148,P,31.7465286
4149,P,31.7465286
4150,P,-68.910759
4151,P,-68.910759
4152,P,93.6661682
4153,P,93.6661682
4154,P,-13.965498
4155,P,-13.965498
4156,P,94.1885452
4157,P,94.1885452
4158,P,-8.85580063
4159,P,-8.85580063
4160,P,45.5427399
4161,P,45.5427399
4162,P,35.8652
4163,P,35.8652
4164,P,38.4652863
4165,P,38.4652863
4166,P,115.429504
4167,P,115.429504
4168,P,98.0278397
4169,P,98.0278397
4170,P,83.7796478
4171,P,83.7796478
4172,P,76.9079666
4173,P,76.9079666
4174,P,72.5725861
4175,P,72.5725861
4176,P,54.7947693
4177,P,54.7947693
4178,P,65.8975754
4179,P,65.8975754
4180,P,149.391251
4181,P,149.391251
4182,P,100.268356
4183,P,100.268356
4184,P,124.192612
4185,P,124.192612
4186,P,101.338486
4187,P,101.338486
4188,P,401.413971
4189,P,401.413971
4190,P,26.8624897
4191,P,26.8624897
4192,P,242.092621
4193,P,242.092621
4194,P,9.4384222
4195,P,9.4384222
4196,P,-5.86879253
4197,P,-5.86879253
4198,P,161.731659
4199,P,161.731659
4200,P,-952.520691
4201,P,-952.520691
4202,P,-952.520691
4203,P,224.600967
4204,P,224.600967
4205,P,132.542542
4206,P,132.542542
4207,P,132.542542
4208,P,132.611191
4209,P,132.611191
4210,P,132.611191
4211,P,223.962784
4212,P,223.962784
4213,P,-260.940308
4214,P,-260.940308
4215,P,-932.808411
4216,P,-932.808411
4217,P,-932.808411
4218,P,132.175217
4219,P,132.175217
4220,P,94.1003036
4221,P,94.1003036
4222,P,103.927055
4223,P,103.927055
4224,P,103.236488
4225,P,103.236488
4226,P,74.1807251
4227,P,74.1807251
4228,P,69.3655624
4229,P,69.3655624
4230,P,135.131561
4231,P,135.131561
4232,P,113.707535
4233,P,113.707535
4234,P,106.59816
4235,P,106.59816
4236,P,56.0278778
4237,P,56.0278778
4238,P,66.6213913
4239,P,66.6213913
4240,P,90.8418121
4241,P,90.8418121
4242,P,125.407097
4243,P,125.407097
4244,P,106.878616
4245,P,106.878616
4246,P,-523.06427
4247,P,-523.06427
4248,P,-274.000641
4249,P,-274.000641
4250,P,48.7953224
4251,P,48.7953224
4252,P,-65.1811447
4253,P,-65.1811447
4254,P,139.124939
4255,P,139.124939
4256,P,262.967285
4257,P,262.967285
4258,P,201.408524
4259,P,201.408524
4260,P,373.071716
4261,P,373.071716
4262,P,325.003296
4263,P,325.003296
4264,P,325.950134
4265,P,325.950134
4266,P,143.577377
4267,P,143.577377
4268,P,163.086426
4269,P,163.086426
4270,P,135.605331
4271,P,135.605331
4272,P,247.35289
4273,P,247.35289
4274,P,-308.639099
4275,P,-308.639099
4276,P,-359.123749
4277,P,-359.123749
4278,P,-359.123749
4279,P,224.865967
4280,P,224.865967
4281,P,152.8853
4282,P,152.8853
4283,P,152.8853
4284,P,147.883881
4285,P,147.883881
4286,P,147.883881
4287,P,225.365005
4288,P,225.365005
4289,P,-257.724915
4290,P,-257.724915
4291,P,-328.181854
4292,P,-328.181854
4293,P,-328.181854
4294,P,87.9815445
4295,P,87.9815445
4296,P,-225.313553
4297,P,-225.313553
4298,P,-249.975418
4299,P,-249.975418
4300,P,-407.038147
4301,P,-407.038147
4302,P,-370.047119
4303,P,-370.047119
4304,P,145.606354
4305,P,145.606354
4306,P,116.069832
4307,P,116.069832
4308,P,-283.137909
4309,P,-283.137909
4310,P,-255.469482
4311,P,-255.469482
4312,P,-344.269318
4313,P,-344.269318
4314,P,-364.390228
4315,P,-364.390228
4316,P,126.034081
4317,P,126.034081
4318,P,-219.001282
4319,P,-219.001282
4320,P,-109.022858
4321,P,-109.022858
4322,P,-196.475143
4323,P,-196.475143
4324,P,-257.455292
4325,P,-257.455292
4326,P,-295.657593
4327,P,-295.657593
4328,P,-336.669037
4329,P,-336.669037
4330,P,-305.939484
4331,P,-305.939484
4332,P,-122.148872
4333,P,-122.148872
4334,P,141.710892
4335,P,141.710892
4336,P,-160.054352
4337,P,-160.054352
4338,P,129.899323
4339,P,129.899323
4340,P,-189.317886
4341,P,-189.317886
4342,P,834.501465
4343,P,834.501465
4344,P,893.721619
4345,P,893.721619
4346,P,1305.35632
4347,P,1305.35632
4348,P,1305.35632
4349,P,1165.77014
4350,P,1165.77014
4351,P,908.377319
4352,P,908.377319
4353,P,1021.52325
4354,P,1021.52325
4355,P,422.412384
4356,P,422.412384
4357,P,21.9913044
4358,P,21.9913044
4359,P,101.835869
4360,P,101.835869
4361,P,101.835869
4362,P,120.887131
4363,P,120.887131
4364,P,109.498177
4365,P,109.498177
4366,P,109.498177
4367,P,1009.99957
4368,P,1009.99957
4369,P,1009.99957
4370,P,374.231049
4371,P,374.231049
4372,P,327.018463
4373,P,327.018463
4374,P,144.304474
4375,P,144.304474
4376,P,164.401855
4377,P,164.401855
4378,P,136.211548
4379,P,136.211548
4380,P,248.054443
4381,P,248.054443
4382,P,-308.128357
4383,P,-308.128357
4384,P,-358.361633
4385,P,-358.361633
4386,P,-358.361633
4387,P,226.237503
4388,P,226.237503
4389,P,154.31459
4390,P,154.31459
4391,P,154.31459
4392,P,226.941986
4393,P,226.941986
4394,P,149.155426
4395,P,149.155426
4396,P,149.155426
4397,P,-256.017914
4398,P,-256.017914
4399,P,-326.805969
4400,P,-326.805969
4401,P,-326.805969
4402,P,88.094101
4403,P,88.094101
4404,P,125.562866
4405,P,125.562866
4406,P,-225.54277
4407,P,-225.54277
4408,P,121.870255
4409,P,121.870255
4410,P,-250.021729
4411,P,-250.021729
4412,P,-406.986206
4413,P,-406.986206
4414,P,-370.004486
4415,P,-370.004486
4416,P,145.734634
4417,P,145.734634
4418,P,-283.141022
4419,P,-283.141022
4420,P,119.906181
4421,P,119.906181
4422,P,-255.485672
4423,P,-255.485672
4424,P,-344.424408
4425,P,-344.424408
4426,P,-364.373901
4427,P,-364.373901
4428,P,-108.85183
4429,P,-108.85183
4430,P,-219.345306
4431,P,-219.345306
4432,P,129.218491
4433,P,129.218491
4434,P,-197.377777
4435,P,-197.377777
4436,P,-259.925385
4437,P,-259.925385
4438,P,-296.704346
4439,P,-296.704346
4440,P,-122.08934
4441,P,-122.08934
4442,P,142.499832
4443,P,142.499832
4444,P,-163.175323
4445,P,-163.175323
4446,P,-190.5755
4447,P,-190.5755
4448,P,-336.92807
4449,P,-336.92807
4450,P,-306.690186
4451,P,-306.690186
4452,P,401.731995
4453,P,401.731995
4454,P,26.9144287
4455,P,26.9144287
4456,P,242.149811
4457,P,242.149811
4458,P,9.49276066
4459,P,9.49276066
4460,P,-5.83577538
4461,P,-5.83577538
4462,P,161.723465
4463,P,161.723465
4464,P,-952.696899
4465,P,-952.696899
4466,P,-952.696899
4467,P,225.040451
4468,P,225.040451
4469,P,132.96904
4470,P,132.96904
4471,P,132.96904
4472,P,224.428986
4473,P,224.428986
4474,P,133.023071
4475,P,133.023071
4476,P,133.023071
4477,P,-260.977875
4478,P,-260.977875
4479,P,-932.97522
4480,P,-932.97522
4481,P,-932.97522
4482,P,131.962906
4483,P,131.962906
4484,P,93.8095627
4485,P,93.8095627
4486,P,102.906876
4487,P,102.906876
4488,P,73.8092117
4489,P,73.8092117
4490,P,69.0447922
4491,P,69.0447922
4492,P,134.922287
4493,P,134.922287
4494,P,113.329109
4495,P,113.329109
4496,P,106.253983
4497,P,106.253983
4498,P,55.7751923
4499,P,55.7751923
4500,P,66.3194351
4501,P,66.3194351
4502,P,125.214783
4503,P,125.214783
4504,P,90.5613556
4505,P,90.5613556
4506,P,105.520248
4507,P,105.520248
4508,P,106.6436
4509,P,106.6436
4510,P,-523.273438
4511,P,-523.273438
4512,P,-274.198456
4513,P,-274.198456
4514,P,138.939484
4515,P,138.939484
4516,P,262.796692
4517,P,262.796692
4518,P,201.201889
4519,P,201.201889
4520,P,48.5571136
4521,P,48.5571136
4522,P,-65.3827209
4523,P,-65.3827209
4524,P,418.652649
4525,P,418.652649
4526,P,343.34671
4527,P,343.34671
4528,P,343.18045
4529,P,343.18045
4530,P,-14.6486816
4531,P,-14.6486816
4532,P,-3.2056663
4533,P,-3.2056663
4534,P,-19.1232262
4535,P,-19.1232262
4536,P,-33.2918396
4537,P,-33.2918396
4538,P,-26.134222
4539,P,-26.134222
4540,P,-687.857239
4541,P,-687.857239
4542,P,230.908859
4543,P,230.908859
4544,P,133.846512
4545,P,133.846512
4546,P,133.846512
4547,P,231.199326
4548,P,231.199326
4549,P,133.186203
4550,P,133.186203
4551,P,133.186203
4552,P,250.871597
4553,P,250.871597
4554,P,-974.409973
4555,P,-974.409973
4556,P,-974.409973
4557,P,-974.409973
4558,P,-70.69664
4559,P,-70.69664
4560,P,95.7797012
4561,P,95.7797012
4562,P,20.5568733
4563,P,20.5568733
4564,P,-2.69196033
4565,P,-2.69196033
4566,P,28.9331551
4567,P,28.9331551
4568,P,31.6914253
4569,P,31.6914253
4570,P,-68.9397507
4571,P,-68.9397507
4572,P,93.6730194
4573,P,93.6730194
4574,P,-13.973731
4575,P,-13.973731
4576,P,94.1825562
4577,P,94.1825562
4578,P,-8.91169167
4579,P,-8.91169167
4580,P,45.4169388
4581,P,45.4169388
4582,P,35.7936249
4583,P,35.7936249
4584,P,115.328766
4585,P,115.328766
4586,P,96.279686
4587,P,96.279686
4588,P,38.3303604
4589,P,38.3303604
4590,P,83.6045914
4591,P,83.6045914
4592,P,76.639946
4593,P,76.639946
4594,P,72.3621674
4595,P,72.3621674
4596,P,149.283249
4597,P,149.283249
4598,P,123.956032
4599,P,123.956032
4600,P,98.6835938
4601,P,98.6835938
4602,P,101.14962
4603,P,101.14962
4604,P,54.6516685
4605,P,54.6516685
4606,P,65.7063293
4607,P,65.7063293
4608,P,416.270874
4609,P,416.270874
4610,P,-15.4223566
4611,P,-15.4223566
4612,P,-5.7330904
4613,P,-5.7330904
4614,P,-16.2975769
4615,P,-16.2975769
4616,P,-13.3364964
4617,P,-13.3364964
4618,P,214.040894
4619,P,214.040894
4620,P,-1068.76514
4621,P,-1068.76514
4622,P,-1068.76514
4623,P,231.341339
4624,P,231.341339
4625,P,134.322922
4626,P,134.322922
4627,P,134.322922
4628,P,231.270355
4629,P,231.270355
4630,P,134.717117
4631,P,134.717117
4632,P,134.717117
4633,P,236.637238
4634,P,236.637238
4635,P,-1071.38062
4636,P,-1071.38062
4637,P,-1071.38062
4638,P,152.900482
4639,P,152.900482
4640,P,130.305847
4641,P,130.305847
4642,P,102.980728
4643,P,102.980728
4644,P,125.181046
4645,P,125.181046
4646,P,76.113945
4647,P,76.113945
4648,P,79.4949493
4649,P,79.4949493
4650,P,151.248993
4651,P,151.248993
4652,P,116.545914
4653,P,116.545914
4654,P,122.586945
4655,P,122.586945
4656,P,83.4189301
4657,P,83.4189301
4658,P,81.1576614
4659,P,81.1576614
4660,P,165.490021
4661,P,165.490021
4662,P,103.062546
4663,P,103.062546
4664,P,132.445953
4665,P,132.445953
4666,P,135.371765
4667,P,135.371765
4668,P,81.8737183
4669,P,81.8737183
4670,P,84.1567917
4671,P,84.1567917
4672,P,167.040115
4673,P,167.040115
4674,P,100.624786
4675,P,100.624786
4676,P,132.155197
4677,P,132.155197
4678,P,101.881287
4679,P,101.881287
4680,P,135.85054
4681,P,135.85054
4682,P,84.5908966
4683,P,84.5908966
4684,P,84.4609909
4685,P,84.4609909
4686,P,390.210938
4687,P,390.210938
4688,P,86.1498489
4689,P,86.1498489
4690,P,346.065796
4691,P,346.065796
4692,P,91.3159332
4693,P,91.3159332
4694,P,337.604462
4695,P,337.604462
4696,P,-572.666809
4697,P,-572.666809
4698,P,-793.93927
4699,P,-793.93927
4700,P,-793.93927
4701,P,222.388931
4702,P,222.388931
4703,P,132.386322
4704,P,132.386322
4705,P,132.386322
4706,P,223.143234
4707,P,223.143234
4708,P,132.230453
4709,P,132.230453
4710,P,132.230453
4711,P,-509.589569
4712,P,-509.589569
4713,P,-813.329041
4714,P,-813.329041
4715,P,-813.329041
4716,P,289.754578
4717,P,289.754578
4718,P,-73.7641907
4719,P,-73.7641907
4720,P,-316.009308
4721,P,-316.009308
4722,P,-424.339874
4723,P,-424.339874
4724,P,-467.245056
4725,P,-467.245056
4726,P,285.221313
4727,P,285.221313
4728,P,-294.735168
4729,P,-294.735168
4730,P,-317.631104
4731,P,-317.631104
4732,P,-509.996338
4733,P,-509.996338
4734,P,-475.038208
4735,P,-475.038208
4736,P,282.838043
4737,P,282.838043
4738,P,105.168526
4739,P,105.168526
4740,P,224.088852
4741,P,224.088852
4742,P,-522.172607
4743,P,-522.172607
4744,P,-509.182007
4745,P,-509.182007
4746,P,282.46524
4747,P,282.46524
4748,P,107.016594
4749,P,107.016594
4750,P,253.759552
4751,P,253.759552
4752,P,233.589081
4753,P,233.589081
4754,P,-515.52771
4755,P,-515.52771
4756,P,-509.257324
4757,P,-509.257324
4758,P,399.958832
4759,P,399.958832
4760,P,379.497681
4761,P,379.497681
4762,P,463.962067
4763,P,463.962067
4764,P,288.800201
4765,P,288.800201
4766,P,37.6613617
4767,P,37.6613617
4768,P,281.459778
4769,P,281.459778
4770,P,-93.3494873
4771,P,-93.3494873
4772,P,-128.485077
4773,P,-128.485077
4774,P,-130.121857
4775,P,-130.121857
4776,P,-130.121857
4777,P,202.64502
4778,P,202.64502
4779,P,160.236282
4780,P,160.236282
4781,P,160.236282
4782,P,222.575211
4783,P,222.575211
4784,P,178.407242
4785,P,178.407242
4786,P,178.407242
4787,P,-230.582596
4788,P,-230.582596
4789,P,-157.196533
4790,P,-157.196533
4791,P,-157.196533
4792,P,204.209732
4793,P,204.209732
4794,P,224.325302
4795,P,224.325302
4796,P,8.68629742
4797,P,8.68629742
4798,P,277.129639
4799,P,277.129639
4800,P,90.5168839
4801,P,90.5168839
4802,P,77.4773102
4803,P,77.4773102
4804,P,103.222778
4805,P,103.222778
4806,P,399.74173
4807,P,399.74173
4808,P,56.288662
4809,P,56.288662
4810,P,71.5576096
4811,P,71.5576096
4812,P,15.1408834
4813,P,15.1408834
4814,P,104.949982
4815,P,104.949982
4816,P,-215.95491
4817,P,-215.95491
4818,P,-24.6509247
4819,P,-24.6509247
4820,P,184.081741
4821,P,184.081741
4822,P,-88.1523361
4823,P,-88.1523361
4824,P,-244.606979
4825,P,-244.606979
4826,P,-196.452499
4827,P,-196.452499
4828,P,-222.458649
4829,P,-222.458649
4830,P,-149.436035
4831,P,-149.436035
4832,P,174.133881
4833,P,174.133881
4834,P,-103.0373
4835,P,-103.0373
4836,P,-52.2765121
4837,P,-52.2765121
4838,P,-177.352188
4839,P,-177.352188
4840,P,835.09729
4841,P,835.09729
4842,P,894.38208
4843,P,894.38208
4844,P,1306.58679
4845,P,1306.58679
4846,P,1306.58679
4847,P,1165.7804
4848,P,1165.7804
4849,P,906.563843
4850,P,906.563843
4851,P,1018.67273
4852,P,1018.67273
4853,P,427.123535
4854,P,427.123535
4855,P,121.493538
4856,P,121.493538
4857,P,606.49231
4858,P,606.49231
4859,P,614.207214
4860,P,614.207214
4861,P,-205.54129
4862,P,-205.54129
4863,P,89.3913116
4864,P,89.3913116
4865,P,-303.239532
4866,P,-303.239532
4867,P,150.758545
4868,P,150.758545
4869,P,-347.050629
4870,P,-347.050629
4871,P,207.256943
4872,P,207.256943
4873,P,-327.55426
4874,P,-327.55426
4875,P,249.451553
4876,P,249.451553
4877,P,-377.2453
4878,P,-377.2453
4879,P,87.5947723
4880,P,87.5947723
4881,P,-382.282776
4882,P,-382.282776
4883,P,67.6356125
4884,P,67.6356125
4885,P,-385.209961
4886,P,-385.209961
4887,P,9.52235413
4888,P,9.52235413
4889,P,-383.079926
4890,P,-383.079926
4891,P,50.9122543
4892,P,50.9122543
4893,P,-410.245087
4894,P,-410.245087
4895,P,-145.853058
4896,P,-145.853058
4897,P,-407.653107
4898,P,-407.653107
4899,P,-171.312363
4900,P,-171.312363
4901,P,-408.100311
4902,P,-408.100311
4903,P,-184.12085
4904,P,-184.12085
4905,P,-406.920227
4906,P,-406.920227
4907,P,-174.695908
4908,P,-174.695908
4909,P,-458.585907
4910,P,-458.585907
4911,P,-160.822403
4912,P,-160.822403
4913,P,-452.08667
4914,P,-452.08667
4915,P,-158.762741
4916,P,-158.762741
4917,P,-413.742432
4918,P,-413.742432
4919,P,-186.64682
4920,P,-186.64682
4921,P,-439.531464
4922,P,-439.531464
4923,P,-161.273315
4924,P,-161.273315
4925,P,-411.979614
4926,P,-411.979614
4927,P,-141.779877
4928,P,-141.779877
4929,P,-413.733734
4930,P,-413.733734
4931,P,-118.205238
4932,P,-118.205238
4933,P,-390.928772
4934,P,-390.928772
4935,P,8.52304363
4936,P,8.52304363
4937,P,-410.747375
4938,P,-410.747375
4939,P,-114.781166
4940,P,-114.781166
4941,P,-370.769867
4942,P,-370.769867
4943,P,80.4193573
4944,P,80.4193573
4945,P,-364.692963
4946,P,-364.692963
4947,P,116.811111
4948,P,116.811111
4949,P,-354.177246
4950,P,-354.177246
4951,P,196.724762
4952,P,196.724762
4953,P,-361.855896
4954,P,-361.855896
4955,P,126.679253
4956,P,126.679253
4957,P,-370.589966
4958,P,-370.589966
4959,P,80.7625656
4960,P,80.7625656
4961,P,-364.446533
4962,P,-364.446533
4963,P,116.932083
4964,P,116.932083
4965,P,-353.954437
4966,P,-353.954437
4967,P,195.396149
4968,P,195.396149
4969,P,-361.595398
4970,P,-361.595398
4971,P,126.728188
4972,P,126.728188
4973,P,-412.242523
4974,P,-412.242523
4975,P,-142.054413
4976,P,-142.054413
4977,P,-413.984772
4978,P,-413.984772
4979,P,-118.376091
4980,P,-118.376091
4981,P,-391.102356
4982,P,-391.102356
4983,P,8.5135231
4984,P,8.5135231
4985,P,-410.978333
4986,P,-410.978333
4987,P,-114.935257
4988,P,-114.935257
4989,P,-458.616516
4990,P,-458.616516
4991,P,-160.832672
4992,P,-160.832672
4993,P,-452.19516
4994,P,-452.19516
4995,P,-158.904495
4996,P,-158.904495
4997,P,-413.942657
4998,P,-413.942657
4999,P,-186.915726
5000,P,-186.915726
5001,P,-439.687866
5002,P,-439.687866
5003,P,-161.430359
5004,P,-161.430359
5005,P,-409.985962
5006,P,-409.985962
5007,P,-145.557083
5008,P,-145.557083
5009,P,-407.391144
5010,P,-407.391144
5011,P,-170.968643
5012,P,-170.968643
5013,P,-407.858002
5014,P,-407.858002
5015,P,-183.83699
5016,P,-183.83699
5017,P,-406.658844
5018,P,-406.658844
5019,P,-174.351898
5020,P,-174.351898
5021,P,-377.354156
5022,P,-377.354156
5023,P,87.2626343
5024,P,87.2626343
5025,P,-382.295929
5026,P,-382.295929
5027,P,67.4566498
5028,P,67.4566498
5029,P,-385.072449
5030,P,-385.072449
5031,P,9.5106411
5032,P,9.5106411
5033,P,-383.031555
5034,P,-383.031555
5035,P,50.7559204
5036,P,50.7559204
5037,P,-193.914154
5038,P,-193.914154
5039,P,80.3032684
5040,P,80.3032684
5041,P,-300.174652
5042,P,-300.174652
5043,P,154.171768
5044,P,154.171768
5045,P,-347.175537
5046,P,-347.175537
5047,P,209.042618
5048,P,209.042618
5049,P,-327.048004
5050,P,-327.048004
5051,P,253.667908
5052,P,253.667908
5053,P,78.4931564
5054,P,78.4931564
5055,P,201.160248
5056,P,201.160248
5057,P,422.319061
5058,P,422.319061
5059,P,354.184753
5060,P,354.184753
5061,P,448.265839
5062,P,448.265839
5063,P,538.904785
5064,P,538.904785
5065,P,672.166138
5066,P,672.166138
5067,P,1163.64062
5068,P,1163.64062
5069,P,1163.64062
5070,P,-53.099102
5071,P,-53.099102
5072,P,-289.373199
5073,P,-289.373199
5074,P,220.85643
5075,P,220.85643
5076,P,-69.0522461
5077,P,-69.0522461
5078,P,-69.0522461
5079,P,-69.0522461
5080,P,93.1736221
5081,P,93.1736221
5082,P,208.295578
5083,P,208.295578
5084,P,674.848206
5085,P,674.848206
5086,P,440.938202
5087,P,440.938202
5088,P,440.938202
5089,P,408.119629
5090,P,408.119629
5091,P,592.309998
5092,P,592.309998
5093,P,537.523682
5094,P,537.523682
5095,P,537.523682
5096,P,98.8125305
5097,P,98.8125305
5098,P,-441.342407
5099,P,-441.342407
5100,P,-441.342407
5101,P,218.486053
5102,P,218.486053
5103,P,-560.401978
5104,P,-560.401978
5105,P,-560.401978
5106,P,-560.401978
5107,P,-560.401978
5108,P,82.9525299
5109,P,82.9525299
5110,P,276.1185
5111,P,276.1185
5112,P,59.4486504
5113,P,59.4486504
5114,P,190.738205
5115,P,190.738205
5116,P,180.037552
5117,P,180.037552
5118,P,525.030823
5119,P,525.030823
5120,P,181.153229
5121,P,181.153229
5122,P,197.421814
5123,P,197.421814
5124,P,135.100891
5125,P,135.100891
5126,P,261.158722
5127,P,261.158722
5128,P,299.395752
5129,P,299.395752
5130,P,327.614441
5131,P,327.614441
5132,P,1479.20178
5133,P,1479.20178
5134,P,545.160828
5135,P,545.160828
5136,P,753.279602
5137,P,753.279602
5138,P,665.594177
5139,P,665.594177
5140,P,-139.703598
5141,P,-139.703598
5142,P,553.346313
5143,P,553.346313
5144,P,250.740219
5145,P,250.740219
5146,P,176.257904
5147,P,176.257904
5148,P,-3.06201243
5149,P,-3.06201243
5150,P,81.9546509
5151,P,81.9546509
5152,P,19.7656574
5153,P,19.7656574
5154,P,7.15244675
5155,P,7.15244675
5156,P,32.7394714
5157,P,32.7394714
5158,P,-53.0243988
5159,P,-53.0243988
5160,P,449.125824
5161,P,449.125824
5162,P,144.974518
5163,P,144.974518
5164,P,-234.421875
5165,P,-234.421875
5166,P,32.9674759
5167,P,32.9674759
5168,P,-80.4306946
5169,P,-80.4306946
5170,P,126.979248
5171,P,126.979248
5172,P,372.873566
5173,P,372.873566
5174,P,135.351562
5175,P,135.351562
5176,P,87.9989243
5177,P,87.9989243
5178,P,87.8542633
5179,P,87.8542633
5180,P,69.0528259
5181,P,69.0528259
5182,P,-16.2478313
5183,P,-16.2478313
5184,P,-35.999279
5185,P,-35.999279
5186,P,-147.375519
5187,P,-147.375519
5188,P,229.634583
5189,P,229.634583
5190,P,39.7576942
5191,P,39.7576942
5192,P,-290.970306
5193,P,-290.970306
5194,P,20.9442406
5195,P,20.9442406
5196,P,-134.686111
5197,P,-134.686111
5198,P,68.3007812
5199,P,68.3007812
5200,P,347.904907
5201,P,347.904907
5202,P,252.051849
5203,P,252.051849
5204,P,-76.0479126
5205,P,-76.0479126
5206,P,-89.3778076
5207,P,-89.3778076
5208,P,304.504486
5209,P,304.504486
5210,P,-119.223656
5211,P,-119.223656
5212,P,-126.357941
5213,P,-126.357941
5214,P,-344.433014
5215,P,-344.433014
5216,P,245.937469
5217,P,245.937469
5218,P,-202.069977
5219,P,-202.069977
5220,P,159.453522
5221,P,159.453522
5222,P,-234.186844
5223,P,-234.186844
5224,P,-198.20668
5225,P,-198.20668
5226,P,166.704636
5227,P,166.704636
5228,P,-219.994751
5229,P,-219.994751
5230,P,-111.911942
5231,P,-111.911942
5232,P,-102.462914
5233,P,-102.462914
5234,P,-176.465073
5235,P,-176.465073
5236,P,156.62973
5237,P,156.62973
5238,P,-132.788239
5239,P,-132.788239
5240,P,-332.509125
5241,P,-332.509125
5242,P,257.743591
5243,P,257.743591
5244,P,-182.675888
5245,P,-182.675888
5246,P,-163.577942
5247,P,-163.577942
5248,P,168.437073
5249,P,168.437073
5250,P,288.175049
5251,P,288.175049
5252,P,-141.700348
5253,P,-141.700348
5254,P,310.730957
5255,P,310.730957
5256,P,-127.934517
5257,P,-127.934517
5258,P,366.349457
5259,P,366.349457
5260,P,-243.190048
5261,P,-243.190048
5262,P,414.80307
5263,P,414.80307
5264,P,-301.132507
5265,P,-301.132507
5266,P,-181.481705
5267,P,-181.481705
5268,P,-180.236069
5269,P,-180.236069
5270,P,-237.646454
5271,P,-237.646454
5272,P,184.34874
5273,P,184.34874
5274,P,-439.915314
5275,P,-439.915314
5276,P,-379.00592
5277,P,-379.00592
5278,P,102.310547
5279,P,102.310547
5280,P,-239.243881
5281,P,-239.243881
5282,P,-457.559113
5283,P,-457.559113
5284,P,218.415298
5285,P,218.415298
5286,P,342.244598
5287,P,342.244598
5288,P,-304.358063
5289,P,-304.358063
5290,P,400.301636
5291,P,400.301636
5292,P,-315.060394
5293,P,-315.060394
5294,P,-182.471024
5295,P,-182.471024
5296,P,-183.312149
5297,P,-183.312149
5298,P,-243.463669
5299,P,-243.463669
5300,P,160.496445
5301,P,160.496445
5302,P,-490.153992
5303,P,-490.153992
5304,P,-382.001221
5305,P,-382.001221
5306,P,100.678421
5307,P,100.678421
5308,P,-242.704163
5309,P,-242.704163
5310,P,-479.005951
5311,P,-479.005951
5312,P,220.880264
5313,P,220.880264
5314,P,253.891266
5315,P,253.891266
5316,P,179.106293
5317,P,179.106293
5318,P,209.073318
5319,P,209.073318
5320,P,232.956161
5321,P,232.956161
5322,P,-188.260635
5323,P,-188.260635
5324,P,-189.009613
5325,P,-189.009613
5326,P,-384.458069
5327,P,-384.458069
5328,P,18.1064739
5329,P,18.1064739
5330,P,-249.131989
5331,P,-249.131989
5332,P,118.386238
5333,P,118.386238
5334,P,-516.275757
5335,P,-516.275757
5336,P,-248.078094
5337,P,-248.078094
5338,P,104.369064
5339,P,104.369064
5340,P,-512.600769
5341,P,-512.600769
5342,P,-187.511307
5343,P,-187.511307
5344,P,-186.754272
5345,P,-186.754272
5346,P,-245.263672
5347,P,-245.263672
5348,P,126.351448
5349,P,126.351448
5350,P,-516.331909
5351,P,-516.331909
5352,P,-383.210083
5353,P,-383.210083
5354,P,23.0652695
5355,P,23.0652695
5356,P,-245.85173
5357,P,-245.85173
5358,P,-510.940796
5359,P,-510.940796
5360,P,102.939186
5361,P,102.939186
5362,P,248.806595
5363,P,248.806595
5364,P,247.376785
5365,P,247.376785
5366,P,237.730881
5367,P,237.730881
5368,P,240.352112
5369,P,240.352112
5370,P,285.343872
5371,P,285.343872
5372,P,128.692551
5373,P,128.692551
5374,P,275.539825
5375,P,275.539825
5376,P,126.208229
5377,P,126.208229
5378,P,-203.889038
5379,P,-203.889038
5380,P,-203.910278
5381,P,-203.910278
5382,P,-268.847748
5383,P,-268.847748
5384,P,169.080826
5385,P,169.080826
5386,P,76.5692749
5387,P,76.5692749
5388,P,-409.545258
5389,P,-409.545258
5390,P,-156.920593
5391,P,-156.920593
5392,P,-268.625122
5393,P,-268.625122
5394,P,78.4110565
5395,P,78.4110565
5396,P,171.38266
5397,P,171.38266
5398,P,260.777069
5399,P,260.777069
5400,P,117.837685
5401,P,117.837685
5402,P,271.395203
5403,P,271.395203
5404,P,120.626701
5405,P,120.626701
5406,P,-203.809723
5407,P,-203.809723
5408,P,-203.666595
5409,P,-203.666595
5410,P,-267.669617
5411,P,-267.669617
5412,P,172.551163
5413,P,172.551163
5414,P,82.7352905
5415,P,82.7352905
5416,P,-408.093079
5417,P,-408.093079
5418,P,-160.497986
5419,P,-160.497986
5420,P,-267.883942
5421,P,-267.883942
5422,P,81.2327957
5423,P,81.2327957
5424,P,171.899338
5425,P,171.899338
5426,P,289.104126
5427,P,289.104126
5428,P,133.077209
5429,P,133.077209
5430,P,134.688293
5431,P,134.688293
5432,P,297.295837
5433,P,297.295837
5434,P,-205.355835
5435,P,-205.355835
5436,P,-205.97551
5437,P,-205.97551
5438,P,-407.404449
5439,P,-407.404449
5440,P,-182.844421
5441,P,-182.844421
5442,P,-270.182465
5443,P,-270.182465
5444,P,160.772263
5445,P,160.772263
5446,P,81.1429062
5447,P,81.1429062
5448,P,-269.236359
5449,P,-269.236359
5450,P,165.968063
5451,P,165.968063
5452,P,83.2656174
5453,P,83.2656174
5454,P,-204.785629
5455,P,-204.785629
5456,P,-204.302002
5457,P,-204.302002
5458,P,-267.551392
5459,P,-267.551392
5460,P,172.547699
5461,P,172.547699
5462,P,84.1877289
5463,P,84.1877289
5464,P,-406.831055
5465,P,-406.831055
5466,P,-182.073746
5467,P,-182.073746
5468,P,-267.776001
5469,P,-267.776001
5470,P,84.7495804
5471,P,84.7495804
5472,P,168.54657
5473,P,168.54657
5474,P,296.667145
5475,P,296.667145
5476,P,132.697067
5477,P,132.697067
5478,P,299.50177
5479,P,299.50177
5480,P,135.2388
5481,P,135.2388
5482,P,28.4206085
5483,P,28.4206085
5484,P,13.334013
5485,P,13.334013
5486,P,-16.9280281
5487,P,-16.9280281
5488,P,0.97990936
5489,P,0.97990936
5490,P,-231.511551
5491,P,-231.511551
5492,P,-232.088181
5493,P,-232.088181
5494,P,-306.442017
5495,P,-306.442017
5496,P,258.733002
5497,P,258.733002
5498,P,29.2476044
5499,P,29.2476044
5500,P,-458.086884
5501,P,-458.086884
5502,P,-159.68811
5503,P,-159.68811
5504,P,-305.949799
5505,P,-305.949799
5506,P,30.9672604
5507,P,30.9672604
5508,P,261.821381
5509,P,261.821381
5510,P,-32.8343239
5511,P,-32.8343239
5512,P,-13.3546782
5513,P,-13.3546782
5514,P,-25.6897717
5515,P,-25.6897717
5516,P,-10.9227371
5517,P,-10.9227371
5518,P,-230.55983
5519,P,-230.55983
5520,P,-229.309586
5521,P,-229.309586
5522,P,-300.688873
5523,P,-300.688873
5524,P,264.367737
5525,P,264.367737
5526,P,43.9698563
5527,P,43.9698563
5528,P,-454.521484
5529,P,-454.521484
5530,P,-157.816818
5531,P,-157.816818
5532,P,-302.667603
5533,P,-302.667603
5534,P,36.6418495
5535,P,36.6418495
5536,P,264.720032
5537,P,264.720032
5538,P,64.3575668
5539,P,64.3575668
5540,P,52.0822639
5541,P,52.0822639
5542,P,73.7672958
5543,P,73.7672958
5544,P,187.139847
5545,P,187.139847
5546,P,-215.040543
5547,P,-215.040543
5548,P,-212.882858
5549,P,-212.882858
5550,P,-417.653168
5551,P,-417.653168
5552,P,-183.698868
5553,P,-183.698868
5554,P,-275.06076
5555,P,-275.06076
5556,P,158.327682
5557,P,158.327682
5558,P,78.0262604
5559,P,78.0262604
5560,P,-277.874603
5561,P,-277.874603
5562,P,180.870056
5563,P,180.870056
5564,P,71.5317078
5565,P,71.5317078
5566,P,-217.347992
5567,P,-217.347992
5568,P,-219.563217
5569,P,-219.563217
5570,P,-292.036591
5571,P,-292.036591
5572,P,260.652496
5573,P,260.652496
5574,P,57.0480537
5575,P,57.0480537
5576,P,-433.278137
5577,P,-433.278137
5578,P,-178.118301
5579,P,-178.118301
5580,P,-288.206543
5581,P,-288.206543
5582,P,66.9988403
5583,P,66.9988403
5584,P,205.56752
5585,P,205.56752
5586,P,285.160431
5587,P,285.160431
5588,P,121.452522
5589,P,121.452522
5590,P,227.496826
5591,P,227.496826
5592,P,108.502243
5593,P,108.502243
5594,P,229.491592
5595,P,229.491592
5596,P,97.1215363
5597,P,97.1215363
5598,P,240.627869
5599,P,240.627869
5600,P,100.725082
5601,P,100.725082
5602,P,-204.169464
5603,P,-204.169464
5604,P,-204.138596
5605,P,-204.138596
5606,P,-269.467682
5607,P,-269.467682
5608,P,168.435226
5609,P,168.435226
5610,P,73.11026
5611,P,73.11026
5612,P,-412.648621
5613,P,-412.648621
5614,P,-130.879105
5615,P,-130.879105
5616,P,-269.664917
5617,P,-269.664917
5618,P,70.8119431
5619,P,70.8119431
5620,P,164.174942
5621,P,164.174942
5622,P,256.749023
5623,P,256.749023
5624,P,111.823586
5625,P,111.823586
5626,P,245.34082
5627,P,245.34082
5628,P,108.675629
5629,P,108.675629
5630,P,-204.005051
5631,P,-204.005051
5632,P,-203.675125
5633,P,-203.675125
5634,P,-269.243378
5635,P,-269.243378
5636,P,150.450851
5637,P,150.450851
5638,P,60.5187073
5639,P,60.5187073
5640,P,-413.738403
5641,P,-413.738403
5642,P,-127.266518
5643,P,-127.266518
5644,P,-269.61026
5645,P,-269.61026
5646,P,64.338829
5647,P,64.338829
5648,P,161.979095
5649,P,161.979095
5650,P,226.590408
5651,P,226.590408
5652,P,88.419426
5653,P,88.419426
5654,P,90.8159637
5655,P,90.8159637
5656,P,230.386612
5657,P,230.386612
5658,P,-196.687241
5659,P,-196.687241
5660,P,-195.018402
5661,P,-195.018402
5662,P,-394.672241
5663,P,-394.672241
5664,P,-50.4646034
5665,P,-50.4646034
5666,P,-253.893967
5667,P,-253.893967
5668,P,129.921982
5669,P,129.921982
5670,P,-511.250092
5671,P,-511.250092
5672,P,-256.423767
5673,P,-256.423767
5674,P,128.490936
5675,P,128.490936
5676,P,-452.392792
5677,P,-452.392792
5678,P,-198.27272
5679,P,-198.27272
5680,P,-199.618896
5681,P,-199.618896
5682,P,-266.397339
5683,P,-266.397339
5684,P,143.658966
5685,P,143.658966
5686,P,35.5245895
5687,P,35.5245895
5688,P,-408.268036
5689,P,-408.268036
5690,P,-87.3631973
5691,P,-87.3631973
5692,P,-264.533417
5693,P,-264.533417
5694,P,8.19546604
5695,P,8.19546604
5696,P,117.483849
5697,P,117.483849
5698,P,253.293991
5699,P,253.293991
5700,P,266.077118
5701,P,266.077118
5702,P,242.898819
5703,P,242.898819
5704,P,261.377136
5705,P,261.377136
5706,P,329.575256
5707,P,329.575256
5708,P,-232.62027
5709,P,-232.62027
5710,P,289.564331
5711,P,289.564331
5712,P,-239.13829
5713,P,-239.13829
5714,P,-172.243622
5715,P,-172.243622
5716,P,-173.639267
5717,P,-173.639267
5718,P,-232.499405
5719,P,-232.499405
5720,P,169.057785
5721,P,169.057785
5722,P,-392.517853
5723,P,-392.517853
5724,P,-368.958527
5725,P,-368.958527
5726,P,78.5187683
5727,P,78.5187683
5728,P,-230.760071
5729,P,-230.760071
5730,P,-380.395233
5731,P,-380.395233
5732,P,140.96257
5733,P,140.96257
5734,P,322.132172
5735,P,322.132172
5736,P,-272.931976
5737,P,-272.931976
5738,P,286.729858
5739,P,286.729858
5740,P,-264.013245
5741,P,-264.013245
5742,P,-170.739304
5743,P,-170.739304
5744,P,-169.153763
5745,P,-169.153763
5746,P,-225.229401
5747,P,-225.229401
5748,P,146.448578
5749,P,146.448578
5750,P,-352.493011
5751,P,-352.493011
5752,P,-365.398926
5753,P,-365.398926
5754,P,84.7409439
5755,P,84.7409439
5756,P,-226.443008
5757,P,-226.443008
5758,P,-357.300568
5759,P,-357.300568
5760,P,137.46344
5761,P,137.46344
5762,P,326.153656
5763,P,326.153656
5764,P,-210.761398
5765,P,-210.761398
5766,P,-204.621078
5767,P,-204.621078
5768,P,311.772949
5769,P,311.772949
5770,P,-154.13559
5771,P,-154.13559
5772,P,-150.737656
5773,P,-150.737656
5774,P,-355.909515
5775,P,-355.909515
5776,P,164.713226
5777,P,164.713226
5778,P,-212.50296
5779,P,-212.50296
5780,P,159.860062
5781,P,159.860062
5782,P,-271.551819
5783,P,-271.551819
5784,P,-215.070557
5785,P,-215.070557
5786,P,154.054016
5787,P,154.054016
5788,P,-283.018799
5789,P,-283.018799
5790,P,-157.106888
5791,P,-157.106888
5792,P,-159.600113
5793,P,-159.600113
5794,P,-221.838669
5795,P,-221.838669
5796,P,148.072189
5797,P,148.072189
5798,P,-326.138092
5799,P,-326.138092
5800,P,-360.557037
5801,P,-360.557037
5802,P,154.726212
5803,P,154.726212
5804,P,-220.547104
5805,P,-220.547104
5806,P,-317.365784
5807,P,-317.365784
5808,P,152.675522
5809,P,152.675522
5810,P,294.685364
5811,P,294.685364
5812,P,-171.572891
5813,P,-171.572891
5814,P,306.800262
5815,P,306.800262
5816,P,-180.093842
5817,P,-180.093842
5818,P,329.380859
5819,P,329.380859
5820,P,-232.77301
5821,P,-232.77301
5822,P,289.564484
5823,P,289.564484
5824,P,-239.226974
5825,P,-239.226974
5826,P,-171.969894
5827,P,-171.969894
5828,P,-173.381561
5829,P,-173.381561
5830,P,-232.24649
5831,P,-232.24649
5832,P,169.357925
5833,P,169.357925
5834,P,-392.455658
5835,P,-392.455658
5836,P,-368.7565
5837,P,-368.7565
5838,P,78.812561
5839,P,78.812561
5840,P,-230.478287
5841,P,-230.478287
5842,P,-380.337494
5843,P,-380.337494
5844,P,141.19046
5845,P,141.19046
5846,P,322.219971
5847,P,322.219971
5848,P,-272.928436
5849,P,-272.928436
5850,P,286.771484
5851,P,286.771484
5852,P,-264.015015
5853,P,-264.015015
5854,P,-170.449783
5855,P,-170.449783
5856,P,-168.849289
5857,P,-168.849289
5858,P,-224.887787
5859,P,-224.887787
5860,P,146.400116
5861,P,146.400116
5862,P,-352.574646
5863,P,-352.574646
5864,P,-365.151306
5865,P,-365.151306
5866,P,84.9997559
5867,P,84.9997559
5868,P,-226.107681
5869,P,-226.107681
5870,P,-357.323242
5871,P,-357.323242
5872,P,137.642166
5873,P,137.642166
5874,P,325.842346
5875,P,325.842346
5876,P,-211.241806
5877,P,-211.241806
5878,P,310.855774
5879,P,310.855774
5880,P,-205.289886
5881,P,-205.289886
5882,P,-153.693298
5883,P,-153.693298
5884,P,-150.264709
5885,P,-150.264709
5886,P,-212.033844
5887,P,-212.033844
5888,P,157.733536
5889,P,157.733536
5890,P,-273.447754
5891,P,-273.447754
5892,P,-355.647736
5893,P,-355.647736
5894,P,164.230576
5895,P,164.230576
5896,P,-214.594742
5897,P,-214.594742
5898,P,-284.40741
5899,P,-284.40741
5900,P,153.124435
5901,P,153.124435
5902,P,291.203705
5903,P,291.203705
5904,P,-173.909286
5905,P,-173.909286
5906,P,305.496368
5907,P,305.496368
5908,P,-181.777847
5909,P,-181.777847
5910,P,-156.692047
5911,P,-156.692047
5912,P,-159.215393
5913,P,-159.215393
5914,P,-221.456604
5915,P,-221.456604
5916,P,147.91362
5917,P,147.91362
5918,P,-326.521179
5919,P,-326.521179
5920,P,-360.288605
5921,P,-360.288605
5922,P,154.431625
5923,P,154.431625
5924,P,-220.13913
5925,P,-220.13913
5926,P,-317.9133
5927,P,-317.9133
5928,P,152.015274
5929,P,152.015274
5930,P,229.184448
5931,P,229.184448
5932,P,96.8168335
5933,P,96.8168335
5934,P,240.298737
5935,P,240.298737
5936,P,100.409782
5937,P,100.409782
5938,P,-204.342239
5939,P,-204.342239
5940,P,-204.307846
5941,P,-204.307846
5942,P,-269.684509
5943,P,-269.684509
5944,P,168.122238
5945,P,168.122238
5946,P,72.7582016
5947,P,72.7582016
5948,P,-412.912689
5949,P,-412.912689
5950,P,-131.112549
5951,P,-131.112549
5952,P,-269.879883
5953,P,-269.879883
5954,P,70.4699249
5955,P,70.4699249
5956,P,163.910965
5957,P,163.910965
5958,P,256.403015
5959,P,256.403015
5960,P,111.459229
5961,P,111.459229
5962,P,245.001373
5963,P,245.001373
5964,P,108.314598
5965,P,108.314598
5966,P,-204.180344
5967,P,-204.180344
5968,P,-203.852448
5969,P,-203.852448
5970,P,-269.463287
5971,P,-269.463287
5972,P,150.257935
5973,P,150.257935
5974,P,60.2481422
5975,P,60.2481422
5976,P,-413.997375
5977,P,-413.997375
5978,P,-127.488174
5979,P,-127.488174
5980,P,-269.832916
5981,P,-269.832916
5982,P,64.0550461
5983,P,64.0550461
5984,P,161.730545
5985,P,161.730545
5986,P,226.286499
5987,P,226.286499
5988,P,88.1506882
5989,P,88.1506882
5990,P,230.123703
5991,P,230.123703
5992,P,90.5647507
5993,P,90.5647507
5994,P,-196.866531
5995,P,-196.866531
5996,P,-195.192856
5997,P,-195.192856
5998,P,-254.061417
5999,P,-254.061417
6000,P,129.866623
6001,P,129.866623
6002,P,-511.462006
6003,P,-511.462006
6004,P,-394.847443
6005,P,-394.847443
6006,P,-50.5251808
6007,P,-50.5251808
6008,P,-256.601837
6009,P,-256.601837
6010,P,-452.604736
6011,P,-452.604736
6012,P,128.36055
6013,P,128.36055
6014,P,253.084244
6015,P,253.084244
6016,P,265.889954
6017,P,265.889954
6018,P,242.64505
6019,P,242.64505
6020,P,261.181915
6021,P,261.181915
6022,P,-198.457428
6023,P,-198.457428
6024,P,-199.806458
6025,P,-199.806458
6026,P,-266.610443
6027,P,-266.610443
6028,P,143.481567
6029,P,143.481567
6030,P,35.3037605
6031,P,35.3037605
6032,P,-408.483673
6033,P,-408.483673
6034,P,-87.4467316
6035,P,-87.4467316
6036,P,-264.734528
6037,P,-264.734528
6038,P,7.98754454
6039,P,7.98754454
6040,P,117.345894
6041,P,117.345894
6042,P,28.3075886
6043,P,28.3075886
6044,P,13.2305775
6045,P,13.2305775
6046,P,-16.9981709
6047,P,-16.9981709
6048,P,0.891741455
6049,P,0.891741455
6050,P,-231.556763
6051,P,-231.556763
6052,P,-232.120346
6053,P,-232.120346
6054,P,-306.45575
6055,P,-306.45575
6056,P,258.717499
6057,P,258.717499
6058,P,29.2240295
6059,P,29.2240295
6060,P,-458.127716
6061,P,-458.127716
6062,P,-159.748795
6063,P,-159.748795
6064,P,-305.978088
6065,P,-305.978088
6066,P,30.9310303
6067,P,30.9310303
6068,P,261.750092
6069,P,261.750092
6070,P,-32.8421097
6071,P,-32.8421097
6072,P,-13.3778706
6073,P,-13.3778706
6074,P,-25.7436485
6075,P,-25.7436485
6076,P,-10.9596777
6077,P,-10.9596777
6078,P,-230.620041
6079,P,-230.620041
6080,P,-229.384125
6081,P,-229.384125
6082,P,-300.787048
6083,P,-300.787048
6084,P,264.219025
6085,P,264.219025
6086,P,43.8647919
6087,P,43.8647919
6088,P,-454.61322
6089,P,-454.61322
6090,P,-157.895462
6091,P,-157.895462
6092,P,-302.752441
6093,P,-302.752441
6094,P,36.5537758
6095,P,36.5537758
6096,P,264.628906
6097,P,264.628906
6098,P,64.2326508
6099,P,64.2326508
6100,P,51.9327545
6101,P,51.9327545
6102,P,186.984161
6103,P,186.984161
6104,P,73.604126
6105,P,73.604126
6106,P,-215.184204
6107,P,-215.184204
6108,P,-213.02562
6109,P,-213.02562
6110,P,-275.24939
6111,P,-275.24939
6112,P,158.042511
6113,P,158.042511
6114,P,77.7754898
6115,P,77.7754898
6116,P,-417.842377
6117,P,-417.842377
6118,P,-183.917343
6119,P,-183.917343
6120,P,-278.059692
6121,P,-278.059692
6122,P,71.3015594
6123,P,71.3015594
6124,P,180.638748
6125,P,180.638748
6126,P,284.968292
6127,P,284.968292
6128,P,121.230919
6129,P,121.230919
6130,P,227.330688
6131,P,227.330688
6132,P,108.295464
6133,P,108.295464
6134,P,-217.491745
6135,P,-217.491745
6136,P,-219.702209
6137,P,-219.702209
6138,P,-292.185913
6139,P,-292.185913
6140,P,260.493378
6141,P,260.493378
6142,P,56.8874435
6143,P,56.8874435
6144,P,-433.447754
6145,P,-433.447754
6146,P,-178.319916
6147,P,-178.319916
6148,P,-288.370117
6149,P,-288.370117
6150,P,66.8191223
6151,P,66.8191223
6152,P,205.36409
6153,P,205.36409
6154,P,285.621033
6155,P,285.621033
6156,P,129.068146
6157,P,129.068146
6158,P,275.858612
6159,P,275.858612
6160,P,126.586899
6161,P,126.586899
6162,P,-203.748825
6163,P,-203.748825
6164,P,-203.765381
6165,P,-203.765381
6166,P,-268.633759
6167,P,-268.633759
6168,P,169.408447
6169,P,169.408447
6170,P,76.9658966
6171,P,76.9658966
6172,P,-409.285461
6173,P,-409.285461
6174,P,-156.589279
6175,P,-156.589279
6176,P,-268.406006
6177,P,-268.406006
6178,P,78.8309402
6179,P,78.8309402
6180,P,171.756332
6181,P,171.756332
6182,P,261.129456
6183,P,261.129456
6184,P,118.241081
6185,P,118.241081
6186,P,271.723785
6187,P,271.723785
6188,P,121.02681
6189,P,121.02681
6190,P,-203.671906
6191,P,-203.671906
6192,P,-203.527878
6193,P,-203.527878
6194,P,-267.452698
6195,P,-267.452698
6196,P,172.923447
6197,P,172.923447
6198,P,83.1392059
6199,P,83.1392059
6200,P,-407.829498
6201,P,-407.829498
6202,P,-160.15799
6203,P,-160.15799
6204,P,-267.675293
6205,P,-267.675293
6206,P,81.6457062
6207,P,81.6457062
6208,P,172.27536
6209,P,172.27536
6210,P,289.365875
6211,P,289.365875
6212,P,133.40097
6213,P,133.40097
6214,P,297.520111
6215,P,297.520111
6216,P,134.998505
6217,P,134.998505
6218,P,-205.223236
6219,P,-205.223236
6220,P,-205.840179
6221,P,-205.840179
6222,P,-269.979584
6223,P,-269.979584
6224,P,161.065094
6225,P,161.065094
6226,P,81.4392471
6227,P,81.4392471
6228,P,-407.154724
6229,P,-407.154724
6230,P,-182.523514
6231,P,-182.523514
6232,P,-269.030426
6233,P,-269.030426
6234,P,83.5793839
6235,P,83.5793839
6236,P,166.289703
6237,P,166.289703
6238,P,296.863342
6239,P,296.863342
6240,P,132.957489
6241,P,132.957489
6242,P,299.719116
6243,P,299.719116
6244,P,135.513947
6245,P,135.513947
6246,P,-204.6548
6247,P,-204.6548
6248,P,-204.169693
6249,P,-204.169693
6250,P,-267.335876
6251,P,-267.335876
6252,P,172.914917
6253,P,172.914917
6254,P,84.554512
6255,P,84.554512
6256,P,-406.575134
6257,P,-406.575134
6258,P,-181.746765
6259,P,-181.746765
6260,P,-267.565125
6261,P,-267.565125
6262,P,85.1020203
6263,P,85.1020203
6264,P,168.884216
6265,P,168.884216
6266,P,366.366882
6267,P,366.366882
6268,P,-243.10321
6269,P,-243.10321
6270,P,414.782837
6271,P,414.782837
6272,P,-301.052155
6273,P,-301.052155
6274,P,-181.563629
6275,P,-181.563629
6276,P,-180.346451
6277,P,-180.346451
6278,P,-237.800354
6279,P,-237.800354
6280,P,184.057114
6281,P,184.057114
6282,P,-439.936279
6283,P,-439.936279
6284,P,-379.087677
6285,P,-379.087677
6286,P,102.041588
6287,P,102.041588
6288,P,-239.368256
6289,P,-239.368256
6290,P,-457.565308
6291,P,-457.565308
6292,P,218.189728
6293,P,218.189728
6294,P,342.164978
6295,P,342.164978
6296,P,-304.321564
6297,P,-304.321564
6298,P,400.264679
6299,P,400.264679
6300,P,-315.011292
6301,P,-315.011292
6302,P,-182.525009
6303,P,-182.525009
6304,P,-183.33934
6305,P,-183.33934
6306,P,-243.482224
6307,P,-243.482224
6308,P,160.37233
6309,P,160.37233
6310,P,-490.089142
6311,P,-490.089142
6312,P,-382.032074
6313,P,-382.032074
6314,P,100.436592
6315,P,100.436592
6316,P,-242.747589
6317,P,-242.747589
6318,P,-478.961853
6319,P,-478.961853
6320,P,220.677856
6321,P,220.677856
6322,P,253.957352
6323,P,253.957352
6324,P,179.171768
6325,P,179.171768
6326,P,233.088089
6327,P,233.088089
6328,P,209.115509
6329,P,209.115509
6330,P,-188.13739
6331,P,-188.13739
6332,P,-188.872604
6333,P,-188.872604
6334,P,-248.990219
6335,P,-248.990219
6336,P,118.413841
6337,P,118.413841
6338,P,-516.088074
6339,P,-516.088074
6340,P,-384.336029
6341,P,-384.336029
6342,P,18.0324383
6343,P,18.0324383
6344,P,-247.958008
6345,P,-247.958008
6346,P,-512.425964
6347,P,-512.425964
6348,P,104.334335
6349,P,104.334335
6350,P,249.003143
6351,P,249.003143
6352,P,247.511459
6353,P,247.511459
6354,P,237.88298
6355,P,237.88298
6356,P,240.472
6357,P,240.472
6358,P,-187.40329
6359,P,-187.40329
6360,P,-186.66069
6361,P,-186.66069
6362,P,-245.209381
6363,P,-245.209381
6364,P,126.24334
6365,P,126.24334
6366,P,-516.225525
6367,P,-516.225525
6368,P,-383.143555
6369,P,-383.143555
6370,P,22.9673672
6371,P,22.9673672
6372,P,-245.7789
6373,P,-245.7789
6374,P,-510.803772
6375,P,-510.803772
6376,P,102.882278
6377,P,102.882278
6378,P,261.299927
6379,P,261.299927
6380,P,44.4325829
6381,P,44.4325829
6382,P,267.510254
6383,P,267.510254
6384,P,74.5472641
6385,P,74.5472641
6386,P,34.8396454
6387,P,34.8396454
6388,P,66.5813675
6389,P,66.5813675
6390,P,-38.1425819
6391,P,-38.1425819
6392,P,366.894257
6393,P,366.894257
6394,P,90.1517258
6395,P,90.1517258
6396,P,-221.854568
6397,P,-221.854568
6398,P,16.0899792
6399,P,16.0899792
6400,P,-64.9741898
6401,P,-64.9741898
6402,P,89.0587158
6403,P,89.0587158
6404,P,354.731781
6405,P,354.731781
6406,P,3.44059253
6407,P,3.44059253
6408,P,-27.7311993
6409,P,-27.7311993
6410,P,-142.959473
6411,P,-142.959473
6412,P,240.264175
6413,P,240.264175
6414,P,60.3394356
6415,P,60.3394356
6416,P,-286.495239
6417,P,-286.495239
6418,P,13.051631
6419,P,13.051631
6420,P,-128.14563
6421,P,-128.14563
6422,P,87.8016968
6423,P,87.8016968
6424,P,342.259552
6425,P,342.259552
6426,P,311.947235
6427,P,311.947235
6428,P,-50.2988014
6429,P,-50.2988014
6430,P,326.014435
6431,P,326.014435
6432,P,-70.5658264
6433,P,-70.5658264
6434,P,-119.62487
6435,P,-119.62487
6436,P,-126.823318
6437,P,-126.823318
6438,P,-202.547134
6439,P,-202.547134
6440,P,162.227707
6441,P,162.227707
6442,P,-229.939072
6443,P,-229.939072
6444,P,-344.504974
6445,P,-344.504974
6446,P,249.377838
6447,P,249.377838
6448,P,-198.649979
6449,P,-198.649979
6450,P,-214.302643
6451,P,-214.302643
6452,P,171.817841
6453,P,171.817841
6454,P,293.201996
6455,P,293.201996
6456,P,-135.939819
6457,P,-135.939819
6458,P,325.151672
6459,P,325.151672
6460,P,-119.877609
6461,P,-119.877609
6462,P,-112.175354
6463,P,-112.175354
6464,P,-102.522011
6465,P,-102.522011
6466,P,-176.091553
6467,P,-176.091553
6468,P,165.550186
6469,P,165.550186
6470,P,-118.060837
6471,P,-118.060837
6472,P,-332.289062
6473,P,-332.289062
6474,P,261.991028
6475,P,261.991028
6476,P,-182.74054
6477,P,-182.74054
6478,P,-152.355545
6479,P,-152.355545
6480,P,174.818893
6481,P,174.818893
6482,P,135.07309
6483,P,135.07309
6484,P,-83.1640701
6485,P,-83.1640701
6486,P,110.786728
6487,P,110.786728
6488,P,-101.941353
6489,P,-101.941353
6490,P,755.525208
6491,P,755.525208
6492,P,474.353577
6493,P,474.353577
6494,P,353.563751
6495,P,353.563751
6496,P,76.8851929
6497,P,76.8851929
6498,P,113.882004
6499,P,113.882004
6500,P,283.658112
6501,P,283.658112
6502,P,263.858307
6503,P,263.858307
6504,P,-19.1411819
6505,P,-19.1411819
6506,P,167.189774
6507,P,167.189774
6508,P,167.709503
6509,P,167.709503
6510,P,160.165359
6511,P,160.165359
6512,P,428.214478
6513,P,428.214478
6514,P,356.256439
6515,P,356.256439
6516,P,464.247711
6517,P,464.247711
6518,P,-123.357185
6519,P,-123.357185
6520,P,517.371948
6521,P,517.371948
6522,P,352.497742
6523,P,352.497742
6524,P,369.969879
6525,P,369.969879
6526,P,470.01239
6527,P,470.01239
6528,P,49.6142197
6529,P,49.6142197
6530,P,197.628342
6531,P,197.628342
6532,P,274.025116
6533,P,274.025116
6534,P,226.831985
6535,P,226.831985
6536,P,-55.517765
6537,P,-55.517765
6538,P,70.9900513
6539,P,70.9900513
6540,P,114.432678
6541,P,114.432678
6542,P,211.884506
6543,P,211.884506
6544,P,394.516113
6545,P,394.516113
6546,P,163.128571
6547,P,163.128571
6548,P,167.62793
6549,P,167.62793
6550,P,214.959991
6551,P,214.959991
6552,P,305.773285
6553,P,305.773285
6554,P,334.755493
6555,P,334.755493
6556,P,376.92276
6557,P,376.92276
6558,P,-318.196533
6559,P,-318.196533
6560,P,754.228638
6561,P,754.228638
6562,P,-279.945435
6563,P,-279.945435
6564,P,708.286377
6565,P,708.286377
6566,P,288.308655
6567,P,288.308655
6568,P,337.30603
6569,P,337.30603
6570,P,-180.695511
6571,P,-180.695511
6572,P,95.0172729
6573,P,95.0172729
6574,P,-117.771797
6575,P,-117.771797
6576,P,-156.662521
6577,P,-156.662521
6578,P,354.51474
6579,P,354.51474
6580,P,326.655609
6581,P,326.655609
6582,P,297.036285
6583,P,297.036285
6584,P,173.70372
6585,P,173.70372
6586,P,-396.87027
6587,P,-396.87027
6588,P,715.565369
6589,P,715.565369
6590,P,-382.421387
6591,P,-382.421387
6592,P,640.99176
6593,P,640.99176
6594,P,-117.645714
6595,P,-117.645714
6596,P,284.983521
6597,P,284.983521
6598,P,-40.9129028
6599,P,-40.9129028
6600,P,278.462738
6601,P,278.462738
6602,P,236.98819
6603,P,236.98819
6604,P,-187.288559
6605,P,-187.288559
6606,P,-114.011536
6607,P,-114.011536
6608,P,219.766357
6609,P,219.766357
6610,P,296.584625
6611,P,296.584625
6612,P,424.865723
6613,P,424.865723
6614,P,257.167847
6615,P,257.167847
6616,P,343.723663
6617,P,343.723663
6618,P,415.228394
6619,P,415.228394
6620,P,282.228882
6621,P,282.228882
6622,P,270.16272
6623,P,270.16272
6624,P,418.11615
6625,P,418.11615
6626,P,156.23439
6627,P,156.23439
6628,P,455.981201
6629,P,455.981201
6630,P,146.95787
6631,P,146.95787
6632,P,424.007324
6633,P,424.007324
6634,P,460.708008
6635,P,460.708008
6636,P,161.3927
6637,P,161.3927
6638,P,173.993637
6639,P,173.993637
6640,P,483.266327
6641,P,483.266327
6642,P,-75.4913254
6643,P,-75.4913254
6644,P,20.446146
6645,P,20.446146
6646,P,-66.5897827
6647,P,-66.5897827
6648,P,-45.8285828
6649,P,-45.8285828
6650,P,79.6459427
6651,P,79.6459427
6652,P,32.4464035
6653,P,32.4464035
6654,P,200.539093
6655,P,200.539093
6656,P,474.248718
6657,P,474.248718
6658,P,126.186211
6659,P,126.186211
6660,P,382.709503
6661,P,382.709503
6662,P,140.226929
6663,P,140.226929
6664,P,418.592987
6665,P,418.592987
6666,P,379.106628
6667,P,379.106628
6668,P,120.008469
6669,P,120.008469
6670,P,188.362762
6671,P,188.362762
6672,P,415.380066
6673,P,415.380066
6674,P,-126.987854
6675,P,-126.987854
6676,P,280.145172
6677,P,280.145172
6678,P,204.124283
6679,P,204.124283
6680,P,324.408478
6681,P,324.408478
6682,P,268.457489
6683,P,268.457489
6684,P,-120.473274
6685,P,-120.473274
6686,P,-108.766693
6687,P,-108.766693
6688,P,233.227005
6689,P,233.227005
6690,P,-126.93705
6691,P,-126.93705
6692,P,280.073578
6693,P,280.073578
6694,P,204.268005
6695,P,204.268005
6696,P,324.481842
6697,P,324.481842
6698,P,-120.344727
6699,P,-120.344727
6700,P,268.30777
6701,P,268.30777
6702,P,-108.67083
6703,P,-108.67083
6704,P,231.155563
6705,P,231.155563
6706,P,125.970657
6707,P,125.970657
6708,P,382.431854
6709,P,382.431854
6710,P,140.024521
6711,P,140.024521
6712,P,418.325256
6713,P,418.325256
6714,P,119.802483
6715,P,119.802483
6716,P,378.832458
6717,P,378.832458
6718,P,188.168961
6719,P,188.168961
6720,P,415.194458
6721,P,415.194458
6722,P,-75.5492401
6723,P,-75.5492401
6724,P,20.34828
6725,P,20.34828
6726,P,-66.6046829
6727,P,-66.6046829
6728,P,-45.836853
6729,P,-45.836853
6730,P,32.3624268
6731,P,32.3624268
6732,P,79.538002
6733,P,79.538002
6734,P,200.425751
6735,P,200.425751
6736,P,474.099091
6737,P,474.099091
6738,P,156.326492
6739,P,156.326492
6740,P,456.147675
6741,P,456.147675
6742,P,147.087952
6743,P,147.087952
6744,P,424.267639
6745,P,424.267639
6746,P,161.467407
6747,P,161.467407
6748,P,460.864685
6749,P,460.864685
6750,P,174.071655
6751,P,174.071655
6752,P,483.407135
6753,P,483.407135
6754,P,296.558533
6755,P,296.558533
6756,P,424.880157
6757,P,424.880157
6758,P,257.04599
6759,P,257.04599
6760,P,343.649994
6761,P,343.649994
6762,P,282.265045
6763,P,282.265045
6764,P,415.262329
6765,P,415.262329
6766,P,270.280792
6767,P,270.280792
6768,P,418.286682
6769,P,418.286682
6770,P,-24.4336109
6771,P,-24.4336109
6772,P,403.176819
6773,P,403.176819
6774,P,-176.822983
6775,P,-176.822983
6776,P,308.002319
6777,P,308.002319
6778,P,-114.74556
6779,P,-114.74556
6780,P,223.012421
6781,P,223.012421
6782,P,300.249268
6783,P,300.249268
6784,P,78.6779327
6785,P,78.6779327
6786,P,117.223686
6787,P,117.223686
6788,P,-101.488647
6789,P,-101.488647
6790,P,293.04715
6791,P,293.04715
6792,P,-57.0082321
6793,P,-57.0082321
6794,P,282.30957
6795,P,282.30957
6796,P,198.985275
6797,P,198.985275
6798,P,229.781845
6799,P,229.781845
6800,P,37.0985718
6801,P,37.0985718
6802,P,-204.710876
6803,P,-204.710876
6804,P,231.52713
6805,P,231.52713
6806,P,56.5357971
6807,P,56.5357971
6808,P,13.7588444
6809,P,13.7588444
6810,P,20.6212063
6811,P,20.6212063
6812,P,-202.001343
6813,P,-202.001343
6814,P,239.286087
6815,P,239.286087
6816,P,7.35154104
6817,P,7.35154104
6818,P,-41.2850227
6819,P,-41.2850227
6820,P,292.63031
6821,P,292.63031
6822,P,411.082764
6823,P,411.082764
6824,P,266.286316
6825,P,266.286316
6826,P,399.305969
6827,P,399.305969
6828,P,-38.0276146
6829,P,-38.0276146
6830,P,-37.0958748
6831,P,-37.0958748
6832,P,-45.3181648
6833,P,-45.3181648
6834,P,282.675323
6835,P,282.675323
6836,P,413.538086
6837,P,413.538086
6838,P,-44.2360954
6839,P,-44.2360954
6840,P,-47.2386017
6841,P,-47.2386017
6842,P,-46.8349495
6843,P,-46.8349495
6844,P,280.924622
6845,P,280.924622
6846,P,417.526215
6847,P,417.526215
6848,P,-48.0815773
6849,P,-48.0815773
6850,P,-57.7611618
6851,P,-57.7611618
6852,P,154.51503
6853,P,154.51503
6854,P,443.255768
6855,P,443.255768
6856,P,149.089493
6857,P,149.089493
6858,P,438.024445
6859,P,438.024445
6860,P,-57.4127083
6861,P,-57.4127083
6862,P,-57.533535
6863,P,-57.533535
6864,P,-58.4368172
6865,P,-58.4368172
6866,P,162.718323
6867,P,162.718323
6868,P,472.507019
6869,P,472.507019
6870,P,-58.0378876
6871,P,-58.0378876
6872,P,-59.9487228
6873,P,-59.9487228
6874,P,-59.6212692
6875,P,-59.6212692
6876,P,170.678833
6877,P,170.678833
6878,P,476.30719
6879,P,476.30719
6880,P,-60.7562447
6881,P,-60.7562447
6882,P,-74.810257
6883,P,-74.810257
6884,P,-79.1446991
6885,P,-79.1446991
6886,P,-32.347332
6887,P,-32.347332
6888,P,-66.7430649
6889,P,-66.7430649
6890,P,-40.4216652
6891,P,-40.4216652
6892,P,-76.0578384
6893,P,-76.0578384
6894,P,-76.4264221
6895,P,-76.4264221
6896,P,-68.2914658
6897,P,-68.2914658
6898,P,77.8393555
6899,P,77.8393555
6900,P,314.418121
6901,P,314.418121
6902,P,-71.017067
6903,P,-71.017067
6904,P,-64.5933914
6905,P,-64.5933914
6906,P,-65.905899
6907,P,-65.905899
6908,P,184.197113
6909,P,184.197113
6910,P,386.319183
6911,P,386.319183
6912,P,-63.3591805
6913,P,-63.3591805
6914,P,-56.7585983
6915,P,-56.7585983
6916,P,128.87854
6917,P,128.87854
6918,P,397.10968
6919,P,397.10968
6920,P,137.435608
6921,P,137.435608
6922,P,403.2995
6923,P,403.2995
6924,P,-57.2482758
6925,P,-57.2482758
6926,P,-57.5310783
6927,P,-57.5310783
6928,P,-53.6979637
6929,P,-53.6979637
6930,P,121.826103
6931,P,121.826103
6932,P,379.628052
6933,P,379.628052
6934,P,-55.2721519
6935,P,-55.2721519
6936,P,-51.2506332
6937,P,-51.2506332
6938,P,-52.2036858
6939,P,-52.2036858
6940,P,161.285217
6941,P,161.285217
6942,P,387.881653
6943,P,387.881653
6944,P,-50.3360367
6945,P,-50.3360367
6946,P,-30.6838894
6947,P,-30.6838894
6948,P,-67.6712036
6949,P,-67.6712036
6950,P,256.410126
6951,P,256.410126
6952,P,180.711472
6953,P,180.711472
6954,P,263.908203
6955,P,263.908203
6956,P,-34.8819389
6957,P,-34.8819389
6958,P,-36.2331924
6959,P,-36.2331924
6960,P,-20.7765503
6961,P,-20.7765503
6962,P,-135.963181
6963,P,-135.963181
6964,P,254.12822
6965,P,254.12822
6966,P,-24.6505642
6967,P,-24.6505642
6968,P,-12.7117825
6969,P,-12.7117825
6970,P,-16.2018452
6971,P,-16.2018452
6972,P,-95.3435745
6973,P,-95.3435745
6974,P,247.475601
6975,P,247.475601
6976,P,-8.61430073
6977,P,-8.61430073
6978,P,-30.2585011
6979,P,-30.2585011
6980,P,-67.5742874
6981,P,-67.5742874
6982,P,256.426208
6983,P,256.426208
6984,P,180.851425
6985,P,180.851425
6986,P,263.95639
6987,P,263.95639
6988,P,-34.5217133
6989,P,-34.5217133
6990,P,-35.8899193
6991,P,-35.8899193
6992,P,-20.2287216
6993,P,-20.2287216
6994,P,-18.2090912
6995,P,-18.2090912
6996,P,-135.920456
6997,P,-135.920456
6998,P,253.63736
6999,P,253.63736
7000,P,-24.1484509
7001,P,-24.1484509
7002,P,-15.5956373
7003,P,-15.5956373
7004,P,-95.0774155
7005,P,-95.0774155
7006,P,246.725449
7007,P,246.725449
7008,P,-56.7833405
7009,P,-56.7833405
7010,P,128.665726
7011,P,128.665726
7012,P,396.822418
7013,P,396.822418
7014,P,137.253433
7015,P,137.253433
7016,P,403.009094
7017,P,403.009094
7018,P,-57.2748947
7019,P,-57.2748947
7020,P,-57.5508423
7021,P,-57.5508423
7022,P,-53.7164841
7023,P,-53.7164841
7024,P,-53.1956635
7025,P,-53.1956635
7026,P,121.600609
7027,P,121.600609
7028,P,379.390198
7029,P,379.390198
7030,P,-55.284977
7031,P,-55.284977
7032,P,-52.2135849
7033,P,-52.2135849
7034,P,161.112167
7035,P,161.112167
7036,P,387.651428
7037,P,387.651428
7038,P,-74.8603745
7039,P,-74.8603745
7040,P,-79.1933975
7041,P,-79.1933975
7042,P,-32.4095688
7043,P,-32.4095688
7044,P,-66.7643661
7045,P,-66.7643661
7046,P,-40.4679909
7047,P,-40.4679909
7048,P,-76.0699692
7049,P,-76.0699692
7050,P,-76.4241028
7051,P,-76.4241028
7052,P,-68.3802032
7053,P,-68.3802032
7054,P,-67.390213
7055,P,-67.390213
7056,P,77.7474289
7057,P,77.7474289
7058,P,314.282745
7059,P,314.282745
7060,P,-71.0991058
7061,P,-71.0991058
7062,P,-65.9935837
7063,P,-65.9935837
7064,P,184.088623
7065,P,184.088623
7066,P,386.175659
7067,P,386.175659
7068,P,-57.7435112
7069,P,-57.7435112
7070,P,154.614914
7071,P,154.614914
7072,P,443.457214
7073,P,443.457214
7074,P,149.238022
7075,P,149.238022
7076,P,438.2435
7077,P,438.2435
7078,P,-57.3968964
7079,P,-57.3968964
7080,P,-57.5100174
7081,P,-57.5100174
7082,P,-58.4015961
7083,P,-58.4015961
7084,P,-58.9326057
7085,P,-58.9326057
7086,P,162.789948
7087,P,162.789948
7088,P,472.641327
7089,P,472.641327
7090,P,-58.0087395
7091,P,-58.0087395
7092,P,-59.5768661
7093,P,-59.5768661
7094,P,170.749619
7095,P,170.749619
7096,P,476.440399
7097,P,476.440399
7098,P,-41.4983978
7099,P,-41.4983978
7100,P,292.563629
7101,P,292.563629
7102,P,411.05661
7103,P,411.05661
7104,P,266.180969
7105,P,266.180969
7106,P,399.267517
7107,P,399.267517
7108,P,-38.3196564
7109,P,-38.3196564
7110,P,-37.4111214
7111,P,-37.4111214
7112,P,-45.3963318
7113,P,-45.3963318
7114,P,-46.0837898
7115,P,-46.0837898
7116,P,282.709686
7117,P,282.709686
7118,P,413.634949
7119,P,413.634949
7120,P,-44.3493538
7121,P,-44.3493538
7122,P,-46.8836479
7123,P,-46.8836479
7124,P,281.004303
7125,P,281.004303
7126,P,417.647491
7127,P,417.647491
7128,P,69.7550659
7129,P,69.7550659
7130,P,69.7550659
7131,P,67.3186417
7132,P,67.3186417
7133,P,641.94519
7134,P,641.94519
7135,P,41.8685036
7136,P,41.8685036
7137,P,93.673027
7138,P,93.673027
7139,P,23.4663754
7140,P,23.4663754
7141,P,120.821075
7142,P,120.821075
7143,P,518.924377
7144,P,518.924377
7145,P,77.3367004
7146,P,77.3367004
7147,P,303.244659
7148,P,303.244659
7149,P,54.6225662
7150,P,54.6225662
7151,P,-201.480392
7152,P,-201.480392
7153,P,249.785904
7154,P,249.785904
7155,P,45.3121185
7156,P,45.3121185
7157,P,13.162118
7158,P,13.162118
7159,P,-202.107407
7160,P,-202.107407
7161,P,250.135117
7162,P,250.135117
7163,P,0.80852133
7164,P,0.80852133
7165,P,98.7448273
7166,P,98.7448273
7167,P,393.291718
7168,P,393.291718
7169,P,347.791077
7170,P,347.791077
7171,P,322.104248
7172,P,322.104248
7173,P,470.318573
7174,P,470.318573
7175,P,129.848145
7176,P,129.848145
7177,P,460.520538
7178,P,460.520538
7179,P,616.272705
7180,P,616.272705
7181,P,507.524719
7182,P,507.524719
7183,P,700.599487
7184,P,700.599487
7185,P,665.229065
7186,P,665.229065
7187,P,276.585999
7188,P,276.585999
7189,P,333.349213
7190,P,333.349213
7191,P,457.849304
7192,P,457.849304
7193,P,142.261383
7194,P,142.261383
7195,P,498.482483
7196,P,498.482483
7197,P,355.460632
7198,P,355.460632
7199,P,588.418335
7200,P,588.418335
7201,P,235.997208
7202,P,235.997208
7203,P,137.778275
7204,P,137.778275
7205,P,191.166916
7206,P,191.166916
7207,P,323.230103
7208,P,323.230103
7209,P,328.01944
7210,P,328.01944
7211,P,214.257065
7212,P,214.257065
7213,P,203.992615
7214,P,203.992615
7215,P,125.491959
7216,P,125.491959
7217,P,88.7777023
7218,P,88.7777023
7219,P,197.760849
7220,P,197.760849
7221,P,53.501442
7222,P,53.501442
7223,P,79.2460709
7224,P,79.2460709
7225,P,164.459412
7226,P,164.459412
7227,P,5.73989487
7228,P,5.73989487
7229,P,7.3774395
7230,P,7.3774395
7231,P,112.620407
7232,P,112.620407
7233,P,10.6645069
7234,P,10.6645069
7235,P,8.04212856
7236,P,8.04212856
7237,P,114.644608
7238,P,114.644608
7239,P,110.757324
7240,P,110.757324
7241,P,5.31685829
7242,P,5.31685829
7243,P,3.95653009
7244,P,3.95653009
7245,P,2.22534347
7246,P,2.22534347
7247,P,3.51464558
7248,P,3.51464558
7249,P,108.955231
7250,P,108.955231
7251,P,104.015388
7252,P,104.015388
7253,P,-3.06095505
7254,P,-3.06095505
7255,P,-2.91463137
7256,P,-2.91463137
7257,P,104.143288
7258,P,104.143288
7259,P,-2.73621964
7260,P,-2.73621964
7261,P,-2.88427377
7262,P,-2.88427377
7263,P,104.046371
7264,P,104.046371
7265,P,103.979851
7266,P,103.979851
7267,P,-3.15790725
7268,P,-3.15790725
7269,P,-3.94657922
7270,P,-3.94657922
7271,P,101.988815
7272,P,101.988815
7273,P,-5.93275499
7274,P,-5.93275499
7275,P,-4.35205793
7276,P,-4.35205793
7277,P,96.3032837
7278,P,96.3032837
7279,P,-13.2171412
7280,P,-13.2171412
7281,P,-15.0988684
7282,P,-15.0988684
7283,P,-16.1883945
7284,P,-16.1883945
7285,P,-15.53578
7286,P,-15.53578
7287,P,94.9283981
7288,P,94.9283981
7289,P,-12.4310646
7290,P,-12.4310646
7291,P,-9.87753963
7292,P,-9.87753963
7293,P,98.3922348
7294,P,98.3922348
7295,P,-6.59290361
7296,P,-6.59290361
7297,P,-8.9804287
7298,P,-8.9804287
7299,P,100.149277
7300,P,100.149277
7301,P,105.103096
7302,P,105.103096
7303,P,-1.90103519
7304,P,-1.90103519
7305,P,-2.55319262
7306,P,-2.55319262
7307,P,103.999268
7308,P,103.999268
7309,P,-2.86939049
7310,P,-2.86939049
7311,P,-2.6911242
7312,P,-2.6911242
7313,P,105.369949
7314,P,105.369949
7315,P,-1.63023555
7316,P,-1.63023555
7317,P,-0.477239996
7318,P,-0.477239996
7319,P,105.911476
7320,P,105.911476
7321,P,1.59758759
7322,P,1.59758759
7323,P,0.0243016947
7324,P,0.0243016947
7325,P,106.850365
7326,P,106.850365
7327,P,20.2252331
7328,P,20.2252331
7329,P,15.5986814
7330,P,15.5986814
7331,P,123.189705
7332,P,123.189705
7333,P,11.080883
7334,P,11.080883
7335,P,14.3135557
7336,P,14.3135557
7337,P,119.213333
7338,P,119.213333
7339,P,127.360115
7340,P,127.360115
7341,P,22.0160694
7342,P,22.0160694
7343,P,29.2465229
7344,P,29.2465229
7345,P,46.9800835
7346,P,46.9800835
7347,P,32.5131454
7348,P,32.5131454
7349,P,133.451294
7350,P,133.451294
7351,P,125.439835
7352,P,125.439835
7353,P,20.8563442
7354,P,20.8563442
7355,P,16.1357346
7356,P,16.1357346
7357,P,123.816544
7358,P,123.816544
7359,P,11.5177832
7360,P,11.5177832
7361,P,14.827177
7362,P,14.827177
7363,P,119.766655
7364,P,119.766655
7365,P,22.6777058
7366,P,22.6777058
7367,P,30.0078506
7368,P,30.0078506
7369,P,129.179413
7370,P,129.179413
7371,P,47.8218689
7372,P,47.8218689
7373,P,33.2918129
7374,P,33.2918129
7375,P,134.255905
7376,P,134.255905
7377,P,105.311218
7378,P,105.311218
7379,P,-1.73818493
7380,P,-1.73818493
7381,P,-2.41301394
7382,P,-2.41301394
7383,P,-2.759691
7384,P,-2.759691
7385,P,-2.55603361
7386,P,-2.55603361
7387,P,104.509613
7388,P,104.509613
7389,P,105.613205
7390,P,105.613205
7391,P,-1.46134198
7392,P,-1.46134198
7393,P,-0.289771497
7394,P,-0.289771497
7395,P,106.154152
7396,P,106.154152
7397,P,1.80631673
7398,P,1.80631673
7399,P,0.215802133
7400,P,0.215802133
7401,P,107.112953
7402,P,107.112953
7403,P,96.2756042
7404,P,96.2756042
7405,P,-13.2571602
7406,P,-13.2571602
7407,P,-15.1244917
7408,P,-15.1244917
7409,P,-16.1913757
7410,P,-16.1913757
7411,P,-15.5541182
7412,P,-15.5541182
7413,P,94.9182434
7414,P,94.9182434
7415,P,97.7399292
7416,P,97.7399292
7417,P,-12.4718904
7418,P,-12.4718904
7419,P,-9.90942001
7420,P,-9.90942001
7421,P,-6.60011673
7422,P,-6.60011673
7423,P,-9.00691986
7424,P,-9.00691986
7425,P,100.143349
7426,P,100.143349
7427,P,-3.12898755
7428,P,-3.12898755
7429,P,-3.00161266
7430,P,-3.00161266
7431,P,104.133606
7432,P,104.133606
7433,P,-2.84379864
7434,P,-2.84379864
7435,P,-2.97595525
7436,P,-2.97595525
7437,P,103.916389
7438,P,103.916389
7439,P,103.913177
7440,P,103.913177
7441,P,-3.2191391
7442,P,-3.2191391
7443,P,-3.98276401
7444,P,-3.98276401
7445,P,-5.93657589
7446,P,-5.93657589
7447,P,-4.37979317
7448,P,-4.37979317
7449,P,111.373825
7450,P,111.373825
7451,P,5.44331884
7452,P,5.44331884
7453,P,7.02838993
7454,P,7.02838993
7455,P,112.233337
7456,P,112.233337
7457,P,10.2441778
7458,P,10.2441778
7459,P,7.67243767
7460,P,7.67243767
7461,P,114.194923
7462,P,114.194923
7463,P,5.03504753
7464,P,5.03504753
7465,P,3.71073318
7466,P,3.71073318
7467,P,109.847084
7468,P,109.847084
7469,P,2.0092082
7470,P,2.0092082
7471,P,3.27724814
7472,P,3.27724814
7473,P,108.664291
7474,P,108.664291
7475,P,241.031036
7476,P,241.031036
7477,P,139.082748
7478,P,139.082748
7479,P,198.098068
7480,P,198.098068
7481,P,904.147461
7482,P,904.147461
7483,P,904.147461
7484,P,745.798035
7485,P,745.798035
7486,P,126.069283
7487,P,126.069283
7488,P,88.328064
7489,P,88.328064
7490,P,198.125626
7491,P,198.125626
7492,P,52.6744843
7493,P,52.6744843
7494,P,78.6027756
7495,P,78.6027756
7496,P,397.051666
7497,P,397.051666
7498,P,588.077759
7499,P,588.077759
7500,P,820.62677
7501,P,820.62677
7502,P,623.510742
7503,P,623.510742
7504,P,755.568237
7505,P,755.568237
7506,P,569.847717
7507,P,569.847717
7508,P,1151.14172
7509,P,1151.14172
7510,P,811.67688
7511,P,811.67688
7512,P,1020.71057
7513,P,1020.71057
7514,P,1369.50684
7515,P,1369.50684
7516,P,1206.69482
7517,P,1206.69482
7518,P,1173.46887
7519,P,1173.46887
7520,P,1045.14014
7521,P,1045.14014
7522,P,1386.16394
7523,P,1386.16394
7524,P,1466.9895
7525,P,1466.9895
7526,P,1188.4928
7527,P,1188.4928
7528,P,1263.37122
7529,P,1263.37122
7530,P,1521.55396
7531,P,1521.55396
7532,P,1476.55396
7533,P,1476.55396
7534,P,1313.83667
7535,P,1313.83667
7536,P,1271.97876
7537,P,1271.97876
7538,P,1526.93201
7539,P,1526.93201
7540,P,1550.82239
7541,P,1550.82239
7542,P,1318.6582
7543,P,1318.6582
7544,P,1340.36279
7545,P,1340.36279
7546,P,1560.49072
7547,P,1560.49072
7548,P,1553.15784
7549,P,1553.15784
7550,P,1349.03418
7551,P,1349.03418
7552,P,1342.4231
7553,P,1342.4231
7554,P,1560.48901
7555,P,1560.48901
7556,P,1553.13562
7557,P,1553.13562
7558,P,1349.0321
7559,P,1349.0321
7560,P,1342.40588
7561,P,1342.40588
7562,P,1526.88647
7563,P,1526.88647
7564,P,1550.80249
7565,P,1550.80249
7566,P,1318.62061
7567,P,1318.62061
7568,P,1340.34607
7569,P,1340.34607
7570,P,1521.49719
7571,P,1521.49719
7572,P,1476.49414
7573,P,1476.49414
7574,P,1313.78979
7575,P,1313.78979
7576,P,1271.91919
7577,P,1271.91919
7578,P,1386.12
7579,P,1386.12
7580,P,1466.93555
7581,P,1466.93555
7582,P,1188.43713
7583,P,1188.43713
7584,P,1263.30981
7585,P,1263.30981
7586,P,1369.48584
7587,P,1369.48584
7588,P,1206.83398
7589,P,1206.83398
7590,P,1173.42285
7591,P,1173.42285
7592,P,1045.23254
7593,P,1045.23254
7594,P,570.325928
7595,P,570.325928
7596,P,1151.31543
7597,P,1151.31543
7598,P,812.190979
7599,P,812.190979
7600,P,1020.82568
7601,P,1020.82568
7602,P,8.97644424
7603,P,8.97644424
7604,P,-34.1487236
7605,P,-34.1487236
7606,P,-691.09491
7607,P,-691.09491
7608,P,-341.708496
7609,P,-341.708496
7610,P,-363.670715
7611,P,-363.670715
7612,P,-423.042847
7613,P,-423.042847
7614,P,-430.859894
7615,P,-430.859894
7616,P,-730.343689
7617,P,-730.343689
7618,P,-745.264404
7619,P,-745.264404
7620,P,-442.80542
7621,P,-442.80542
7622,P,-442.088562
7623,P,-442.088562
7624,P,-744.323242
7625,P,-744.323242
7626,P,-420.338409
7627,P,-420.338409
7628,P,-410.464996
7629,P,-410.464996
7630,P,-598.247009
7631,P,-598.247009
7632,P,-333.14093
7633,P,-333.14093
7634,P,-296.11319
7635,P,-296.11319
7636,P,-598.294617
7637,P,-598.294617
7638,P,-333.152618
7639,P,-333.152618
7640,P,-296.123322
7641,P,-296.123322
7642,P,-724.363159
7643,P,-724.363159
7644,P,-420.35437
7645,P,-420.35437
7646,P,-410.476013
7647,P,-410.476013
7648,P,-745.261963
7649,P,-745.261963
7650,P,-442.80072
7651,P,-442.80072
7652,P,-442.077148
7653,P,-442.077148
7654,P,-726.98114
7655,P,-726.98114
7656,P,-423.015137
7657,P,-423.015137
7658,P,-430.825958
7659,P,-430.825958
7660,P,-610.020691
7661,P,-610.020691
7662,P,-341.687134
7663,P,-341.687134
7664,P,-363.641815
7665,P,-363.641815
7666,P,-438.622345
7667,P,-438.622345
7668,P,9.02875233
7669,P,9.02875233
7670,P,-34.0667763
7671,P,-34.0667763
7672,P,613.559631
7673,P,613.559631
7674,P,740.93927
7675,P,740.93927
7676,P,852.155273
7677,P,852.155273
7678,P,216.57283
7679,P,216.57283
7680,P,121.443062
7681,P,121.443062
7682,P,-87.0685043
7683,P,-87.0685043
7684,P,-51.9280434
7685,P,-51.9280434
7686,P,-764.661316
7687,P,-764.661316
7688,P,66.7963715
7689,P,66.7963715
7690,P,99.2809906
7691,P,99.2809906
7692,P,-182.714142
7693,P,-182.714142
7694,P,-204.835373
7695,P,-204.835373
7696,P,-387.622375
7697,P,-387.622375
7698,P,-370.558929
7699,P,-370.558929
7700,P,-652.477112
7701,P,-652.477112
7702,P,-227.852203
7703,P,-227.852203
7704,P,-211.589752
7705,P,-211.589752
7706,P,-262.223816
7707,P,-262.223816
7708,P,-270.788574
7709,P,-270.788574
7710,P,-736.887268
7711,P,-736.887268
7712,P,-437.393677
7713,P,-437.393677
7714,P,-433.425873
7715,P,-433.425873
7716,P,-732.831543
7717,P,-732.831543
7718,P,-277.513947
7719,P,-277.513947
7720,P,-273.362854
7721,P,-273.362854
7722,P,-282.807159
7723,P,-282.807159
7724,P,-282.17038
7725,P,-282.17038
7726,P,-438.748718
7727,P,-438.748718
7728,P,-441.46991
7729,P,-441.46991
7730,P,-743.321777
7731,P,-743.321777
7732,P,-278.931976
7733,P,-278.931976
7734,P,-281.563354
7735,P,-281.563354
7736,P,-259.366852
7737,P,-259.366852
7738,P,-249.825394
7739,P,-249.825394
7740,P,-685.465637
7741,P,-685.465637
7742,P,-393.054016
7743,P,-393.054016
7744,P,-406.364746
7745,P,-406.364746
7746,P,-705.271301
7747,P,-705.271301
7748,P,-233.135193
7749,P,-233.135193
7750,P,-245.816544
7751,P,-245.816544
7752,P,-173.133408
7753,P,-173.133408
7754,P,-125.846443
7755,P,-125.846443
7756,P,-101.550949
7757,P,-101.550949
7758,P,-262.808655
7759,P,-262.808655
7760,P,-618.726074
7761,P,-618.726074
7762,P,50.2623062
7763,P,50.2623062
7764,P,-92.2877808
7765,P,-92.2877808
7766,P,614.064148
7767,P,614.064148
7768,P,741.339844
7769,P,741.339844
7770,P,495.494629
7771,P,495.494629
7772,P,551.25177
7773,P,551.25177
7774,P,948.735779
7775,P,948.735779
7776,P,994.704285
7777,P,994.704285
7778,P,1317.05603
7779,P,1317.05603
7780,P,1294.21326
7781,P,1294.21326
7782,P,1125.6228
7783,P,1125.6228
7784,P,1106.17871
7785,P,1106.17871
7786,P,-101.59169
7787,P,-101.59169
7788,P,-262.816467
7789,P,-262.816467
7790,P,-618.751343
7791,P,-618.751343
7792,P,-173.139343
7793,P,-173.139343
7794,P,-125.853928
7795,P,-125.853928
7796,P,50.2298508
7797,P,50.2298508
7798,P,-92.2950592
7799,P,-92.2950592
7800,P,1424.98889
7801,P,1424.98889
7802,P,1437.66833
7803,P,1437.66833
7804,P,1224.57153
7805,P,1224.57153
7806,P,1236.07629
7807,P,1236.07629
7808,P,1505.62207
7809,P,1505.62207
7810,P,1498.42859
7811,P,1498.42859
7812,P,1298.88611
7813,P,1298.88611
7814,P,1292.33813
7815,P,1292.33813
7816,P,-393.075531
7817,P,-393.075531
7818,P,-406.372192
7819,P,-406.372192
7820,P,-705.289978
7821,P,-705.289978
7822,P,-259.380798
7823,P,-259.380798
7824,P,-249.838486
7825,P,-249.838486
7826,P,-233.15451
7827,P,-233.15451
7828,P,-245.826126
7829,P,-245.826126
7830,P,1538.98938
7831,P,1538.98938
7832,P,1542.7821
7833,P,1542.7821
7834,P,1329.54968
7835,P,1329.54968
7836,P,1332.89819
7837,P,1332.89819
7838,P,1558.98059
7839,P,1558.98059
7840,P,1557.82166
7841,P,1557.82166
7842,P,1347.69043
7843,P,1347.69043
7844,P,1346.66455
7845,P,1346.66455
7846,P,-438.757538
7847,P,-438.757538
7848,P,-441.460754
7849,P,-441.460754
7850,P,-743.319397
7851,P,-743.319397
7852,P,-282.805511
7853,P,-282.805511
7854,P,-282.163177
7855,P,-282.163177
7856,P,-278.941406
7857,P,-278.941406
7858,P,-281.55835
7859,P,-281.55835
7860,P,1558.96362
7861,P,1558.96362
7862,P,1557.80029
7863,P,1557.80029
7864,P,1347.67749
7865,P,1347.67749
7866,P,1346.64856
7867,P,1346.64856
7868,P,1538.95654
7869,P,1538.95654
7870,P,1542.76025
7871,P,1542.76025
7872,P,1329.52246
7873,P,1329.52246
7874,P,1332.87891
7875,P,1332.87891
7876,P,-437.375824
7877,P,-437.375824
7878,P,-433.39325
7879,P,-433.39325
7880,P,-732.782776
7881,P,-732.782776
7882,P,-262.204224
7883,P,-262.204224
7884,P,-270.764923
7885,P,-270.764923
7886,P,-277.50119
7887,P,-277.50119
7888,P,-273.339417
7889,P,-273.339417
7890,P,1505.56494
7891,P,1505.56494
7892,P,1498.36084
7893,P,1498.36084
7894,P,1298.83691
7895,P,1298.83691
7896,P,1292.28259
7897,P,1292.28259
7898,P,1424.93811
7899,P,1424.93811
7900,P,1437.62
7901,P,1437.62
7902,P,1224.5155
7903,P,1224.5155
7904,P,1236.02002
7905,P,1236.02002
7906,P,-387.59552
7907,P,-387.59552
7908,P,-370.526154
7909,P,-370.526154
7910,P,-652.410767
7911,P,-652.410767
7912,P,-182.704193
7913,P,-182.704193
7914,P,-204.821609
7915,P,-204.821609
7916,P,-227.835052
7917,P,-227.835052
7918,P,-211.570297
7919,P,-211.570297
7920,P,1317.08752
7921,P,1317.08752
7922,P,1294.26135
7923,P,1294.26135
7924,P,1125.62085
7925,P,1125.62085
7926,P,1106.19629
7927,P,1106.19629
7928,P,495.799774
7929,P,495.799774
7930,P,551.520386
7931,P,551.520386
7932,P,949.013794
7933,P,949.013794
7934,P,994.911133
7935,P,994.911133
7936,P,-87.0140686
7937,P,-87.0140686
7938,P,-51.853817
7939,P,-51.853817
7940,P,-764.572571
7941,P,-764.572571
7942,P,216.614075
7943,P,216.614075
7944,P,121.512657
7945,P,121.512657
7946,P,66.8384018
7947,P,66.8384018
7948,P,99.3410568
7949,P,99.3410568
7950,P,12.3082027
7951,P,12.3082027
7952,P,1561.58691
7953,P,1561.58691
7954,P,668.468689
7955,P,668.468689
7956,P,-1029.90027
7957,P,-1029.90027
7958,P,1441.48132
7959,P,1441.48132
7960,P,758.546326
7961,P,758.546326
7962,P,-1059.41174
7963,P,-1059.41174
7964,P,2304.04883
7965,P,2304.04883
7966,P,1412.80457
7967,P,1412.80457
7968,P,-1078.77734
7969,P,-1078.77734
7970,P,-953.840149
7971,P,-953.840149
7972,P,-942.203613
7973,P,-942.203613
7974,P,2333.23193
7975,P,2333.23193
7976,P,1386.0614
7977,P,1386.0614
7978,P,-1081.03503
7979,P,-1081.03503
7980,P,620.404724
7981,P,620.404724
7982,P,2390.84619
7983,P,2390.84619
7984,P,1443.86096
7985,P,1443.86096
7986,P,-1076.46729
7987,P,-1076.46729
7988,P,2365.90942
7989,P,2365.90942
7990,P,1466.67163
7991,P,1466.67163
7992,P,-1075.52942
7993,P,-1075.52942
7994,P,2624.17456
7995,P,2624.17456
7996,P,1692.38367
7997,P,1692.38367
7998,P,-1066.03503
7999,P,-1066.03503
8000,P,-1069.12439
8001,P,-1069.12439
8002,P,-1066.20801
8003,P,-1066.20801
8004,P,2634.10571
8005,P,2634.10571
8006,P,1681.4353
8007,P,1681.4353
8008,P,-1067.23242
8009,P,-1067.23242
8010,P,2651.8855
8011,P,2651.8855
8012,P,1706.17273
8013,P,1706.17273
8014,P,-1063.20215
8015,P,-1063.20215
8016,P,2646.05054
8017,P,2646.05054
8018,P,1711.84204
8019,P,1711.84204
8020,P,-1060.41821
8021,P,-1060.41821
8022,P,2698.62891
8023,P,2698.62891
8024,P,1755.98303
8025,P,1755.98303
8026,P,-985.734863
8027,P,-985.734863
8028,P,-1088.09033
8029,P,-1088.09033
8030,P,-1088.62671
8031,P,-1088.62671
8032,P,2699.14087
8033,P,2699.14087
8034,P,1755.35681
8035,P,1755.35681
8036,P,-986.14801
8037,P,-986.14801
8038,P,627.941101
8039,P,627.941101
8040,P,2698.61523
8041,P,2698.61523
8042,P,1755.97961
8043,P,1755.97961
8044,P,-985.737427
8045,P,-985.737427
8046,P,2699.13525
8047,P,2699.13525
8048,P,1755.34998
8049,P,1755.34998
8050,P,-986.152222
8051,P,-986.152222
8052,P,2651.90186
8053,P,2651.90186
8054,P,1706.21436
8055,P,1706.21436
8056,P,-1063.16199
8057,P,-1063.16199
8058,P,-1071.44629
8059,P,-1071.44629
8060,P,-1075.54712
8061,P,-1075.54712
8062,P,2646.05762
8063,P,2646.05762
8064,P,1711.86462
8065,P,1711.86462
8066,P,-1060.38245
8067,P,-1060.38245
8068,P,2624.2019
8069,P,2624.2019
8070,P,1692.38977
8071,P,1692.38977
8072,P,-1066.0094
8073,P,-1066.0094
8074,P,2634.09302
8075,P,2634.09302
8076,P,1681.48718
8077,P,1681.48718
8078,P,-1067.20227
8079,P,-1067.20227
8080,P,2390.97314
8081,P,2390.97314
8082,P,1444.0105
8083,P,1444.0105
8084,P,-1076.37976
8085,P,-1076.37976
8086,P,-965.065247
8087,P,-965.065247
8088,P,-976.789978
8089,P,-976.789978
8090,P,2366.01611
8091,P,2366.01611
8092,P,1466.81689
8093,P,1466.81689
8094,P,-1075.44238
8095,P,-1075.44238
8096,P,622.310181
8097,P,622.310181
8098,P,2304.1521
8099,P,2304.1521
8100,P,1412.97961
8101,P,1412.97961
8102,P,-1078.68726
8103,P,-1078.68726
8104,P,2333.38647
8105,P,2333.38647
8106,P,1386.20032
8107,P,1386.20032
8108,P,-1080.95288
8109,P,-1080.95288
8110,P,1561.93945
8111,P,1561.93945
8112,P,668.76355
8113,P,668.76355
8114,P,-1029.71777
8115,P,-1029.71777
8116,P,-636.777222
8117,P,-636.777222
8118,P,-694.393738
8119,P,-694.393738
8120,P,758.843201
8121,P,758.843201
8122,P,-1059.24048
8123,P,-1059.24048
8124,P,1441.85693
8125,P,1441.85693
8126,P,12.2919416
8127,P,12.2919416
8128,P,-166.674988
8129,P,-166.674988
8130,P,136.674011
8131,P,136.674011
8132,P,187.879791
8133,P,187.879791
8134,P,158.456207
8135,P,158.456207
8136,P,173.526749
8137,P,173.526749
8138,P,20.9446659
8139,P,20.9446659
8140,P,168.031998
8141,P,168.031998
8142,P,83.0959396
8143,P,83.0959396
8144,P,92.7684097
8145,P,92.7684097
8146,P,11.1917791
8147,P,11.1917791
8148,P,160.763184
8149,P,160.763184
8150,P,-78.9162521
8151,P,-78.9162521
8152,P,-11.9516077
8153,P,-11.9516077
8154,P,-40.7693291
8155,P,-40.7693291
8156,P,-72.1502304
8157,P,-72.1502304
8158,P,-18.4590073
8159,P,-18.4590073
8160,P,-108.015808
8161,P,-108.015808
8162,P,-79.8559723
8163,P,-79.8559723
8164,P,-52.5860023
8165,P,-52.5860023
8166,P,-48.5965729
8167,P,-48.5965729
8168,P,-112.250992
8169,P,-112.250992
8170,P,-84.1688385
8171,P,-84.1688385
8172,P,-120.25631
8173,P,-120.25631
8174,P,-144.077911
8175,P,-144.077911
8176,P,-80.5620117
8177,P,-80.5620117
8178,P,-141.733337
8179,P,-141.733337
8180,P,-82.7928696
8181,P,-82.7928696
8182,P,-153.187439
8183,P,-153.187439
8184,P,-132.085068
8185,P,-132.085068
8186,P,-92.8967056
8187,P,-92.8967056
8188,P,-91.9439697
8189,P,-91.9439697
8190,P,-154.184921
8191,P,-154.184921
8192,P,-132.907516
8193,P,-132.907516
8194,P,-138.358749
8195,P,-138.358749
8196,P,-159.042358
8197,P,-159.042358
8198,P,-97.5976791
8199,P,-97.5976791
8200,P,-138.312332
8201,P,-138.312332
8202,P,-159.110168
8203,P,-159.110168
8204,P,-97.5399628
8205,P,-97.5399628
8206,P,-156.35675
8207,P,-156.35675
8208,P,-135.485748
8209,P,-135.485748
8210,P,-94.1631546
8211,P,-94.1631546
8212,P,-94.9967422
8213,P,-94.9967422
8214,P,-155.46579
8215,P,-155.46579
8216,P,-134.549026
8217,P,-134.549026
8218,P,-111.847733
8219,P,-111.847733
8220,P,-136.611679
8221,P,-136.611679
8222,P,-77.9912796
8223,P,-77.9912796
8224,P,-139.184662
8225,P,-139.184662
8226,P,-75.5748978
8227,P,-75.5748978
8228,P,-120.4505
8229,P,-120.4505
8230,P,-93.6919327
8231,P,-93.6919327
8232,P,-56.8535767
8233,P,-56.8535767
8234,P,-60.3040771
8235,P,-60.3040771
8236,P,-116.71846
8237,P,-116.71846
8238,P,-89.6680374
8239,P,-89.6680374
8240,P,-57.700901
8241,P,-57.700901
8242,P,-5.30505705
8243,P,-5.30505705
8244,P,-31.2036037
8245,P,-31.2036037
8246,P,-64.7713089
8247,P,-64.7713089
8248,P,0.732266128
8249,P,0.732266128
8250,P,-10.6835766
8251,P,-10.6835766
8252,P,69.6272278
8253,P,69.6272278
8254,P,52.6660805
8255,P,52.6660805
8256,P,0.783334494
8257,P,0.783334494
8258,P,148.307083
8259,P,148.307083
8260,P,1495.22742
8261,P,1495.22742
8262,P,529.371521
8263,P,529.371521
8264,P,1961.70447
8265,P,1961.70447
8266,P,1130.88928
8267,P,1130.88928
8268,P,-1089.97742
8269,P,-1089.97742
8270,P,1084.80444
8271,P,1084.80444
8272,P,-1090.35815
8273,P,-1090.35815
8274,P,2014.77405
8275,P,2014.77405
8276,P,1042.61584
8277,P,1042.61584
8278,P,876.542725
8279,P,876.542725
8280,P,857.345581
8281,P,857.345581
8282,P,1015.49927
8283,P,1015.49927
8284,P,971.567505
8285,P,971.567505
8286,P,1158.72046
8287,P,1158.72046
8288,P,2114.31714
8289,P,2114.31714
8290,P,1181.07361
8291,P,1181.07361
8292,P,-1087.92224
8293,P,-1087.92224
8294,P,-684.10083
8295,P,-684.10083
8296,P,1219.23523
8297,P,1219.23523
8298,P,-1087.66345
8299,P,-1087.66345
8300,P,2070.46753
8301,P,2070.46753
8302,P,-701.039795
8303,P,-701.039795
8304,P,1354.3031
8305,P,1354.3031
8306,P,1594.35022
8307,P,1594.35022
8308,P,1241.83545
8309,P,1241.83545
8310,P,1056.95447
8311,P,1056.95447
8312,P,953.456726
8313,P,953.456726
8314,P,1159.22949
8315,P,1159.22949
8316,P,976.749512
8317,P,976.749512
8318,P,1168.91602
8319,P,1168.91602
8320,P,1066.7572
8321,P,1066.7572
8322,P,289.666748
8323,P,289.666748
8324,P,185.364365
8325,P,185.364365
8326,P,263.804932
8327,P,263.804932
8328,P,178.57634
8329,P,178.57634
8330,P,581.063232
8331,P,581.063232
8332,P,397.263275
8333,P,397.263275
8334,P,150.414597
8335,P,150.414597
8336,P,155.830368
8337,P,155.830368
8338,P,409.680939
8339,P,409.680939
8340,P,-21.767128
8341,P,-21.767128
8342,P,-57.7066154
8343,P,-57.7066154
8344,P,-5.31690788
8345,P,-5.31690788
8346,P,-64.7779846
8347,P,-64.7779846
8348,P,0.721076608
8349,P,0.721076608
8350,P,-10.7066078
8351,P,-10.7066078
8352,P,69.6053085
8353,P,69.6053085
8354,P,0.757458329
8355,P,0.757458329
8356,P,52.6460686
8357,P,52.6460686
8358,P,82.1597519
8359,P,82.1597519
8360,P,41.8736572
8361,P,41.8736572
8362,P,47.2608528
8363,P,47.2608528
8364,P,78.7025681
8365,P,78.7025681
8366,P,156.854813
8367,P,156.854813
8368,P,133.684891
8369,P,133.684891
8370,P,331.304321
8371,P,331.304321
8372,P,103.111794
8373,P,103.111794
8374,P,1398.9917
8375,P,1398.9917
8376,P,2502.58667
8377,P,2502.58667
8378,P,1583.38208
8379,P,1583.38208
8380,P,-1069.46582
8381,P,-1069.46582
8382,P,1566.97241
8383,P,1566.97241
8384,P,-1070.7019
8385,P,-1070.7019
8386,P,2520.1377
8387,P,2520.1377
8388,P,1458.52283
8389,P,1458.52283
8390,P,1071.04041
8391,P,1071.04041
8392,P,966.914246
8393,P,966.914246
8394,P,1200.52881
8395,P,1200.52881
8396,P,976.199524
8397,P,976.199524
8398,P,1255.38318
8399,P,1255.38318
8400,P,1140.38489
8401,P,1140.38489
8402,P,2555.22095
8403,P,2555.22095
8404,P,1602.23389
8405,P,1602.23389
8406,P,-1068.77295
8407,P,-1068.77295
8408,P,-1033.68091
8409,P,-1033.68091
8410,P,1616.48633
8411,P,1616.48633
8412,P,-1068.65771
8413,P,-1068.65771
8414,P,2539.91846
8415,P,2539.91846
8416,P,-1040.87195
8417,P,-1040.87195
8418,P,1915.89819
8419,P,1915.89819
8420,P,1517.18042
8421,P,1517.18042
8422,P,1869.54163
8423,P,1869.54163
8424,P,1483.75842
8425,P,1483.75842
8426,P,1187.2832
8427,P,1187.2832
8428,P,1309.65149
8429,P,1309.65149
8430,P,1148.46118
8431,P,1148.46118
8432,P,1031.2738
8433,P,1031.2738
8434,P,1278.73608
8435,P,1278.73608
8436,P,1036.26208
8437,P,1036.26208
8438,P,71.6694565
8439,P,71.6694565
8440,P,35.5753975
8441,P,35.5753975
8442,P,27.8372631
8443,P,27.8372631
8444,P,75.7882462
8445,P,75.7882462
8446,P,15.2708492
8447,P,15.2708492
8448,P,-14.0702276
8449,P,-14.0702276
8450,P,-10.3088284
8451,P,-10.3088284
8452,P,11.8238792
8453,P,11.8238792
8454,P,-111.854279
8455,P,-111.854279
8456,P,-136.617798
8457,P,-136.617798
8458,P,-77.9926453
8459,P,-77.9926453
8460,P,-139.188354
8461,P,-139.188354
8462,P,-75.5800705
8463,P,-75.5800705
8464,P,-120.462364
8465,P,-120.462364
8466,P,-93.6967773
8467,P,-93.6967773
8468,P,-56.8699799
8469,P,-56.8699799
8470,P,-116.729652
8471,P,-116.729652
8472,P,-60.3198433
8473,P,-60.3198433
8474,P,609.967651
8475,P,609.967651
8476,P,-8.48214054
8477,P,-8.48214054
8478,P,-37.9594078
8479,P,-37.9594078
8480,P,-35.6914597
8481,P,-35.6914597
8482,P,-10.6050568
8483,P,-10.6050568
8484,P,5.21303654
8485,P,5.21303654
8486,P,-18.097311
8487,P,-18.097311
8488,P,8.08270264
8489,P,8.08270264
8490,P,-21.2629871
8491,P,-21.2629871
8492,P,1923.52319
8493,P,1923.52319
8494,P,1530.60266
8495,P,1530.60266
8496,P,2673.80664
8497,P,2673.80664
8498,P,1736.16833
8499,P,1736.16833
8500,P,-988.820862
8501,P,-988.820862
8502,P,1730.73743
8503,P,1730.73743
8504,P,-989.927551
8505,P,-989.927551
8506,P,2678.77979
8507,P,2678.77979
8508,P,1548.56018
8509,P,1548.56018
8510,P,1948.69629
8511,P,1948.69629
8512,P,1191.85144
8513,P,1191.85144
8514,P,1322.06689
8515,P,1322.06689
8516,P,1338.24097
8517,P,1338.24097
8518,P,1211.72998
8519,P,1211.72998
8520,P,1083.96301
8521,P,1083.96301
8522,P,2687.7019
8523,P,2687.7019
8524,P,1741.48401
8525,P,1741.48401
8526,P,-987.962219
8527,P,-987.962219
8528,P,-1082.30994
8529,P,-1082.30994
8530,P,1745.08215
8531,P,1745.08215
8532,P,-987.734375
8533,P,-987.734375
8534,P,2683.97876
8535,P,2683.97876
8536,P,-1084.42578
8537,P,-1084.42578
8538,P,1959.26978
8539,P,1959.26978
8540,P,1560.23999
8541,P,1560.23999
8542,P,1952.05334
8543,P,1952.05334
8544,P,1554.83069
8545,P,1554.83069
8546,P,1219.67017
8547,P,1219.67017
8548,P,1090.93909
8549,P,1090.93909
8550,P,1348.80945
8551,P,1348.80945
8552,P,1213.66028
8553,P,1213.66028
8554,P,1086.04761
8555,P,1086.04761
8556,P,1343.96436
8557,P,1343.96436
8558,P,-14.861846
8559,P,-14.861846
8560,P,-40.4571533
8561,P,-40.4571533
8562,P,-42.5008392
8563,P,-42.5008392
8564,P,-13.0214615
8565,P,-13.0214615
8566,P,634.98175
8567,P,634.98175
8568,P,-22.7534618
8569,P,-22.7534618
8570,P,-51.9508781
8571,P,-51.9508781
8572,P,-51.0563431
8573,P,-51.0563431
8574,P,-23.5759315
8575,P,-23.5759315
8576,P,-138.349854
8577,P,-138.349854
8578,P,-159.035843
8579,P,-159.035843
8580,P,-97.5966034
8581,P,-97.5966034
8582,P,-159.107971
8583,P,-159.107971
8584,P,-97.5348282
8585,P,-97.5348282
8586,P,-156.355972
8587,P,-156.355972
8588,P,-94.1623383
8589,P,-94.1623383
8590,P,-155.468719
8591,P,-155.468719
8592,P,-94.9948273
8593,P,-94.9948273
8594,P,-27.662756
8595,P,-27.662756
8596,P,-56.3914413
8597,P,-56.3914413
8598,P,-56.3331108
8599,P,-56.3331108
8600,P,-27.7284451
8601,P,-27.7284451
8602,P,-25.3959312
8603,P,-25.3959312
8604,P,-53.1602974
8605,P,-53.1602974
8606,P,-24.7255764
8607,P,-24.7255764
8608,P,-53.9232216
8609,P,-53.9232216
8610,P,1560.23376
8611,P,1560.23376
8612,P,2687.69092
8613,P,2687.69092
8614,P,1741.49548
8615,P,1741.49548
8616,P,-987.943298
8617,P,-987.943298
8618,P,1745.08826
8619,P,1745.08826
8620,P,-987.720032
8621,P,-987.720032
8622,P,2683.97314
8623,P,2683.97314
8624,P,1554.80591
8625,P,1554.80591
8626,P,1219.66797
8627,P,1219.66797
8628,P,1090.93774
8629,P,1090.93774
8630,P,1348.80457
8631,P,1348.80457
8632,P,1090.82166
8633,P,1090.82166
8634,P,1343.94482
8635,P,1343.94482
8636,P,1213.64917
8637,P,1213.64917
8638,P,2673.81128
8639,P,2673.81128
8640,P,1736.18274
8641,P,1736.18274
8642,P,-988.800964
8643,P,-988.800964
8644,P,-1080.43542
8645,P,-1080.43542
8646,P,1730.75818
8647,P,1730.75818
8648,P,-989.903564
8649,P,-989.903564
8650,P,2678.77856
8651,P,2678.77856
8652,P,-1079.38367
8653,P,-1079.38367
8654,P,1923.46899
8655,P,1923.46899
8656,P,1530.55737
8657,P,1530.55737
8658,P,1948.67175
8659,P,1948.67175
8660,P,1548.54285
8661,P,1548.54285
8662,P,1191.82495
8663,P,1191.82495
8664,P,1322.02808
8665,P,1322.02808
8666,P,1211.71741
8667,P,1211.71741
8668,P,1083.95715
8669,P,1083.95715
8670,P,1338.22571
8671,P,1338.22571
8672,P,1082.55249
8673,P,1082.55249
8674,P,-27.6683903
8675,P,-27.6683903
8676,P,-56.3911858
8677,P,-56.3911858
8678,P,-56.3384018
8679,P,-56.3384018
8680,P,-27.7293739
8681,P,-27.7293739
8682,P,-25.4066715
8683,P,-25.4066715
8684,P,-53.1644669
8685,P,-53.1644669
8686,P,-53.9290276
8687,P,-53.9290276
8688,P,-24.733902
8689,P,-24.733902
8690,P,-120.238129
8691,P,-120.238129
8692,P,-144.069489
8693,P,-144.069489
8694,P,-80.5616531
8695,P,-80.5616531
8696,P,-141.725586
8697,P,-141.725586
8698,P,-82.789505
8699,P,-82.789505
8700,P,-153.17984
8701,P,-153.17984
8702,P,-132.073151
8703,P,-132.073151
8704,P,-92.8955536
8705,P,-92.8955536
8706,P,-154.178986
8707,P,-154.178986
8708,P,-91.9423904
8709,P,-91.9423904
8710,P,634.923157
8711,P,634.923157
8712,P,-14.8647823
8713,P,-14.8647823
8714,P,-40.4578934
8715,P,-40.4578934
8716,P,-42.5004082
8717,P,-42.5004082
8718,P,-13.0205507
8719,P,-13.0205507
8720,P,-22.7611694
8721,P,-22.7611694
8722,P,-51.9555359
8723,P,-51.9555359
8724,P,-23.585886
8725,P,-23.585886
8726,P,-51.0594635
8727,P,-51.0594635
8728,P,1915.81042
8729,P,1915.81042
8730,P,1517.12488
8731,P,1517.12488
8732,P,2555.24658
8733,P,2555.24658
8734,P,1602.31787
8735,P,1602.31787
8736,P,-1068.7168
8737,P,-1068.7168
8738,P,1616.54321
8739,P,1616.54321
8740,P,-1068.61487
8741,P,-1068.61487
8742,P,2539.96851
8743,P,2539.96851
8744,P,1483.68848
8745,P,1483.68848
8746,P,1869.48914
8747,P,1869.48914
8748,P,1187.24133
8749,P,1187.24133
8750,P,1309.60413
8751,P,1309.60413
8752,P,1278.67554
8753,P,1278.67554
8754,P,1148.41113
8755,P,1148.41113
8756,P,1031.23303
8757,P,1031.23303
8758,P,2502.63232
8759,P,2502.63232
8760,P,1583.48059
8761,P,1583.48059
8762,P,-1069.40735
8763,P,-1069.40735
8764,P,-1026.49597
8765,P,-1026.49597
8766,P,1567.05432
8767,P,1567.05432
8768,P,-1070.63892
8769,P,-1070.63892
8770,P,2520.19482
8771,P,2520.19482
8772,P,-1020.28455
8773,P,-1020.28455
8774,P,1772.3125
8775,P,1772.3125
8776,P,1398.94775
8777,P,1398.94775
8778,P,1856.57642
8779,P,1856.57642
8780,P,1458.46875
8781,P,1458.46875
8782,P,1070.96655
8783,P,1070.96655
8784,P,966.788391
8785,P,966.788391
8786,P,1200.46973
8787,P,1200.46973
8788,P,1140.32861
8789,P,1140.32861
8790,P,1023.3623
8791,P,1023.3623
8792,P,1255.33142
8793,P,1255.33142
8794,P,-8.47612762
8795,P,-8.47612762
8796,P,-37.954628
8797,P,-37.954628
8798,P,-35.6843796
8799,P,-35.6843796
8800,P,-10.601512
8801,P,-10.601512
8802,P,609.77002
8803,P,609.77002
8804,P,5.23896646
8805,P,5.23896646
8806,P,-18.0726147
8807,P,-18.0726147
8808,P,-21.2424335
8809,P,-21.2424335
8810,P,8.11325073
8811,P,8.11325073
8812,P,-48.3217621
8813,P,-48.3217621
8814,P,-78.904808
8815,P,-78.904808
8816,P,-11.9374323
8817,P,-11.9374323
8818,P,-72.1406479
8819,P,-72.1406479
8820,P,-18.4415646
8821,P,-18.4415646
8822,P,-108.00293
8823,P,-108.00293
8824,P,-52.5693626
8825,P,-52.5693626
8826,P,-112.240479
8827,P,-112.240479
8828,P,-48.578495
8829,P,-48.578495
8830,P,71.6942139
8831,P,71.6942139
8832,P,35.5989571
8833,P,35.5989571
8834,P,27.8621216
8835,P,27.8621216
8836,P,75.8171921
8837,P,75.8171921
8838,P,15.3045168
8839,P,15.3045168
8840,P,-14.0471697
8841,P,-14.0471697
8842,P,11.8520994
8843,P,11.8520994
8844,P,-10.2828493
8845,P,-10.2828493
8846,P,1354.29016
8847,P,1354.29016
8848,P,2114.55078
8849,P,2114.55078
8850,P,1181.32654
8851,P,1181.32654
8852,P,-1087.80542
8853,P,-1087.80542
8854,P,1219.47241
8855,P,1219.47241
8856,P,-1087.55444
8857,P,-1087.55444
8858,P,2070.72412
8859,P,2070.72412
8860,P,1241.94116
8861,P,1241.94116
8862,P,1056.88049
8863,P,1056.88049
8864,P,953.323608
8865,P,953.323608
8866,P,1159.2002
8867,P,1159.2002
8868,P,942.092834
8869,P,942.092834
8870,P,1066.82324
8871,P,1066.82324
8872,P,976.78241
8873,P,976.78241
8874,P,1961.9939
8875,P,1961.9939
8876,P,1131.1582
8877,P,1131.1582
8878,P,-1089.8551
8879,P,-1089.8551
8880,P,-671.9151
8881,P,-671.9151
8882,P,1085.08264
8883,P,1085.08264
8884,P,-1090.22913
8885,P,-1090.22913
8886,P,2015.06421
8887,P,2015.06421
8888,P,-661.763245
8889,P,-661.763245
8890,P,1495.73108
8891,P,1495.73108
8892,P,529.798096
8893,P,529.798096
8894,P,1556.03687
8895,P,1556.03687
8896,P,1042.81628
8897,P,1042.81628
8898,P,876.935791
8899,P,876.935791
8900,P,857.795532
8901,P,857.795532
8902,P,971.62085
8903,P,971.62085
8904,P,1158.57861
8905,P,1158.57861
8906,P,1015.62659
8907,P,1015.62659
8908,P,1129.42371
8909,P,1129.42371
8910,P,82.1645279
8911,P,82.1645279
8912,P,41.8951759
8913,P,41.8951759
8914,P,47.2751274
8915,P,47.2751274
8916,P,78.7244339
8917,P,78.7244339
8918,P,156.847168
8919,P,156.847168
8920,P,133.699707
8921,P,133.699707
8922,P,103.124718
8923,P,103.124718
8924,P,331.31073
8925,P,331.31073
8926,P,-166.615875
8927,P,-166.615875
8928,P,136.742065
8929,P,136.742065
8930,P,187.961472
8931,P,187.961472
8932,P,158.529251
8933,P,158.529251
8934,P,173.602966
8935,P,173.602966
8936,P,20.9815445
8937,P,20.9815445
8938,P,168.068359
8939,P,168.068359
8940,P,83.123642
8941,P,83.123642
8942,P,11.2238111
8943,P,11.2238111
8944,P,92.7990952
8945,P,92.7990952
8946,P,579.852844
8947,P,579.852844
8948,P,289.766998
8949,P,289.766998
8950,P,185.472549
8951,P,185.472549
8952,P,263.960663
8953,P,263.960663
8954,P,178.662888
8955,P,178.662888
8956,P,397.237549
8957,P,397.237549
8958,P,150.428879
8959,P,150.428879
8960,P,409.676727
8961,P,409.676727
8962,P,155.839996
8963,P,155.839996
8964,P,-519.892151
8965,P,-519.892151
8966,P,2.78217864
8967,P,2.78217864
8968,P,-605.189209
8969,P,-605.189209
8970,P,-8.9805584
8971,P,-8.9805584
8972,P,-349.775482
8973,P,-349.775482
8974,P,-357.086548
8975,P,-357.086548
8976,P,-730.377869
8977,P,-730.377869
8978,P,-426.353485
8979,P,-426.353485
8980,P,-730.877319
8981,P,-730.877319
8982,P,-428.839661
8983,P,-428.839661
8984,P,-442.889343
8985,P,-442.889343
8986,P,-442.625031
8987,P,-442.625031
8988,P,-720.977356
8989,P,-720.977356
8990,P,-417.324341
8991,P,-417.324341
8992,P,-414.13501
8993,P,-414.13501
8994,P,-588.236267
8995,P,-588.236267
8996,P,-324.16095
8997,P,-324.16095
8998,P,-313.100708
8999,P,-313.100708
9000,P,185.701935
9001,P,185.701935
9002,P,1700.38245
9003,P,1700.38245
9004,P,1409.40381
9005,P,1409.40381
9006,P,1592.8645
9007,P,1592.8645
9008,P,1497.59192
9009,P,1497.59192
9010,P,1666.92004
9011,P,1666.92004
9012,P,908.354492
9013,P,908.354492
9014,P,-1082.59485
9015,P,-1082.59485
9016,P,839.78833
9017,P,839.78833
9018,P,-1073.57898
9019,P,-1073.57898
9020,P,1752.22925
9021,P,1752.22925
9022,P,2270.22461
9023,P,2270.22461
9024,P,1327.69739
9025,P,1327.69739
9026,P,-1083.35718
9027,P,-1083.35718
9028,P,-905.965271
9029,P,-905.965271
9030,P,-927.490173
9031,P,-927.490173
9032,P,1356.56287
9033,P,1356.56287
9034,P,-1082.57471
9035,P,-1082.57471
9036,P,2237.44922
9037,P,2237.44922
9038,P,2356.16992
9039,P,2356.16992
9040,P,2080.97119
9041,P,2080.97119
9042,P,2380.18359
9043,P,2380.18359
9044,P,2060.68652
9045,P,2060.68652
9046,P,-579.621643
9047,P,-579.621643
9048,P,-579.842957
9049,P,-579.842957
9050,P,258.183685
9051,P,258.183685
9052,P,-404.77243
9053,P,-404.77243
9054,P,-320.764191
9055,P,-320.764191
9056,P,193.835922
9057,P,193.835922
9058,P,597.003052
9059,P,597.003052
9060,P,240.021896
9061,P,240.021896
9062,P,-134.283661
9063,P,-134.283661
9064,P,-228.388
9065,P,-228.388
9066,P,201.600906
9067,P,201.600906
9068,P,-588.258301
9069,P,-588.258301
9070,P,-324.166687
9071,P,-324.166687
9072,P,-313.103699
9073,P,-313.103699
9074,P,324.137024
9075,P,324.137024
9076,P,-942.918823
9077,P,-942.918823
9078,P,-972.024292
9079,P,-972.024292
9080,P,579.086365
9081,P,579.086365
9082,P,193.125824
9083,P,193.125824
9084,P,201.472794
9085,P,201.472794
9086,P,317.453644
9087,P,317.453644
9088,P,-1011.8042
9089,P,-1011.8042
9090,P,-996.070068
9091,P,-996.070068
9092,P,2427.81543
9093,P,2427.81543
9094,P,2103.5752
9095,P,2103.5752
9096,P,2407.14453
9097,P,2407.14453
9098,P,2120.97827
9099,P,2120.97827
9100,P,2416.74048
9101,P,2416.74048
9102,P,1509.72473
9103,P,1509.72473
9104,P,-1072.77222
9105,P,-1072.77222
9106,P,1489.43762
9107,P,1489.43762
9108,P,-1074.40857
9109,P,-1074.40857
9110,P,2439.00098
9111,P,2439.00098
9112,P,2611.69604
9113,P,2611.69604
9114,P,1657.80212
9115,P,1657.80212
9116,P,-1067.53711
9117,P,-1067.53711
9118,P,-1057.21301
9119,P,-1057.21301
9120,P,-1062.30762
9121,P,-1062.30762
9122,P,1669.31323
9123,P,1669.31323
9124,P,-1067.6405
9125,P,-1067.6405
9126,P,2599.67725
9127,P,2599.67725
9128,P,2622.43604
9129,P,2622.43604
9130,P,2291.54004
9131,P,2291.54004
9132,P,2629.69409
9133,P,2629.69409
9134,P,2285.50122
9135,P,2285.50122
9136,P,-711.586609
9137,P,-711.586609
9138,P,-716.79071
9139,P,-716.79071
9140,P,126.602264
9141,P,126.602264
9142,P,136.481003
9143,P,136.481003
9144,P,586.715393
9145,P,586.715393
9146,P,102.240631
9147,P,102.240631
9148,P,201.697006
9149,P,201.697006
9150,P,-720.998718
9151,P,-720.998718
9152,P,-417.336395
9153,P,-417.336395
9154,P,-414.140503
9155,P,-414.140503
9156,P,-4.54390621
9157,P,-4.54390621
9158,P,50.496479
9159,P,50.496479
9160,P,48.2487488
9161,P,48.2487488
9162,P,620.21228
9163,P,620.21228
9164,P,-8.05241108
9165,P,-8.05241108
9166,P,-5.25618696
9167,P,-5.25618696
9168,P,-7.13054323
9169,P,-7.13054323
9170,P,44.095665
9171,P,44.095665
9172,P,45.9448662
9173,P,45.9448662
9174,P,2644.4126
9175,P,2644.4126
9176,P,2299.21118
9177,P,2299.21118
9178,P,2638.9292
9179,P,2638.9292
9180,P,2304.10034
9181,P,2304.10034
9182,P,2656.00293
9183,P,2656.00293
9184,P,1713.62512
9185,P,1713.62512
9186,P,-995.717285
9187,P,-995.717285
9188,P,1713.57312
9189,P,1713.57312
9190,P,-1028.98499
9191,P,-1028.98499
9192,P,2658.11743
9193,P,2658.11743
9194,P,2697.58936
9195,P,2697.58936
9196,P,1753.0802
9197,P,1753.0802
9198,P,-986.235229
9199,P,-986.235229
9200,P,-1087.41223
9201,P,-1087.41223
9202,P,-1088.42847
9203,P,-1088.42847
9204,P,1754.34729
9205,P,1754.34729
9206,P,-986.302368
9207,P,-986.302368
9208,P,2696.14722
9209,P,2696.14722
9210,P,2689.18237
9211,P,2689.18237
9212,P,2345.02515
9213,P,2345.02515
9214,P,2689.56543
9215,P,2689.56543
9216,P,2344.66846
9217,P,2344.66846
9218,P,-744.317017
9219,P,-744.317017
9220,P,-745.287415
9221,P,-745.287415
9222,P,-14.4850283
9223,P,-14.4850283
9224,P,36.554451
9225,P,36.554451
9226,P,37.8836365
9227,P,37.8836365
9228,P,-13.6682787
9229,P,-13.6682787
9230,P,629.885864
9231,P,629.885864
9232,P,-15.0117331
9233,P,-15.0117331
9234,P,-12.938386
9235,P,-12.938386
9236,P,41.520256
9237,P,41.520256
9238,P,40.0754166
9239,P,40.0754166
9240,P,-745.537415
9241,P,-745.537415
9242,P,-442.878937
9243,P,-442.878937
9244,P,-442.613373
9245,P,-442.613373
9246,P,-21.7063732
9247,P,-21.7063732
9248,P,29.3581676
9249,P,29.3581676
9250,P,29.061758
9251,P,29.061758
9252,P,638.80365
9253,P,638.80365
9254,P,-22.5193939
9255,P,-22.5193939
9256,P,-22.1354542
9257,P,-22.1354542
9258,P,-21.960104
9259,P,-21.960104
9260,P,28.9028759
9261,P,28.9028759
9262,P,28.905983
9263,P,28.905983
9264,P,2689.17285
9265,P,2689.17285
9266,P,2345.02246
9267,P,2345.02246
9268,P,2689.56201
9269,P,2689.56201
9270,P,2344.65942
9271,P,2344.65942
9272,P,2697.57251
9273,P,2697.57251
9274,P,1753.07568
9275,P,1753.07568
9276,P,-986.233948
9277,P,-986.233948
9278,P,1754.33948
9279,P,1754.33948
9280,P,-986.304382
9281,P,-986.304382
9282,P,2696.13086
9283,P,2696.13086
9284,P,2656.02734
9285,P,2656.02734
9286,P,1713.63708
9287,P,1713.63708
9288,P,-995.689392
9289,P,-995.689392
9290,P,-1073.26843
9291,P,-1073.26843
9292,P,-1074.88757
9293,P,-1074.88757
9294,P,1713.61926
9295,P,1713.61926
9296,P,-1028.92346
9297,P,-1028.92346
9298,P,2658.13574
9299,P,2658.13574
9300,P,2644.3999
9301,P,2644.3999
9302,P,2299.19385
9303,P,2299.19385
9304,P,2638.9126
9305,P,2638.9126
9306,P,2304.07056
9307,P,2304.07056
9308,P,-730.290466
9309,P,-730.290466
9310,P,-730.824524
9311,P,-730.824524
9312,P,-21.7228603
9313,P,-21.7228603
9314,P,-22.5334816
9315,P,-22.5334816
9316,P,638.794373
9317,P,638.794373
9318,P,-22.1577206
9319,P,-22.1577206
9320,P,-21.9702854
9321,P,-21.9702854
9322,P,-730.327515
9323,P,-730.327515
9324,P,-426.320404
9325,P,-426.320404
9326,P,-428.805725
9327,P,-428.805725
9328,P,-14.5231113
9329,P,-14.5231113
9330,P,36.5346642
9331,P,36.5346642
9332,P,37.8738289
9333,P,37.8738289
9334,P,629.806152
9335,P,629.806152
9336,P,-13.7178822
9337,P,-13.7178822
9338,P,-15.0623674
9339,P,-15.0623674
9340,P,-12.9735346
9341,P,-12.9735346
9342,P,41.5144424
9343,P,41.5144424
9344,P,40.0684853
9345,P,40.0684853
9346,P,2622.41504
9347,P,2622.41504
9348,P,2291.5083
9349,P,2291.5083
9350,P,2629.68237
9351,P,2629.68237
9352,P,2285.46655
9353,P,2285.46655
9354,P,2611.69165
9355,P,2611.69165
9356,P,1657.85034
9357,P,1657.85034
9358,P,-1067.50232
9359,P,-1067.50232
9360,P,1669.33655
9361,P,1669.33655
9362,P,-1067.61682
9363,P,-1067.61682
9364,P,2599.69824
9365,P,2599.69824
9366,P,2416.82861
9367,P,2416.82861
9368,P,1509.84949
9369,P,1509.84949
9370,P,-1072.69373
9371,P,-1072.69373
9372,P,-994.97229
9373,P,-994.97229
9374,P,-986.797546
9375,P,-986.797546
9376,P,1489.56824
9377,P,1489.56824
9378,P,-1074.32532
9379,P,-1074.32532
9380,P,2439.10938
9381,P,2439.10938
9382,P,2427.88403
9383,P,2427.88403
9384,P,2103.62866
9385,P,2103.62866
9386,P,2407.20923
9387,P,2407.20923
9388,P,2121.01343
9389,P,2121.01343
9390,P,-641.773743
9391,P,-641.773743
9392,P,-632.717224
9393,P,-632.717224
9394,P,-4.56543255
9395,P,-4.56543255
9396,P,50.5164528
9397,P,50.5164528
9398,P,48.2601891
9399,P,48.2601891
9400,P,-8.0963726
9401,P,-8.0963726
9402,P,620.080444
9403,P,620.080444
9404,P,-5.29827595
9405,P,-5.29827595
9406,P,-7.15558767
9407,P,-7.15558767
9408,P,44.0964165
9409,P,44.0964165
9410,P,45.9508553
9411,P,45.9508553
9412,P,-621.644653
9413,P,-621.644653
9414,P,-349.748932
9415,P,-349.748932
9416,P,-357.056732
9417,P,-357.056732
9418,P,126.588821
9419,P,126.588821
9420,P,22.4931087
9421,P,22.4931087
9422,P,-101.036629
9423,P,-101.036629
9424,P,586.300537
9425,P,586.300537
9426,P,136.424927
9427,P,136.424927
9428,P,102.205276
9429,P,102.205276
9430,P,201.662704
9431,P,201.662704
9432,P,-990.286011
9433,P,-990.286011
9434,P,-640.12439
9435,P,-640.12439
9436,P,2356.25684
9437,P,2356.25684
9438,P,2081.02979
9439,P,2081.02979
9440,P,2380.2876
9441,P,2380.2876
9442,P,2060.76587
9443,P,2060.76587
9444,P,2270.35181
9445,P,2270.35181
9446,P,1327.89404
9447,P,1327.89404
9448,P,-1083.2677
9449,P,-1083.2677
9450,P,1356.72009
9451,P,1356.72009
9452,P,-1082.49011
9453,P,-1082.49011
9454,P,2237.64136
9455,P,2237.64136
9456,P,1667.28345
9457,P,1667.28345
9458,P,908.664124
9459,P,908.664124
9460,P,-1082.44006
9461,P,-1082.44006
9462,P,-693.396423
9463,P,-693.396423
9464,P,-729.996399
9465,P,-729.996399
9466,P,840.098816
9467,P,840.098816
9468,P,-1073.41541
9469,P,-1073.41541
9470,P,1752.58643
9471,P,1752.58643
9472,P,1700.75452
9473,P,1700.75452
9474,P,1409.823
9475,P,1409.823
9476,P,1593.26685
9477,P,1593.26685
9478,P,1497.99023
9479,P,1497.99023
9480,P,-691.00592
9481,P,-691.00592
9482,P,-605.109436
9483,P,-605.109436
9484,P,323.982452
9485,P,323.982452
9486,P,192.972351
9487,P,192.972351
9488,P,578.428101
9489,P,578.428101
9490,P,201.276169
9491,P,201.276169
9492,P,317.329865
9493,P,317.329865
9494,P,-519.823914
9495,P,-519.823914
9496,P,2.8442173
9497,P,2.8442173
9498,P,-8.91040802
9499,P,-8.91040802
9500,P,258.088135
9501,P,258.088135
9502,P,-404.75708
9503,P,-404.75708
9504,P,-320.735565
9505,P,-320.735565
9506,P,595.071411
9507,P,595.071411
9508,P,193.950119
9509,P,193.950119
9510,P,201.878342
9511,P,201.878342
9512,P,239.893295
9513,P,239.893295
9514,P,-134.156525
9515,P,-134.156525
9516,P,-228.331329
9517,P,-228.331329
9518,P,185.701157
9519,P,185.701157
9520,P,-128.777176
9521,P,-128.777176
9522,P,240.151138
9523,P,240.151138
9524,P,96.1117935
9525,P,96.1117935
9526,P,126.074936
9527,P,126.074936
9528,P,126.634277
9529,P,126.634277
9530,P,61.1551666
9531,P,61.1551666
9532,P,148.582062
9533,P,148.582062
9534,P,212.029099
9535,P,212.029099
9536,P,-75.9292297
9537,P,-75.9292297
9538,P,-66.6345367
9539,P,-66.6345367
9540,P,-833.421021
9541,P,-833.421021
9542,P,30.1615334
9543,P,30.1615334
9544,P,111.867882
9545,P,111.867882
9546,P,42.2514801
9547,P,42.2514801
9548,P,101.35833
9549,P,101.35833
9550,P,78.5133896
9551,P,78.5133896
9552,P,164.758133
9553,P,164.758133
9554,P,86.8778
9555,P,86.8778
9556,P,-190.875626
9557,P,-190.875626
9558,P,-56.0353584
9559,P,-56.0353584
9560,P,-85.7823944
9561,P,-85.7823944
9562,P,-32.4294586
9563,P,-32.4294586
9564,P,-61.9641075
9565,P,-61.9641075
9566,P,-91.8336487
9567,P,-91.8336487
9568,P,-25.9516144
9569,P,-25.9516144
9570,P,-198.39711
9571,P,-198.39711
9572,P,-382.543701
9573,P,-382.543701
9574,P,-376.764679
9575,P,-376.764679
9576,P,-661.495422
9577,P,-661.495422
9578,P,-74.2315674
9579,P,-74.2315674
9580,P,-102.998634
9581,P,-102.998634
9582,P,-38.7162514
9583,P,-38.7162514
9584,P,-97.8900909
9585,P,-97.8900909
9586,P,-43.7578125
9587,P,-43.7578125
9588,P,-223.03067
9589,P,-223.03067
9590,P,-68.9796143
9591,P,-68.9796143
9592,P,-217.385452
9593,P,-217.385452
9594,P,-117.704109
9595,P,-117.704109
9596,P,-265.329224
9597,P,-265.329224
9598,P,-146.388565
9599,P,-146.388565
9600,P,-87.147644
9601,P,-87.147644
9602,P,-126.519844
9603,P,-126.519844
9604,P,-148.265442
9605,P,-148.265442
9606,P,-85.2235718
9607,P,-85.2235718
9608,P,-268.36145
9609,P,-268.36145
9610,P,-436.448151
9611,P,-436.448151
9612,P,-735.830811
9613,P,-735.830811
9614,P,-434.737793
9615,P,-434.737793
9616,P,-733.977051
9617,P,-733.977051
9618,P,-130.446945
9619,P,-130.446945
9620,P,-151.588821
9621,P,-151.588821
9622,P,-89.1362686
9623,P,-89.1362686
9624,P,-150.286621
9625,P,-150.286621
9626,P,-90.4507599
9627,P,-90.4507599
9628,P,-276.562988
9629,P,-276.562988
9630,P,-128.967117
9631,P,-128.967117
9632,P,-274.821411
9633,P,-274.821411
9634,P,-282.862854
9635,P,-282.862854
9636,P,-138.187637
9637,P,-138.187637
9638,P,-158.766296
9639,P,-158.766296
9640,P,-96.9611893
9641,P,-96.9611893
9642,P,-137.731354
9643,P,-137.731354
9644,P,-158.389374
9645,P,-158.389374
9646,P,-97.3062592
9647,P,-97.3062592
9648,P,-282.640991
9649,P,-282.640991
9650,P,-439.933411
9651,P,-439.933411
9652,P,-440.873901
9653,P,-440.873901
9654,P,-742.552612
9655,P,-742.552612
9656,P,-136.587631
9657,P,-136.587631
9658,P,-157.224762
9659,P,-157.224762
9660,P,-96.4059067
9661,P,-96.4059067
9662,P,-157.81572
9663,P,-157.81572
9664,P,-95.85849
9665,P,-95.85849
9666,P,-280.015167
9667,P,-280.015167
9668,P,-137.059982
9669,P,-137.059982
9670,P,-280.992004
9671,P,-280.992004
9672,P,-114.513657
9673,P,-114.513657
9674,P,-256.412842
9675,P,-256.412842
9676,P,-133.763763
9677,P,-133.763763
9678,P,-70.1617508
9679,P,-70.1617508
9680,P,-105.645905
9681,P,-105.645905
9682,P,-130.860336
9683,P,-130.860336
9684,P,-72.8669205
9685,P,-72.8669205
9686,P,-253.271576
9687,P,-253.271576
9688,P,-397.968811
9689,P,-397.968811
9690,P,-402.473907
9691,P,-402.473907
9692,P,-699.858459
9693,P,-699.858459
9694,P,-98.1823425
9695,P,-98.1823425
9696,P,-124.240143
9697,P,-124.240143
9698,P,-66.8911285
9699,P,-66.8911285
9700,P,-127.455162
9701,P,-127.455162
9702,P,-63.8973541
9703,P,-63.8973541
9704,P,-237.673325
9705,P,-237.673325
9706,P,-101.456886
9707,P,-101.456886
9708,P,-242.110901
9709,P,-242.110901
9710,P,-162.152191
9711,P,-162.152191
9712,P,-50.1247864
9713,P,-50.1247864
9714,P,14.582036
9715,P,14.582036
9716,P,6.19660759
9717,P,6.19660759
9718,P,-42.4983749
9719,P,-42.4983749
9720,P,7.43597746
9721,P,7.43597746
9722,P,-147.14621
9723,P,-147.14621
9724,P,-137.299957
9725,P,-137.299957
9726,P,-201.734314
9727,P,-201.734314
9728,P,-810.204773
9729,P,-810.204773
9730,P,75.4749451
9731,P,75.4749451
9732,P,-23.0441685
9733,P,-23.0441685
9734,P,23.9721317
9735,P,23.9721317
9736,P,-33.7479706
9737,P,-33.7479706
9738,P,36.6804314
9739,P,36.6804314
9740,P,17.9475079
9741,P,17.9475079
9742,P,30.06534
9743,P,30.06534
9744,P,-37.9110641
9745,P,-37.9110641
9746,P,667.000671
9747,P,667.000671
9748,P,667.000671
9749,P,667.000671
9750,P,519.843262
9751,P,519.843262
9752,P,519.843262
9753,P,1092.84241
9754,P,1092.84241
9755,P,1092.84241
9756,P,1137.53577
9757,P,1137.53577
9758,P,1213.21094
9759,P,1213.21094
9760,P,1286.75403
9761,P,1286.75403
9762,P,1075.12305
9763,P,1075.12305
9764,P,505.070251
9765,P,505.070251
9766,P,1898.49561
9767,P,1898.49561
9768,P,977.447815
9769,P,977.447815
9770,P,-1086.02539
9771,P,-1086.02539
9772,P,1833.69617
9773,P,1833.69617
9774,P,1031.56616
9775,P,1031.56616
9776,P,-1089.83081
9777,P,-1089.83081
9778,P,2060.26807
9779,P,2060.26807
9780,P,1844.87451
9781,P,1844.87451
9782,P,1806.17554
9783,P,1806.17554
9784,P,2106.02271
9785,P,2106.02271
9786,P,752.824524
9787,P,752.824524
9788,P,1365.88989
9789,P,1365.88989
9790,P,1590.19263
9791,P,1590.19263
9792,P,1556.31323
9793,P,1556.31323
9794,P,1395.54517
9795,P,1395.54517
9796,P,904.259827
9797,P,904.259827
9798,P,1002.04047
9799,P,1002.04047
9800,P,1031.41394
9801,P,1031.41394
9802,P,1018.52246
9803,P,1018.52246
9804,P,1016.88788
9805,P,1016.88788
9806,P,1025.22546
9807,P,1025.22546
9808,P,2158.88916
9809,P,2158.88916
9810,P,1291.37549
9811,P,1291.37549
9812,P,-1084.80493
9813,P,-1084.80493
9814,P,-872.74292
9815,P,-872.74292
9816,P,2197.09204
9817,P,2197.09204
9818,P,1257.51172
9819,P,1257.51172
9820,P,-1086.47839
9821,P,-1086.47839
9822,P,-764.414368
9823,P,-764.414368
9824,P,2191.68896
9825,P,2191.68896
9826,P,-978.683899
9827,P,-978.683899
9828,P,1885.98865
9829,P,1885.98865
9830,P,2154.08057
9831,P,2154.08057
9832,P,1918.05615
9833,P,1918.05615
9834,P,1580.06946
9835,P,1580.06946
9836,P,1806.24573
9837,P,1806.24573
9838,P,1787.75366
9839,P,1787.75366
9840,P,1597.34546
9841,P,1597.34546
9842,P,1334.90344
9843,P,1334.90344
9844,P,1456.87573
9845,P,1456.87573
9846,P,1627.45007
9847,P,1627.45007
9848,P,1429.88
9849,P,1429.88
9850,P,1656.47278
9851,P,1656.47278
9852,P,1271.87488
9853,P,1271.87488
9854,P,1141.74524
9855,P,1141.74524
9856,P,1013.70941
9857,P,1013.70941
9858,P,1088.11035
9859,P,1088.11035
9860,P,997.741882
9861,P,997.741882
9862,P,896.441223
9863,P,896.441223
9864,P,884.848145
9865,P,884.848145
9866,P,-115.067139
9867,P,-115.067139
9868,P,-59.2779465
9869,P,-59.2779465
9870,P,312.585785
9871,P,312.585785
9872,P,164.803589
9873,P,164.803589
9874,P,170.486847
9875,P,170.486847
9876,P,335.118683
9877,P,335.118683
9878,P,305.335052
9879,P,305.335052
9880,P,-477.186035
9881,P,-477.186035
9882,P,582.453918
9883,P,582.453918
9884,P,225.757141
9885,P,225.757141
9886,P,221.961548
9887,P,221.961548
9888,P,317.000732
9889,P,317.000732
9890,P,378.786865
9891,P,378.786865
9892,P,161.89711
9893,P,161.89711
9894,P,159.08316
9895,P,159.08316
9896,P,357.524017
9897,P,357.524017
9898,P,-313.085083
9899,P,-313.085083
9900,P,-686.537659
9901,P,-686.537659
9902,P,-605.612671
9903,P,-605.612671
9904,P,-271.001678
9905,P,-271.001678
9906,P,-984.96637
9907,P,-984.96637
9908,P,-137.319794
9909,P,-137.319794
9910,P,-810.256348
9911,P,-810.256348
9912,P,-201.746567
9913,P,-201.746567
9914,P,-31.2057362
9915,P,-31.2057362
9916,P,-162.154541
9917,P,-162.154541
9918,P,-9.18473053
9919,P,-9.18473053
9920,P,-50.1329422
9921,P,-50.1329422
9922,P,14.5667505
9923,P,14.5667505
9924,P,-42.5101089
9925,P,-42.5101089
9926,P,7.42470455
9927,P,7.42470455
9928,P,-147.146179
9929,P,-147.146179
9930,P,6.19251585
9931,P,6.19251585
9932,P,148.283432
9933,P,148.283432
9934,P,17.9335632
9935,P,17.9335632
9936,P,75.4651871
9937,P,75.4651871
9938,P,-23.062027
9939,P,-23.062027
9940,P,23.9562321
9941,P,23.9562321
9942,P,-33.7618446
9943,P,-33.7618446
9944,P,36.6635017
9945,P,36.6635017
9946,P,-37.9237404
9947,P,-37.9237404
9948,P,30.0630913
9949,P,30.0630913
9950,P,323.017578
9951,P,323.017578
9952,P,-912.573059
9953,P,-912.573059
9954,P,-876.818542
9955,P,-876.818542
9956,P,215.481247
9957,P,215.481247
9958,P,212.304688
9959,P,212.304688
9960,P,322.652405
9961,P,322.652405
9962,P,-771.834961
9963,P,-771.834961
9964,P,397.104736
9965,P,397.104736
9966,P,401.94342
9967,P,401.94342
9968,P,86.3894501
9969,P,86.3894501
9970,P,60.1859131
9971,P,60.1859131
9972,P,53.4349136
9973,P,53.4349136
9974,P,90.9920349
9975,P,90.9920349
9976,P,212.799362
9977,P,212.799362
9978,P,-36.950058
9979,P,-36.950058
9980,P,-828.397888
9981,P,-828.397888
9982,P,115.241714
9983,P,115.241714
9984,P,69.5320892
9985,P,69.5320892
9986,P,82.951767
9987,P,82.951767
9988,P,98.7203674
9989,P,98.7203674
9990,P,1631.36768
9991,P,1631.36768
9992,P,1826.93579
9993,P,1826.93579
9994,P,1842.72888
9995,P,1842.72888
9996,P,1616.73328
9997,P,1616.73328
9998,P,1413.5863
9999,P,1413.5863
10000,P,1811.573
10001,P,1811.573
10002,P,2482.37207
10003,P,2482.37207
10004,P,1531.57617
10005,P,1531.57617
10006,P,-1071.92749
10007,P,-1071.92749
10008,P,2462.9812
10009,P,2462.9812
10010,P,1549.0304
10011,P,1549.0304
10012,P,-1071.44666
10013,P,-1071.44666
10014,P,2523.26733
10015,P,2523.26733
10016,P,2214.58154
10017,P,2214.58154
10018,P,2202.74146
10019,P,2202.74146
10020,P,2537.49048
10021,P,2537.49048
10022,P,1447.46851
10023,P,1447.46851
10024,P,1700.53918
10025,P,1700.53918
10026,P,1927.89648
10027,P,1927.89648
10028,P,1917.23328
10029,P,1917.23328
10030,P,1710.36719
10031,P,1710.36719
10032,P,1213.86499
10033,P,1213.86499
10034,P,1104.48621
10035,P,1104.48621
10036,P,1245.26538
10037,P,1245.26538
10038,P,1115.17627
10039,P,1115.17627
10040,P,1003.59528
10041,P,1003.59528
10042,P,2571.12451
10043,P,2571.12451
10044,P,1643.80542
10045,P,1643.80542
10046,P,-1067.7207
10047,P,-1067.7207
10048,P,-1051.82947
10049,P,-1051.82947
10050,P,2584.89111
10051,P,2584.89111
10052,P,1630.83838
10053,P,1630.83838
10054,P,-1068.40344
10055,P,-1068.40344
10056,P,-1047.0332
10057,P,-1047.0332
10058,P,2566.12231
10059,P,2566.12231
10060,P,-685.517151
10061,P,-685.517151
10062,P,2227.9895
10063,P,2227.9895
10064,P,2553.69531
10065,P,2553.69531
10066,P,2238.24316
10067,P,2238.24316
10068,P,1769.54944
10069,P,1769.54944
10070,P,1997.53674
10071,P,1997.53674
10072,P,1992.0155
10073,P,1992.0155
10074,P,1774.62695
10075,P,1774.62695
10076,P,1510.90857
10077,P,1510.90857
10078,P,1900.46155
10079,P,1900.46155
10080,P,1730.01282
10081,P,1730.01282
10082,P,1940.00598
10083,P,1940.00598
10084,P,1721.59607
10085,P,1721.59607
10086,P,1949.16626
10087,P,1949.16626
10088,P,1492.12854
10089,P,1492.12854
10090,P,1303.88318
10091,P,1303.88318
10092,P,1173.4165
10093,P,1173.4165
10094,P,1286.39746
10095,P,1286.39746
10096,P,1167.29883
10097,P,1167.29883
10098,P,1046.12341
10099,P,1046.12341
10100,P,334.761902
10101,P,334.761902
10102,P,-990.396484
10103,P,-990.396484
10104,P,-640.220398
10105,P,-640.220398
10106,P,401.246246
10107,P,401.246246
10108,P,48.2526321
10109,P,48.2526321
10110,P,7.1031127
10111,P,7.1031127
10112,P,15.8824472
10113,P,15.8824472
10114,P,34.7922287
10115,P,34.7922287
10116,P,41.1591721
10117,P,41.1591721
10118,P,53.8313599
10119,P,53.8313599
10120,P,63.5827942
10121,P,63.5827942
10122,P,597.024597
10123,P,597.024597
10124,P,41.3462906
10125,P,41.3462906
10126,P,51.3239861
10127,P,51.3239861
10128,P,31.1236019
10129,P,31.1236019
10130,P,19.913805
10131,P,19.913805
10132,P,-0.221058086
10133,P,-0.221058086
10134,P,-5.5206027
10135,P,-5.5206027
10136,P,25.5623417
10137,P,25.5623417
10138,P,33.3613091
10139,P,33.3613091
10140,P,64.3351746
10141,P,64.3351746
10142,P,65.2087021
10143,P,65.2087021
10144,P,30.4798489
10145,P,30.4798489
10146,P,-692.907776
10147,P,-692.907776
10148,P,-397.981689
10149,P,-397.981689
10150,P,-699.904114
10151,P,-699.904114
10152,P,-402.486176
10153,P,-402.486176
10154,P,-114.52388
10155,P,-114.52388
10156,P,-256.42572
10157,P,-256.42572
10158,P,-108.761116
10159,P,-108.761116
10160,P,-133.770401
10161,P,-133.770401
10162,P,-70.1730652
10163,P,-70.1730652
10164,P,-105.657646
10165,P,-105.657646
10166,P,-130.869202
10167,P,-130.869202
10168,P,-72.874733
10169,P,-72.874733
10170,P,-253.278122
10171,P,-253.278122
10172,P,-89.6830215
10173,P,-89.6830215
10174,P,-237.685654
10175,P,-237.685654
10176,P,-98.1950226
10177,P,-98.1950226
10178,P,-124.250572
10179,P,-124.250572
10180,P,-66.9032669
10181,P,-66.9032669
10182,P,-101.462845
10183,P,-101.462845
10184,P,-127.463715
10185,P,-127.463715
10186,P,-63.9115143
10187,P,-63.9115143
10188,P,-242.126053
10189,P,-242.126053
10190,P,6.46870613
10191,P,6.46870613
10192,P,53.6484413
10193,P,53.6484413
10194,P,56.1106148
10195,P,56.1106148
10196,P,612.943909
10197,P,612.943909
10198,P,15.3683805
10199,P,15.3683805
10200,P,8.29188442
10201,P,8.29188442
10202,P,11.5038376
10203,P,11.5038376
10204,P,59.0366364
10205,P,59.0366364
10206,P,11.386385
10207,P,11.386385
10208,P,9.38310337
10209,P,9.38310337
10210,P,-5.93120909
10211,P,-5.93120909
10212,P,-30.5412502
10213,P,-30.5412502
10214,P,-33.0713005
10215,P,-33.0713005
10216,P,-3.56545353
10217,P,-3.56545353
10218,P,24.5477314
10219,P,24.5477314
10220,P,61.4354401
10221,P,61.4354401
10222,P,27.1167831
10223,P,27.1167831
10224,P,2.00371933
10225,P,2.00371933
10226,P,-27.4360008
10227,P,-27.4360008
10228,P,-24.6691494
10229,P,-24.6691494
10230,P,-0.578064024
10231,P,-0.578064024
10232,P,1785.17737
10233,P,1785.17737
10234,P,2004.47839
10235,P,2004.47839
10236,P,2008.93457
10237,P,2008.93457
10238,P,1781.04712
10239,P,1781.04712
10240,P,1535.47192
10241,P,1535.47192
10242,P,2668.61426
10243,P,2668.61426
10244,P,1717.75916
10245,P,1717.75916
10246,P,-992.917419
10247,P,-992.917419
10248,P,2662.86963
10249,P,2662.86963
10250,P,1724.86584
10251,P,1724.86584
10252,P,-990.869873
10253,P,-990.869873
10254,P,2669.35645
10255,P,2669.35645
10256,P,2331.40283
10257,P,2331.40283
10258,P,2328.17749
10259,P,2328.17749
10260,P,2673.15039
10261,P,2673.15039
10262,P,1545.6228
10263,P,1545.6228
10264,P,1805.38416
10265,P,1805.38416
10266,P,2033.87146
10267,P,2033.87146
10268,P,2030.94958
10269,P,2030.94958
10270,P,1808.06323
10271,P,1808.06323
10272,P,1326.36829
10273,P,1326.36829
10274,P,1201.71924
10275,P,1201.71924
10276,P,1075.5791
10277,P,1075.5791
10278,P,1073.16333
10279,P,1073.16333
10280,P,1335.54883
10281,P,1335.54883
10282,P,1204.85217
10283,P,1204.85217
10284,P,2691.20312
10285,P,2691.20312
10286,P,1750.89197
10287,P,1750.89197
10288,P,-986.611267
10289,P,-986.611267
10290,P,-1086.56604
10291,P,-1086.56604
10292,P,2693.8269
10293,P,2693.8269
10294,P,1748.31897
10295,P,1748.31897
10296,P,-987.259216
10297,P,-987.259216
10298,P,-1085.95166
10299,P,-1085.95166
10300,P,2680.13037
10301,P,2680.13037
10302,P,-738.990295
10303,P,-738.990295
10304,P,2334.68115
10305,P,2334.68115
10306,P,2677.20288
10307,P,2677.20288
10308,P,2337.04028
10309,P,2337.04028
10310,P,1818.90295
10311,P,1818.90295
10312,P,2046.026
10313,P,2046.026
10314,P,2045.73291
10315,P,2045.73291
10316,P,1819.15698
10317,P,1819.15698
10318,P,1559.67749
10319,P,1559.67749
10320,P,1812.70325
10321,P,1812.70325
10322,P,2036.7998
10323,P,2036.7998
10324,P,1810.74841
10325,P,1810.74841
10326,P,2038.92529
10327,P,2038.92529
10328,P,1556.63428
10329,P,1556.63428
10330,P,1348.31262
10331,P,1348.31262
10332,P,1218.47852
10333,P,1218.47852
10334,P,1345.57336
10335,P,1345.57336
10336,P,1217.53735
10337,P,1217.53735
10338,P,1089.11279
10339,P,1089.11279
10340,P,1088.38916
10341,P,1088.38916
10342,P,5.36693001
10343,P,5.36693001
10344,P,7.01185036
10345,P,7.01185036
10346,P,-16.9715157
10347,P,-16.9715157
10348,P,-46.4943733
10349,P,-46.4943733
10350,P,-44.778019
10351,P,-44.778019
10352,P,-18.5041447
10353,P,-18.5041447
10354,P,-17.2915478
10355,P,-17.2915478
10356,P,35.0492439
10357,P,35.0492439
10358,P,634.014343
10359,P,634.014343
10360,P,-17.4870586
10361,P,-17.4870586
10362,P,-17.083744
10363,P,-17.083744
10364,P,-17.9457321
10365,P,-17.9457321
10366,P,-21.3921356
10367,P,-21.3921356
10368,P,-48.3648567
10369,P,-48.3648567
10370,P,-49.6257782
10371,P,-49.6257782
10372,P,-20.2492981
10373,P,-20.2492981
10374,P,-1.93124866
10375,P,-1.93124866
10376,P,32.5902061
10377,P,32.5902061
10378,P,33.1574593
10379,P,33.1574593
10380,P,-2.67175937
10381,P,-2.67175937
10382,P,-740.856873
10383,P,-740.856873
10384,P,-439.936462
10385,P,-439.936462
10386,P,-742.554382
10387,P,-742.554382
10388,P,-440.869232
10389,P,-440.869232
10390,P,-138.313538
10391,P,-138.313538
10392,P,-282.856537
10393,P,-282.856537
10394,P,-138.177383
10395,P,-138.177383
10396,P,-158.758286
10397,P,-158.758286
10398,P,-96.9536285
10399,P,-96.9536285
10400,P,-158.38063
10401,P,-158.38063
10402,P,-97.2997665
10403,P,-97.2997665
10404,P,-282.633728
10405,P,-282.633728
10406,P,-137.722488
10407,P,-137.722488
10408,P,-134.55658
10409,P,-134.55658
10410,P,-280.021484
10411,P,-280.021484
10412,P,-136.582596
10413,P,-136.582596
10414,P,-157.218765
10415,P,-157.218765
10416,P,-96.3980637
10417,P,-96.3980637
10418,P,-157.807495
10419,P,-157.807495
10420,P,-95.8518906
10421,P,-95.8518906
10422,P,-280.99118
10423,P,-280.99118
10424,P,-137.052933
10425,P,-137.052933
10426,P,-20.1861591
10427,P,-20.1861591
10428,P,29.878521
10429,P,29.878521
10430,P,30.1784229
10431,P,30.1784229
10432,P,-18.6942196
10433,P,-18.6942196
10434,P,-19.6150284
10435,P,-19.6150284
10436,P,-19.5184479
10437,P,-19.5184479
10438,P,31.4089622
10439,P,31.4089622
10440,P,-6.43817377
10441,P,-6.43817377
10442,P,-6.5157733
10443,P,-6.5157733
10444,P,-27.4317493
10445,P,-27.4317493
10446,P,-55.7820816
10447,P,-55.7820816
10448,P,-56.1100731
10449,P,-56.1100731
10450,P,-27.1397934
10451,P,-27.1397934
10452,P,-4.33224106
10453,P,-4.33224106
10454,P,-3.77182317
10455,P,-3.77182317
10456,P,30.8797035
10457,P,30.8797035
10458,P,-26.174366
10459,P,-26.174366
10460,P,-55.2474709
10461,P,-55.2474709
10462,P,-54.7552147
10463,P,-54.7552147
10464,P,-26.6246395
10465,P,-26.6246395
10466,P,1818.88892
10467,P,1818.88892
10468,P,2046.02185
10469,P,2046.02185
10470,P,2045.72058
10471,P,2045.72058
10472,P,1819.15125
10473,P,1819.15125
10474,P,1559.66382
10475,P,1559.66382
10476,P,1958.0166
10477,P,1958.0166
10478,P,2691.18848
10479,P,2691.18848
10480,P,1750.88965
10481,P,1750.88965
10482,P,-986.607239
10483,P,-986.607239
10484,P,2693.81006
10485,P,2693.81006
10486,P,1748.32056
10487,P,1748.32056
10488,P,-987.25116
10489,P,-987.25116
10490,P,2680.11572
10491,P,2680.11572
10492,P,2334.66357
10493,P,2334.66357
10494,P,2337.02051
10495,P,2337.02051
10496,P,2677.19238
10497,P,2677.19238
10498,P,1556.61133
10499,P,1556.61133
10500,P,1812.67126
10501,P,1812.67126
10502,P,2036.77539
10503,P,2036.77539
10504,P,2038.89783
10505,P,2038.89783
10506,P,1810.72058
10507,P,1810.72058
10508,P,1348.30176
10509,P,1348.30176
10510,P,1218.4707
10511,P,1218.4707
10512,P,1345.55591
10513,P,1345.55591
10514,P,1217.52722
10515,P,1217.52722
10516,P,1089.11389
10517,P,1089.11389
10518,P,2668.62183
10519,P,2668.62183
10520,P,1717.78809
10521,P,1717.78809
10522,P,-992.882324
10523,P,-992.882324
10524,P,-1076.005
10525,P,-1076.005
10526,P,2662.88647
10527,P,2662.88647
10528,P,1724.88757
10529,P,1724.88757
10530,P,-990.840881
10531,P,-990.840881
10532,P,-1077.47998
10533,P,-1077.47998
10534,P,2669.35278
10535,P,2669.35278
10536,P,-736.857483
10537,P,-736.857483
10538,P,2331.38696
10539,P,2331.38696
10540,P,2673.1416
10541,P,2673.1416
10542,P,2328.16504
10543,P,2328.16504
10544,P,1785.1272
10545,P,1785.1272
10546,P,2004.43579
10547,P,2004.43579
10548,P,2008.89478
10549,P,2008.89478
10550,P,1781
10551,P,1781
10552,P,1535.44226
10553,P,1535.44226
10554,P,1935.80908
10555,P,1935.80908
10556,P,1805.35986
10557,P,1805.35986
10558,P,2033.84802
10559,P,2033.84802
10560,P,1808.03467
10561,P,1808.03467
10562,P,2030.92957
10563,P,2030.92957
10564,P,1545.60291
10565,P,1545.60291
10566,P,1326.3407
10567,P,1326.3407
10568,P,1201.69434
10569,P,1201.69434
10570,P,1335.5304
10571,P,1335.5304
10572,P,1204.83655
10573,P,1204.83655
10574,P,1078.83044
10575,P,1078.83044
10576,P,-6.44413042
10577,P,-6.44413042
10578,P,28.9037991
10579,P,28.9037991
10580,P,28.8989964
10581,P,28.8989964
10582,P,-6.51704264
10583,P,-6.51704264
10584,P,-27.4386921
10585,P,-27.4386921
10586,P,-55.789959
10587,P,-55.789959
10588,P,-56.1166763
10589,P,-56.1166763
10590,P,-27.1484585
10591,P,-27.1484585
10592,P,-20.2250881
10593,P,-20.2250881
10594,P,29.8620281
10595,P,29.8620281
10596,P,30.1581421
10597,P,30.1581421
10598,P,637.852051
10599,P,637.852051
10600,P,-18.7470226
10601,P,-18.7470226
10602,P,-19.6624432
10603,P,-19.6624432
10604,P,-19.5622711
10605,P,-19.5622711
10606,P,-26.1858749
10607,P,-26.1858749
10608,P,-55.256443
10609,P,-55.256443
10610,P,-54.7641907
10611,P,-54.7641907
10612,P,-26.6352158
10613,P,-26.6352158
10614,P,-4.34691858
10615,P,-4.34691858
10616,P,31.3879681
10617,P,31.3879681
10618,P,30.8591194
10619,P,30.8591194
10620,P,-3.78558207
10621,P,-3.78558207
10622,P,-735.793152
10623,P,-735.793152
10624,P,-436.425842
10625,P,-436.425842
10626,P,-733.932068
10627,P,-733.932068
10628,P,-434.708923
10629,P,-434.708923
10630,P,-117.693176
10631,P,-117.693176
10632,P,-265.305878
10633,P,-265.305878
10634,P,-123.929657
10635,P,-123.929657
10636,P,-146.377441
10637,P,-146.377441
10638,P,-87.1454468
10639,P,-87.1454468
10640,P,-126.503296
10641,P,-126.503296
10642,P,-148.25502
10643,P,-148.25502
10644,P,-85.2197876
10645,P,-85.2197876
10646,P,-268.335754
10647,P,-268.335754
10648,P,-132.898834
10649,P,-132.898834
10650,P,-276.547791
10651,P,-276.547791
10652,P,-130.428299
10653,P,-130.428299
10654,P,-151.577301
10655,P,-151.577301
10656,P,-89.1311798
10657,P,-89.1311798
10658,P,-128.947693
10659,P,-128.947693
10660,P,-150.2742
10661,P,-150.2742
10662,P,-90.4459839
10663,P,-90.4459839
10664,P,-274.800568
10665,P,-274.800568
10666,P,-17.3383808
10667,P,-17.3383808
10668,P,35.0337219
10669,P,35.0337219
10670,P,34.0771828
10671,P,34.0771828
10672,P,633.948853
10673,P,633.948853
10674,P,-17.5457783
10675,P,-17.5457783
10676,P,-17.1410694
10677,P,-17.1410694
10678,P,-17.9947109
10679,P,-17.9947109
10680,P,33.134079
10681,P,33.134079
10682,P,5.36271191
10683,P,5.36271191
10684,P,7.01174927
10685,P,7.01174927
10686,P,-16.9746685
10687,P,-16.9746685
10688,P,-46.4966965
10689,P,-46.4966965
10690,P,-44.7767754
10691,P,-44.7767754
10692,P,-18.5098495
10693,P,-18.5098495
10694,P,-1.94550085
10695,P,-1.94550085
10696,P,32.5659485
10697,P,32.5659485
10698,P,-2.68807101
10699,P,-2.68807101
10700,P,-21.3971729
10701,P,-21.3971729
10702,P,-48.3642845
10703,P,-48.3642845
10704,P,-49.6257744
10705,P,-49.6257744
10706,P,-20.2528973
10707,P,-20.2528973
10708,P,1769.47461
10709,P,1769.47461
10710,P,1997.47754
10711,P,1997.47754
10712,P,1991.97217
10713,P,1991.97217
10714,P,1774.5697
10715,P,1774.5697
10716,P,1510.84216
10717,P,1510.84216
10718,P,2571.16797
10719,P,2571.16797
10720,P,1643.8407
10721,P,1643.8407
10722,P,-1067.69043
10723,P,-1067.69043
10724,P,2584.88086
10725,P,2584.88086
10726,P,1630.90259
10727,P,1630.90259
10728,P,-1068.36023
10729,P,-1068.36023
10730,P,2566.12231
10731,P,2566.12231
10732,P,2227.96362
10733,P,2227.96362
10734,P,2238.21777
10735,P,2238.21777
10736,P,2553.71265
10737,P,2553.71265
10738,P,1492.06433
10739,P,1492.06433
10740,P,1729.94324
10741,P,1729.94324
10742,P,1939.94604
10743,P,1939.94604
10744,P,1949.12378
10745,P,1949.12378
10746,P,1721.53235
10747,P,1721.53235
10748,P,1303.82556
10749,P,1303.82556
10750,P,1173.37268
10751,P,1173.37268
10752,P,1051.78284
10753,P,1051.78284
10754,P,1055.34631
10755,P,1055.34631
10756,P,1286.33826
10757,P,1286.33826
10758,P,1167.24988
10759,P,1167.24988
10760,P,2482.44971
10761,P,2482.44971
10762,P,1531.67651
10763,P,1531.67651
10764,P,-1071.85229
10765,P,-1071.85229
10766,P,-1004.09448
10767,P,-1004.09448
10768,P,2463.04932
10769,P,2463.04932
10770,P,1549.14648
10771,P,1549.14648
10772,P,-1071.37634
10773,P,-1071.37634
10774,P,-1012.77423
10775,P,-1012.77423
10776,P,2523.2998
10777,P,2523.2998
10778,P,-677.073364
10779,P,-677.073364
10780,P,2214.56494
10781,P,2214.56494
10782,P,2537.51099
10783,P,2537.51099
10784,P,2202.73511
10785,P,2202.73511
10786,P,1631.34644
10787,P,1631.34644
10788,P,1826.93616
10789,P,1826.93616
10790,P,1842.74597
10791,P,1842.74597
10792,P,1616.71667
10793,P,1616.71667
10794,P,1413.54138
10795,P,1413.54138
10796,P,1700.48889
10797,P,1700.48889
10798,P,1927.85583
10799,P,1927.85583
10800,P,1710.31567
10801,P,1710.31567
10802,P,1917.19861
10803,P,1917.19861
10804,P,1447.42017
10805,P,1447.42017
10806,P,1213.80469
10807,P,1213.80469
10808,P,1104.41541
10809,P,1104.41541
10810,P,1245.20923
10811,P,1245.20923
10812,P,1115.11133
10813,P,1115.11133
10814,P,1003.5141
10815,P,1003.5141
10816,P,1010.24329
10817,P,1010.24329
10818,P,11.3943977
10819,P,11.3943977
10820,P,9.38412476
10821,P,9.38412476
10822,P,-5.91954231
10823,P,-5.91954231
10824,P,-30.5259895
10825,P,-30.5259895
10826,P,-33.0616722
10827,P,-33.0616722
10828,P,-3.54744601
10829,P,-3.54744601
10830,P,6.46030045
10831,P,6.46030045
10832,P,53.6733513
10833,P,53.6733513
10834,P,612.769775
10835,P,612.769775
10836,P,15.3433599
10837,P,15.3433599
10838,P,8.26081276
10839,P,8.26081276
10840,P,11.5013857
10841,P,11.5013857
10842,P,2.02621555
10843,P,2.02621555
10844,P,-27.4187584
10845,P,-27.4187584
10846,P,-24.6497822
10847,P,-24.6497822
10848,P,-0.55784142
10849,P,-0.55784142
10850,P,24.5803242
10851,P,24.5803242
10852,P,61.4747162
10853,P,61.4747162
10854,P,59.0694618
10855,P,59.0694618
10856,P,27.1539173
10857,P,27.1539173
10858,P,-669.973145
10859,P,-669.973145
10860,P,-382.516602
10861,P,-382.516602
10862,P,-661.448792
10863,P,-661.448792
10864,P,-376.736969
10865,P,-376.736969
10866,P,-40.7675705
10867,P,-40.7675705
10868,P,-190.86377
10869,P,-190.86377
10870,P,-56.0263596
10871,P,-56.0263596
10872,P,-85.7697754
10873,P,-85.7697754
10874,P,-32.4103317
10875,P,-32.4103317
10876,P,-91.8200226
10877,P,-91.8200226
10878,P,-25.9320831
10879,P,-25.9320831
10880,P,-198.381485
10881,P,-198.381485
10882,P,-61.9608803
10883,P,-61.9608803
10884,P,-84.1596756
10885,P,-84.1596756
10886,P,-223.018463
10887,P,-223.018463
10888,P,-74.2322311
10889,P,-74.2322311
10890,P,-102.98526
10891,P,-102.98526
10892,P,-38.6970139
10893,P,-38.6970139
10894,P,-97.8742294
10895,P,-97.8742294
10896,P,-43.7386856
10897,P,-43.7386856
10898,P,-217.374939
10899,P,-217.374939
10900,P,-68.9645309
10901,P,-68.9645309
10902,P,41.1765022
10903,P,41.1765022
10904,P,53.8830795
10905,P,53.8830795
10906,P,63.6298103
10907,P,63.6298103
10908,P,41.3377075
10909,P,41.3377075
10910,P,51.3160667
10911,P,51.3160667
10912,P,31.1393566
10913,P,31.1393566
10914,P,64.3780441
10915,P,64.3780441
10916,P,334.760468
10917,P,334.760468
10918,P,401.269653
10919,P,401.269653
10920,P,48.2827873
10921,P,48.2827873
10922,P,7.13120842
10923,P,7.13120842
10924,P,15.9103212
10925,P,15.9103212
10926,P,34.8262215
10927,P,34.8262215
10928,P,33.4030495
10929,P,33.4030495
10930,P,30.5166759
10931,P,30.5166759
10932,P,65.2555389
10933,P,65.2555389
10934,P,19.9473305
10935,P,19.9473305
10936,P,-0.19044742
10937,P,-0.19044742
10938,P,-5.49339294
10939,P,-5.49339294
10940,P,25.6008244
10941,P,25.6008244
10942,P,1580.07397
10943,P,1580.07397
10944,P,1806.26416
10945,P,1806.26416
10946,P,1787.79944
10947,P,1787.79944
10948,P,1597.3385
10949,P,1597.3385
10950,P,1334.91003
10951,P,1334.91003
10952,P,1697.67896
10953,P,1697.67896
10954,P,2159.13086
10955,P,2159.13086
10956,P,1291.55945
10957,P,1291.55945
10958,P,-1084.71655
10959,P,-1084.71655
10960,P,2197.25562
10961,P,2197.25562
10962,P,1257.75
10963,P,1257.75
10964,P,-1086.37781
10965,P,-1086.37781
10966,P,2191.87476
10967,P,2191.87476
10968,P,1886.19495
10969,P,1886.19495
10970,P,1918.21021
10971,P,1918.21021
10972,P,2154.31201
10973,P,2154.31201
10974,P,1271.95386
10975,P,1271.95386
10976,P,1456.99927
10977,P,1456.99927
10978,P,1627.61096
10979,P,1627.61096
10980,P,1656.62048
10981,P,1656.62048
10982,P,1430.02698
10983,P,1430.02698
10984,P,1141.72815
10985,P,1141.72815
10986,P,1013.66571
10987,P,1013.66571
10988,P,1088.15527
10989,P,1088.15527
10990,P,997.713867
10991,P,997.713867
10992,P,896.310303
10993,P,896.310303
10994,P,1898.81152
10995,P,1898.81152
10996,P,977.752197
10997,P,977.752197
10998,P,-1085.87756
10999,P,-1085.87756
11000,P,-652.574219
11001,P,-652.574219
11002,P,1834.0542
11003,P,1834.0542
11004,P,1031.85742
11005,P,1031.85742
11006,P,-1089.69226
11007,P,-1089.69226
11008,P,-656.055847
11009,P,-656.055847
11010,P,2060.51782
11011,P,2060.51782
11012,P,-939.089905
11013,P,-939.089905
11014,P,1845.10217
11015,P,1845.10217
11016,P,2106.27539
11017,P,2106.27539
11018,P,1806.42725
11019,P,1806.42725
11020,P,1137.94421
11021,P,1137.94421
11022,P,1213.65186
11023,P,1213.65186
11024,P,1287.16125
11025,P,1287.16125
11026,P,1075.57239
11027,P,1075.57239
11028,P,505.444824
11029,P,505.444824
11030,P,1694.53845
11031,P,1694.53845
11032,P,1366.10901
11033,P,1366.10901
11034,P,1590.40002
11035,P,1590.40002
11036,P,1395.73547
11037,P,1395.73547
11038,P,1556.54028
11039,P,1556.54028
11040,P,753.100464
11041,P,753.100464
11042,P,904.617371
11043,P,904.617371
11044,P,1002.25232
11045,P,1002.25232
11046,P,1017.03607
11047,P,1017.03607
11048,P,1025.38892
11049,P,1025.38892
11050,P,1054.2179
11051,P,1054.2179
11052,P,397.079559
11053,P,397.079559
11054,P,-1011.73254
11055,P,-1011.73254
11056,P,-995.980469
11057,P,-995.980469
11058,P,401.964325
11059,P,401.964325
11060,P,86.3908005
11061,P,86.3908005
11062,P,60.2013435
11063,P,60.2013435
11064,P,53.4465294
11065,P,53.4465294
11066,P,90.9994431
11067,P,90.9994431
11068,P,322.75943
11069,P,322.75943
11070,P,-912.55072
11071,P,-912.55072
11072,P,-876.802795
11073,P,-876.802795
11074,P,582.914307
11075,P,582.914307
11076,P,215.098816
11077,P,215.098816
11078,P,211.963211
11079,P,211.963211
11080,P,322.352539
11081,P,322.352539
11082,P,115.235802
11083,P,115.235802
11084,P,69.5457916
11085,P,69.5457916
11086,P,82.9641876
11087,P,82.9641876
11088,P,98.7185745
11089,P,98.7185745
11090,P,212.735443
11091,P,212.735443
11092,P,-771.858704
11093,P,-771.858704
11094,P,-828.398499
11095,P,-828.398499
11096,P,-36.9850426
11097,P,-36.9850426
11098,P,-888.496643
11099,P,-888.496643
11100,P,-75.8745346
11101,P,-75.8745346
11102,P,-833.352539
11103,P,-833.352539
11104,P,-66.5671463
11105,P,-66.5671463
11106,P,-128.722565
11107,P,-128.722565
11108,P,240.198898
11109,P,240.198898
11110,P,-16.1780834
11111,P,-16.1780834
11112,P,96.1757965
11113,P,96.1757965
11114,P,126.132561
11115,P,126.132561
11116,P,126.697105
11117,P,126.697105
11118,P,61.2142029
11119,P,61.2142029
11120,P,148.648483
11121,P,148.648483
11122,P,212.097855
11123,P,212.097855
11124,P,160.793533
11125,P,160.793533
11126,P,78.5570755
11127,P,78.5570755
11128,P,170.333771
11129,P,170.333771
11130,P,30.206274
11131,P,30.206274
11132,P,111.91407
11133,P,111.91407
11134,P,164.810028
11135,P,164.810028
11136,P,42.3029404
11137,P,42.3029404
11138,P,101.396461
11139,P,101.396461
11140,P,86.9305649
11141,P,86.9305649
11142,P,305.09198
11143,P,305.09198
11144,P,-477.18222
11145,P,-477.18222
11146,P,-542.773071
11147,P,-542.773071
11148,P,581.10144
11149,P,581.10144
11150,P,225.430908
11151,P,225.430908
11152,P,221.763123
11153,P,221.763123
11154,P,316.715759
11155,P,316.715759
11156,P,-605.632935
11157,P,-605.632935
11158,P,-114.978355
11159,P,-114.978355
11160,P,-59.1205559
11161,P,-59.1205559
11162,P,312.644867
11163,P,312.644867
11164,P,164.850784
11165,P,164.850784
11166,P,170.550949
11167,P,170.550949
11168,P,335.149506
11169,P,335.149506
11170,P,-313.104919
11171,P,-313.104919
11172,P,-686.572266
11173,P,-686.572266
11174,P,-271.037476
11175,P,-271.037476
11176,P,378.786255
11177,P,378.786255
11178,P,161.926392
11179,P,161.926392
11180,P,159.104782
11181,P,159.104782
11182,P,357.524231
11183,P,357.524231
11184,P,543.040344
11185,P,543.040344
11186,P,504.493835
11187,P,504.493835
11188,P,340.288147
11189,P,340.288147
11190,P,342.868103
11191,P,342.868103
11192,P,338.900024
11193,P,338.900024
11194,P,338.323456
11195,P,338.323456
11196,P,323.603027
11197,P,323.603027
11198,P,323.923553
11199,P,323.923553
11200,P,547.981384
11201,P,547.981384
11202,P,-967.049866
11203,P,-967.049866
11204,P,-581.784729
11205,P,-581.784729
11206,P,1281.54724
11207,P,1281.54724
11208,P,1081.38452
11209,P,1081.38452
11210,P,-509.380188
11211,P,-509.380188
11212,P,416.525513
11213,P,416.525513
11214,P,-853.195435
11215,P,-853.195435
11216,P,339.164673
11217,P,339.164673
11218,P,338.619293
11219,P,338.619293
11220,P,342.80658
11221,P,342.80658
11222,P,340.075958
11223,P,340.075958
11224,P,324.946014
11225,P,324.946014
11226,P,529.122803
11227,P,529.122803
11228,P,495.270294
11229,P,495.270294
11230,P,548.249634
11231,P,548.249634
11232,P,-966.853638
11233,P,-966.853638
11234,P,1281.88953
11235,P,1281.88953
11236,P,1081.66797
11237,P,1081.66797
11238,P,416.733795
11239,P,416.733795
11240,P,-852.988647
11241,P,-852.988647
11242,P,1122.68945
11243,P,1122.68945
11244,P,329.077972
11245,P,329.077972
11246,P,333.094116
11247,P,333.094116
11248,P,343.211914
11249,P,343.211914
11250,P,343.345215
11251,P,343.345215
11252,P,332.455475
11253,P,332.455475
11254,P,333.450836
11255,P,333.450836
11256,P,323.876709
11257,P,323.876709
11258,P,323.307892
11259,P,323.307892
11260,P,195.410873
11261,P,195.410873
11262,P,-61.5403481
11263,P,-61.5403481
11264,P,163.093063
11265,P,163.093063
11266,P,21.9641762
11267,P,21.9641762
11268,P,173.266724
11269,P,173.266724
11270,P,904.598328
11271,P,904.598328
11272,P,218.011261
11273,P,218.011261
11274,P,1421.12292
11275,P,1421.12292
11276,P,684.397156
11277,P,684.397156
11278,P,805.124939
11279,P,805.124939
11280,P,631.963196
11281,P,631.963196
11282,P,631.963196
11283,P,636.480713
11284,P,636.480713
11285,P,1100.45483
11286,P,1100.45483
11287,P,1100.45483
11288,P,195.342773
11289,P,195.342773
11290,P,163.025696
11291,P,163.025696
11292,P,173.232559
11293,P,173.232559
11294,P,903.180908
11295,P,903.180908
11296,P,218.013016
11297,P,218.013016
11298,P,194.011566
11299,P,194.011566
11300,P,230.583771
11301,P,230.583771
11302,P,546.307739
11303,P,546.307739
11304,P,192.764511
11305,P,192.764511
11306,P,228.215179
11307,P,228.215179
11308,P,324.630463
11309,P,324.630463
11310,P,332.914459
11311,P,332.914459
11312,P,333.884033
11313,P,333.884033
11314,P,330.858521
11315,P,330.858521
11316,P,329.983185
11317,P,329.983185
11318,P,327.338745
11319,P,327.338745
11320,P,1421.67078
11321,P,1421.67078
11322,P,685.012329
11323,P,685.012329
11324,P,805.197388
11325,P,805.197388
11326,P,636.697754
11327,P,636.697754
11328,P,1101.27075
11329,P,1101.27075
11330,P,1101.27075
11331,P,194.137543
11332,P,194.137543
11333,P,230.815811
11334,P,230.815811
11335,P,548.402161
11336,P,548.402161
11337,P,193.10054
11338,P,193.10054
11339,P,228.333328
11340,P,228.333328
11341,P,-22.1456356
11342,P,-22.1456356
11343,P,481.728455
11344,P,481.728455
11345,P,-54.5320473
11346,P,-54.5320473
11347,P,-72.5173874
11348,P,-72.5173874
11349,P,113.728333
11350,P,113.728333
11351,P,242.079361
11352,P,242.079361
11353,P,242.079361
11354,P,59.0044518
11355,P,59.0044518
11356,P,271.022003
11357,P,271.022003
11358,P,271.022003
11359,P,254.115356
11360,P,254.115356
11361,P,242.994446
11362,P,242.994446
11363,P,-36.6682854
11364,P,-36.6682854
11365,P,293.522614
11366,P,293.522614
11367,P,310.020081
11368,P,310.020081
11369,P,327.050049
11370,P,327.050049
11371,P,323.57663
11372,P,323.57663
11373,P,-528.443726
11374,P,-528.443726
11375,P,220.226974
11376,P,220.226974
11377,P,132.501099
11378,P,132.501099
11379,P,132.501099
11380,P,110.697212
11381,P,110.697212
11382,P,111.749908
11383,P,111.749908
11384,P,220.782806
11385,P,220.782806
11386,P,132.61348
11387,P,132.61348
11388,P,132.61348
11389,P,-489.793793
11390,P,-489.793793
11391,P,115.641434
11392,P,115.641434
11393,P,-14.3008881
11394,P,-14.3008881
11395,P,-14.5380859
11396,P,-14.5380859
11397,P,208.409912
11398,P,208.409912
11399,P,230.6073
11400,P,230.6073
11401,P,135.182999
11402,P,135.182999
11403,P,135.182999
11404,P,103.119774
11405,P,103.119774
11406,P,230.952133
11407,P,230.952133
11408,P,135.114151
11409,P,135.114151
11410,P,135.114151
11411,P,103.088531
11412,P,103.088531
11413,P,206.354858
11414,P,206.354858
11415,P,103.359947
11416,P,103.359947
11417,P,104.275383
11418,P,104.275383
11419,P,103.194092
11420,P,103.194092
11421,P,-46.4439125
11422,P,-46.4439125
11423,P,-46.104229
11424,P,-46.104229
11425,P,-65.3650284
11426,P,-65.3650284
11427,P,229.757416
11428,P,229.757416
11429,P,131.218155
11430,P,131.218155
11431,P,131.218155
11432,P,230.021011
11433,P,230.021011
11434,P,130.700424
11435,P,130.700424
11436,P,130.700424
11437,P,94.5522156
11438,P,94.5522156
11439,P,95.8713989
11440,P,95.8713989
11441,P,-62.4729271
11442,P,-62.4729271
11443,P,94.7410965
11444,P,94.7410965
11445,P,-12.584837
11446,P,-12.584837
11447,P,336.676178
11448,P,336.676178
11449,P,337.470978
11450,P,337.470978
11451,P,-11.6820564
11452,P,-11.6820564
11453,P,191.350174
11454,P,191.350174
11455,P,227.488708
11456,P,227.488708
11457,P,133.312256
11458,P,133.312256
11459,P,133.312256
11460,P,104.31678
11461,P,104.31678
11462,P,226.872726
11463,P,226.872726
11464,P,133.536987
11465,P,133.536987
11466,P,133.536987
11467,P,104.791046
11468,P,104.791046
11469,P,197.352371
11470,P,197.352371
11471,P,103.148178
11472,P,103.148178
11473,P,103.468056
11474,P,103.468056
11475,P,104.332581
11476,P,104.332581
11477,P,262.027557
11478,P,262.027557
11479,P,325.733429
11480,P,325.733429
11481,P,324.650757
11482,P,324.650757
11483,P,258.115997
11484,P,258.115997
11485,P,-345.764832
11486,P,-345.764832
11487,P,219.689484
11488,P,219.689484
11489,P,137.809036
11490,P,137.809036
11491,P,137.809036
11492,P,124.877571
11493,P,124.877571
11494,P,124.7873
11495,P,124.7873
11496,P,220.614182
11497,P,220.614182
11498,P,135.911163
11499,P,135.911163
11500,P,135.911163
11501,P,121.280678
11502,P,121.280678
11503,P,-372.509125
11504,P,-372.509125
11505,P,117.67379
11506,P,117.67379
11507,P,119.336761
11508,P,119.336761
11509,P,-281.618347
11510,P,-281.618347
11511,P,34.133564
11512,P,34.133564
11513,P,-208.395218
11514,P,-208.395218
11515,P,-208.395218
11516,P,72.4080048
11517,P,72.4080048
11518,P,637.838074
11519,P,637.838074
11520,P,637.838074
11521,P,528.374878
11522,P,528.374878
11523,P,528.374878
11524,P,521.119202
11525,P,521.119202
11526,P,-369.846863
11527,P,-369.846863
11528,P,1295.80127
11529,P,1295.80127
11530,P,1450.23779
11531,P,1450.23779
11532,P,1271.62451
11533,P,1271.62451
11534,P,1168.16504
11535,P,1168.16504
11536,P,814.560303
11537,P,814.560303
11538,P,-394.715759
11539,P,-394.715759
11540,P,287.968536
11541,P,287.968536
11542,P,-649.132385
11543,P,-649.132385
11544,P,-281.535889
11545,P,-281.535889
11546,P,34.1878471
11547,P,34.1878471
11548,P,-208.190994
11549,P,-208.190994
11550,P,-208.190994
11551,P,72.5778732
11552,P,72.5778732
11553,P,196.288773
11554,P,196.288773
11555,P,214.161133
11556,P,214.161133
11557,P,234.52594
11558,P,234.52594
11559,P,1531.18127
11560,P,1531.18127
11561,P,1531.18127
11562,P,213.189362
11563,P,213.189362
11564,P,326.69101
11565,P,326.69101
11566,P,262.349762
11567,P,262.349762
11568,P,258.539825
11569,P,258.539825
11570,P,-345.528168
11571,P,-345.528168
11572,P,220.545166
11573,P,220.545166
11574,P,138.712143
11575,P,138.712143
11576,P,138.712143
11577,P,221.573975
11578,P,221.573975
11579,P,136.713455
11580,P,136.713455
11581,P,136.713455
11582,P,-372.35495
11583,P,-372.35495
11584,P,116.571205
11585,P,116.571205
11586,P,118.208031
11587,P,118.208031
11588,P,-12.5447702
11589,P,-12.5447702
11590,P,-11.6449156
11591,P,-11.6449156
11592,P,191.350296
11593,P,191.350296
11594,P,227.818207
11595,P,227.818207
11596,P,133.652802
11597,P,133.652802
11598,P,133.652802
11599,P,104.537407
11600,P,104.537407
11601,P,227.233887
11602,P,227.233887
11603,P,133.846466
11604,P,133.846466
11605,P,133.846466
11606,P,104.119873
11607,P,104.119873
11608,P,104.997253
11609,P,104.997253
11610,P,197.358185
11611,P,197.358185
11612,P,103.305351
11613,P,103.305351
11614,P,104.175903
11615,P,104.175903
11616,P,103.655922
11617,P,103.655922
11618,P,-46.4280396
11619,P,-46.4280396
11620,P,-46.0778275
11621,P,-46.0778275
11622,P,-65.3477783
11623,P,-65.3477783
11624,P,229.776947
11625,P,229.776947
11626,P,131.231552
11627,P,131.231552
11628,P,131.231552
11629,P,230.046356
11630,P,230.046356
11631,P,130.708588
11632,P,130.708588
11633,P,130.708588
11634,P,94.5347519
11635,P,94.5347519
11636,P,95.8472977
11637,P,95.8472977
11638,P,-62.462368
11639,P,-62.462368
11640,P,94.7419128
11641,P,94.7419128
11642,P,341.951782
11643,P,341.951782
11644,P,341.438629
11645,P,341.438629
11646,P,-14.3567619
11647,P,-14.3567619
11648,P,-14.5938587
11649,P,-14.5938587
11650,P,208.352722
11651,P,208.352722
11652,P,230.427643
11653,P,230.427643
11654,P,135.034958
11655,P,135.034958
11656,P,135.034958
11657,P,103.035339
11658,P,103.035339
11659,P,103.914925
11660,P,103.914925
11661,P,230.792999
11662,P,230.792999
11663,P,134.943375
11664,P,134.943375
11665,P,134.943375
11666,P,104.045021
11667,P,104.045021
11668,P,206.306198
11669,P,206.306198
11670,P,103.217499
11671,P,103.217499
11672,P,103.08445
11673,P,103.08445
11674,P,326.498444
11675,P,326.498444
11676,P,325.747925
11677,P,325.747925
11678,P,309.850616
11679,P,309.850616
11680,P,323.462158
11681,P,323.462158
11682,P,-528.427368
11683,P,-528.427368
11684,P,219.653992
11685,P,219.653992
11686,P,131.992523
11687,P,131.992523
11688,P,131.992523
11689,P,110.338066
11690,P,110.338066
11691,P,220.229523
11692,P,220.229523
11693,P,132.081787
11694,P,132.081787
11695,P,132.081787
11696,P,111.778488
11697,P,111.778488
11698,P,-489.80188
11699,P,-489.80188
11700,P,115.013756
11701,P,115.013756
11702,P,115.168068
11703,P,115.168068
11704,P,112.865097
11705,P,112.865097
11706,P,477.377777
11707,P,477.377777
11708,P,483.529175
11709,P,483.529175
11710,P,9.33828449
11711,P,9.33828449
11712,P,-23.4590702
11713,P,-23.4590702
11714,P,-35.299778
11715,P,-35.299778
11716,P,105.331749
11717,P,105.331749
11718,P,239.373734
11719,P,239.373734
11720,P,239.373734
11721,P,53.8734207
11722,P,53.8734207
11723,P,267.94223
11724,P,267.94223
11725,P,267.94223
11726,P,251.277054
11727,P,251.277054
11728,P,-35.9377441
11729,P,-35.9377441
11730,P,372.786804
11731,P,372.786804
11732,P,372.786804
11733,P,294.920959
11734,P,294.920959
11735,P,294.920959
11736,P,294.920959
11737,P,294.920959
11738,P,1296.25684
11739,P,1296.25684
11740,P,1450.64014
11741,P,1450.64014
11742,P,1272.03723
11743,P,1272.03723
11744,P,1168.69116
11745,P,1168.69116
11746,P,814.80719
11747,P,814.80719
11748,P,288.113556
11749,P,288.113556
11750,P,-648.895508
11751,P,-648.895508
11752,P,196.121338
11753,P,196.121338
11754,P,214.172058
11755,P,214.172058
11756,P,234.9552
11757,P,234.9552
11758,P,110.097816
11759,P,110.097816
11760,P,110.097816
11761,P,1528.89062
11762,P,1528.89062
11763,P,1528.89062
11764,P,214.089951
11765,P,214.089951
11766,P,-83.9598312
11767,P,-83.9598312
11768,P,-107.88797
11769,P,-107.88797
11770,P,-155.228775
11771,P,-155.228775
11772,P,109.976585
11773,P,109.976585
11774,P,221.739532
11775,P,221.739532
11776,P,221.739532
11777,P,212.427826
11778,P,212.427826
11779,P,44.6945686
11780,P,44.6945686
11781,P,203.722656
11782,P,203.722656
11783,P,203.722656
11784,P,-188.4655
11785,P,-188.4655
11786,P,148.029938
11787,P,148.029938
11788,P,156.263367
11789,P,156.263367
11790,P,174.48053
11791,P,174.48053
11792,P,328.422058
11793,P,328.422058
11794,P,329.413635
11795,P,329.413635
11796,P,348.58374
11797,P,348.58374
11798,P,344.048584
11799,P,344.048584
11800,P,-582.469116
11801,P,-582.469116
11802,P,222.110809
11803,P,222.110809
11804,P,132.475266
11805,P,132.475266
11806,P,132.475266
11807,P,110.140778
11808,P,110.140778
11809,P,221.466766
11810,P,221.466766
11811,P,132.509399
11812,P,132.509399
11813,P,132.509399
11814,P,109.153656
11815,P,109.153656
11816,P,110.171982
11817,P,110.171982
11818,P,-576.5896
11819,P,-576.5896
11820,P,107.300552
11821,P,107.300552
11822,P,108.259315
11823,P,108.259315
11824,P,343.068085
11825,P,343.068085
11826,P,-8.95510006
11827,P,-8.95510006
11828,P,-11.4697628
11829,P,-11.4697628
11830,P,218.919159
11831,P,218.919159
11832,P,231.377914
11833,P,231.377914
11834,P,135.197861
11835,P,135.197861
11836,P,135.197861
11837,P,231.27977
11838,P,231.27977
11839,P,135.032639
11840,P,135.032639
11841,P,135.032639
11842,P,102.470268
11843,P,102.470268
11844,P,103.656136
11845,P,103.656136
11846,P,225.78096
11847,P,225.78096
11848,P,102.522644
11849,P,102.522644
11850,P,343.131744
11851,P,343.131744
11852,P,-2.87347007
11853,P,-2.87347007
11854,P,-10.8874826
11855,P,-10.8874826
11856,P,176.563507
11857,P,176.563507
11858,P,230.591888
11859,P,230.591888
11860,P,131.823425
11861,P,131.823425
11862,P,131.823425
11863,P,96.3033752
11864,P,96.3033752
11865,P,97.7602005
11866,P,97.7602005
11867,P,230.287369
11868,P,230.287369
11869,P,132.495255
11870,P,132.495255
11871,P,132.495255
11872,P,265.985016
11873,P,265.985016
11874,P,100.739037
11875,P,100.739037
11876,P,98.6981964
11877,P,98.6981964
11878,P,335.345215
11879,P,335.345215
11880,P,334.536407
11881,P,334.536407
11882,P,49.1122894
11883,P,49.1122894
11884,P,8.11283779
11885,P,8.11283779
11886,P,121.741531
11887,P,121.741531
11888,P,225.387787
11889,P,225.387787
11890,P,133.04921
11891,P,133.04921
11892,P,133.04921
11893,P,104.509697
11894,P,104.509697
11895,P,226.091812
11896,P,226.091812
11897,P,132.85379
11898,P,132.85379
11899,P,132.85379
11900,P,105.269447
11901,P,105.269447
11902,P,14.4882116
11903,P,14.4882116
11904,P,106.754364
11905,P,106.754364
11906,P,107.361458
11907,P,107.361458
11908,P,105.913162
11909,P,105.913162
11910,P,215.006882
11911,P,215.006882
11912,P,236.139847
11913,P,236.139847
11914,P,-292.630676
11915,P,-292.630676
11916,P,223.434631
11917,P,223.434631
11918,P,140.292328
11919,P,140.292328
11920,P,140.292328
11921,P,221.770889
11922,P,221.770889
11923,P,143.766327
11924,P,143.766327
11925,P,143.766327
11926,P,128.430145
11927,P,128.430145
11928,P,128.409286
11929,P,128.409286
11930,P,-276.861816
11931,P,-276.861816
11932,P,137.464035
11933,P,137.464035
11934,P,165.193359
11935,P,165.193359
11936,P,101.657913
11937,P,101.657913
11938,P,101.657913
11939,P,181.140564
11940,P,181.140564
11941,P,1014.22839
11942,P,1014.22839
11943,P,1014.22839
11944,P,258.538696
11945,P,258.538696
11946,P,156.722046
11947,P,156.722046
11948,P,1121.23999
11949,P,1121.23999
11950,P,998.537354
11951,P,998.537354
11952,P,931.644226
11953,P,931.644226
11954,P,1031.35461
11955,P,1031.35461
11956,P,756.007629
11957,P,756.007629
11958,P,-61.5697975
11959,P,-61.5697975
11960,P,165.275085
11961,P,165.275085
11962,P,181.155533
11963,P,181.155533
11964,P,258.734863
11965,P,258.734863
11966,P,156.941223
11967,P,156.941223
11968,P,-47.9467773
11969,P,-47.9467773
11970,P,-4.25847197
11971,P,-4.25847197
11972,P,60.5004082
11973,P,60.5004082
11974,P,43.9067078
11975,P,43.9067078
11976,P,397.827911
11977,P,397.827911
11978,P,397.827911
11979,P,397.827911
11980,P,170.254486
11981,P,170.254486
11982,P,242.836639
11983,P,242.836639
11984,P,326.187744
11985,P,326.187744
11986,P,216.120605
11987,P,216.120605
11988,P,237.01973
11989,P,237.01973
11990,P,-291.871338
11991,P,-291.871338
11992,P,224.652588
11993,P,224.652588
11994,P,141.304474
11995,P,141.304474
11996,P,141.304474
11997,P,126.740158
11998,P,126.740158
11999,P,128.104996
12000,P,128.104996
12001,P,222.851257
12002,P,222.851257
12003,P,144.901016
12004,P,144.901016
12005,P,144.901016
12006,P,-275.72171
12007,P,-275.72171
12008,P,138.25531
12009,P,138.25531
12010,P,130.688477
12011,P,130.688477
12012,P,335.731293
12013,P,335.731293
12014,P,334.948242
12015,P,334.948242
12016,P,49.1477585
12017,P,49.1477585
12018,P,8.14514542
12019,P,8.14514542
12020,P,121.731552
12021,P,121.731552
12022,P,225.808029
12023,P,225.808029
12024,P,133.418732
12025,P,133.418732
12026,P,133.418732
12027,P,104.740608
12028,P,104.740608
12029,P,226.484543
12030,P,226.484543
12031,P,133.245041
12032,P,133.245041
12033,P,133.245041
12034,P,14.4631929
12035,P,14.4631929
12036,P,107.031845
12037,P,107.031845
12038,P,107.627045
12039,P,107.627045
12040,P,106.168976
12041,P,106.168976
12042,P,-2.82271028
12043,P,-2.82271028
12044,P,-10.8375063
12045,P,-10.8375063
12046,P,176.600021
12047,P,176.600021
12048,P,230.639404
12049,P,230.639404
12050,P,131.846924
12051,P,131.846924
12052,P,131.846924
12053,P,230.323685
12054,P,230.323685
12055,P,132.528076
12056,P,132.528076
12057,P,132.528076
12058,P,98.0125351
12059,P,98.0125351
12060,P,98.3731842
12061,P,98.3731842
12062,P,266.017914
12063,P,266.017914
12064,P,100.272163
12065,P,100.272163
12066,P,100.736519
12067,P,100.736519
12068,P,342.741943
12069,P,342.741943
12070,P,342.956451
12071,P,342.956451
12072,P,-9.00472546
12073,P,-9.00472546
12074,P,-11.5192766
12075,P,-11.5192766
12076,P,218.868622
12077,P,218.868622
12078,P,231.261414
12079,P,231.261414
12080,P,135.073013
12081,P,135.073013
12082,P,135.073013
12083,P,231.142563
12084,P,231.142563
12085,P,134.927856
12086,P,134.927856
12087,P,134.927856
12088,P,102.422073
12089,P,102.422073
12090,P,103.597069
12091,P,103.597069
12092,P,225.72847
12093,P,225.72847
12094,P,101.960007
12095,P,101.960007
12096,P,102.489334
12097,P,102.489334
12098,P,327.888702
12099,P,327.888702
12100,P,328.894348
12101,P,328.894348
12102,P,348.516235
12103,P,348.516235
12104,P,343.964478
12105,P,343.964478
12106,P,-582.40033
12107,P,-582.40033
12108,P,221.595032
12109,P,221.595032
12110,P,131.985611
12111,P,131.985611
12112,P,131.985611
12113,P,109.797478
12114,P,109.797478
12115,P,110.427048
12116,P,110.427048
12117,P,220.931442
12118,P,220.931442
12119,P,132.035172
12120,P,132.035172
12121,P,132.035172
12122,P,108.840286
12123,P,108.840286
12124,P,-576.519043
12125,P,-576.519043
12126,P,107.964561
12127,P,107.964561
12128,P,108.025902
12129,P,108.025902
12130,P,-84.8944626
12131,P,-84.8944626
12132,P,-107.229362
12133,P,-107.229362
12134,P,-158.475739
12135,P,-158.475739
12136,P,107.323608
12137,P,107.323608
12138,P,219.455017
12139,P,219.455017
12140,P,219.455017
12141,P,214.268036
12142,P,214.268036
12143,P,204.976944
12144,P,204.976944
12145,P,41.2600632
12146,P,41.2600632
12147,P,201.741959
12148,P,201.741959
12149,P,201.741959
12150,P,-191.866196
12151,P,-191.866196
12152,P,147.304138
12153,P,147.304138
12154,P,155.593445
12155,P,155.593445
12156,P,163.927582
12157,P,163.927582
12158,P,1121.72729
12159,P,1121.72729
12160,P,999.030762
12161,P,999.030762
12162,P,932.207214
12163,P,932.207214
12164,P,1031.90894
12165,P,1031.90894
12166,P,757.266907
12167,P,757.266907
12168,P,-47.7240944
12169,P,-47.7240944
12170,P,-3.9973371
12171,P,-3.9973371
12172,P,60.9344482
12173,P,60.9344482
12174,P,44.3248291
12175,P,44.3248291
12176,P,398.879944
12177,P,398.879944
12178,P,398.879944
12179,P,398.879944
12180,P,170.677551
12181,P,170.677551
12182,P,242.87323
12183,P,242.87323
12184,P,628.990723
12185,P,628.990723
12186,P,887.063232
12187,P,887.063232
12188,P,652.60968
12189,P,652.60968
12190,P,931.467712
12191,P,931.467712
12192,P,68.3721466
12193,P,68.3721466
12194,P,-177.573471
12195,P,-177.573471
12196,P,36.3059082
12197,P,36.3059082
12198,P,-313.358276
12199,P,-313.358276
12200,P,219.530197
12201,P,219.530197
12202,P,-349.803955
12203,P,-349.803955
12204,P,270.991608
12205,P,270.991608
12206,P,-320.733551
12207,P,-320.733551
12208,P,94.3986588
12209,P,94.3986588
12210,P,-375.011047
12211,P,-375.011047
12212,P,84.0477066
12213,P,84.0477066
12214,P,-382.715424
12215,P,-382.715424
12216,P,11.9668112
12217,P,11.9668112
12218,P,-386.545746
12219,P,-386.545746
12220,P,38.5566635
12221,P,38.5566635
12222,P,-382.834717
12223,P,-382.834717
12224,P,-149.539825
12225,P,-149.539825
12226,P,-410.862061
12227,P,-410.862061
12228,P,-167.719528
12229,P,-167.719528
12230,P,-407.378601
12231,P,-407.378601
12232,P,-185.015167
12233,P,-185.015167
12234,P,-409.3255
12235,P,-409.3255
12236,P,-177.732986
12237,P,-177.732986
12238,P,-407.063354
12239,P,-407.063354
12240,P,-160.683716
12241,P,-160.683716
12242,P,-458.822601
12243,P,-458.822601
12244,P,-156.411469
12245,P,-156.411469
12246,P,-448.932159
12247,P,-448.932159
12248,P,-184.821091
12249,P,-184.821091
12250,P,-411.022461
12251,P,-411.022461
12252,P,-165.669632
12253,P,-165.669632
12254,P,-444.514038
12255,P,-444.514038
12256,P,-138.183823
12257,P,-138.183823
12258,P,-411.378754
12259,P,-411.378754
12260,P,-120.730438
12261,P,-120.730438
12262,P,-413.293213
12263,P,-413.293213
12264,P,2.07661963
12265,P,2.07661963
12266,P,-388.186584
12267,P,-388.186584
12268,P,-111.513123
12269,P,-111.513123
12270,P,-412.411682
12271,P,-412.411682
12272,P,76.2806625
12273,P,76.2806625
12274,P,-373.007599
12275,P,-373.007599
12276,P,106.84594
12277,P,106.84594
12278,P,-363.897369
12279,P,-363.897369
12280,P,185.569031
12281,P,185.569031
12282,P,-352.061584
12283,P,-352.061584
12284,P,135.847687
12285,P,135.847687
12286,P,-362.970032
12287,P,-362.970032
12288,P,76.6178741
12289,P,76.6178741
12290,P,-372.854706
12291,P,-372.854706
12292,P,107.01931
12293,P,107.01931
12294,P,-363.646545
12295,P,-363.646545
12296,P,184.579193
12297,P,184.579193
12298,P,-351.870422
12299,P,-351.870422
12300,P,135.81189
12301,P,135.81189
12302,P,-362.713959
12303,P,-362.713959
12304,P,-138.445175
12305,P,-138.445175
12306,P,-411.644348
12307,P,-411.644348
12308,P,-120.921951
12309,P,-120.921951
12310,P,-413.541077
12311,P,-413.541077
12312,P,2.04707003
12313,P,2.04707003
12314,P,-388.352692
12315,P,-388.352692
12316,P,-111.645935
12317,P,-111.645935
12318,P,-412.650238
12319,P,-412.650238
12320,P,-160.713791
12321,P,-160.713791
12322,P,-458.835632
12323,P,-458.835632
12324,P,-156.528702
12325,P,-156.528702
12326,P,-449.058594
12327,P,-449.058594
12328,P,-185.072449
12329,P,-185.072449
12330,P,-411.239197
12331,P,-411.239197
12332,P,-165.844162
12333,P,-165.844162
12334,P,-444.656097
12335,P,-444.656097
12336,P,-149.228836
12337,P,-149.228836
12338,P,-410.601196
12339,P,-410.601196
12340,P,-167.376129
12341,P,-167.376129
12342,P,-407.112671
12343,P,-407.112671
12344,P,-184.717651
12345,P,-184.717651
12346,P,-409.093262
12347,P,-409.093262
12348,P,-177.391296
12349,P,-177.391296
12350,P,-406.798004
12351,P,-406.798004
12352,P,94.0867004
12353,P,94.0867004
12354,P,-375.14151
12355,P,-375.14151
12356,P,83.8438492
12357,P,83.8438492
12358,P,-382.703522
12359,P,-382.703522
12360,P,11.9349079
12361,P,11.9349079
12362,P,-386.39267
12363,P,-386.39267
12364,P,38.4235268
12365,P,38.4235268
12366,P,-382.80249
12367,P,-382.80249
12368,P,54.1697655
12369,P,54.1697655
12370,P,-162.994766
12371,P,-162.994766
12372,P,37.4116287
12373,P,37.4116287
12374,P,-311.628265
12375,P,-311.628265
12376,P,221.776779
12377,P,221.776779
12378,P,-349.961456
12379,P,-349.961456
12380,P,276.03244
12381,P,276.03244
12382,P,-319.815216
12383,P,-319.815216
12384,P,188.443176
12385,P,188.443176
12386,P,-4.27526188
12387,P,-4.27526188
12388,P,849.504089
12389,P,849.504089
12390,P,849.504089
12391,P,519.185181
12392,P,519.185181
12393,P,129.336884
12394,P,129.336884
12395,P,376.03717
12396,P,376.03717
12397,P,655.055786
12398,P,655.055786
12399,P,213.072144
12400,P,213.072144
12401,P,981.254639
12402,P,981.254639
12403,P,981.254639
12404,P,471.8479
12405,P,471.8479
12406,P,352.518921
12407,P,352.518921
12408,P,1051.11987
12409,P,1051.11987
12410,P,495.550781
12411,P,495.550781
12412,P,179.658447
12413,P,179.658447
12414,P,811.835693
12415,P,811.835693
12416,P,701.886414
12417,P,701.886414
12418,P,701.886414
12419,P,701.886414
12420,P,993.782898
12421,P,993.782898
12422,P,1761.70349
12423,P,1761.70349
12424,P,1761.70349
12425,P,415.08078
12426,P,415.08078
12427,P,415.08078
12428,P,424.840576
12429,P,424.840576
12430,P,1254.59375
12431,P,1254.59375
12432,P,1254.59375
12433,P,1254.59375
12434,P,1254.59375
12435,P,1254.59375
12436,P,265.253326
12437,P,265.253326
12438,P,265.253326
12439,P,265.253326
12440,P,517.052368
12441,P,517.052368
12442,P,682.937012
12443,P,682.937012
12444,P,478.047638
12445,P,478.047638
12446,P,98.1037521
12447,P,98.1037521
12448,P,83.8042603
12449,P,83.8042603
12450,P,-1.23175824
12451,P,-1.23175824
12452,P,15.1251631
12453,P,15.1251631
12454,P,68.8319702
12455,P,68.8319702
12456,P,79.6117935
12457,P,79.6117935
12458,P,99.2055359
12459,P,99.2055359
12460,P,52.321228
12461,P,52.321228
12462,P,32.4204216
12463,P,32.4204216
12464,P,424.350464
12465,P,424.350464
12466,P,-27.8986931
12467,P,-27.8986931
12468,P,95.7162552
12469,P,95.7162552
12470,P,65.3989182
12471,P,65.3989182
12472,P,49.2666893
12473,P,49.2666893
12474,P,-256.150482
12475,P,-256.150482
12476,P,398.643341
12477,P,398.643341
12478,P,-100.287743
12479,P,-100.287743
12480,P,114.153786
12481,P,114.153786
12482,P,168.38414
12483,P,168.38414
12484,P,136.674042
12485,P,136.674042
12486,P,99.2289352
12487,P,99.2289352
12488,P,164.801834
12489,P,164.801834
12490,P,76.3057098
12491,P,76.3057098
12492,P,140.546143
12493,P,140.546143
12494,P,102.552467
12495,P,102.552467
12496,P,299.77359
12497,P,299.77359
12498,P,-158.787659
12499,P,-158.787659
12500,P,-68.7462234
12501,P,-68.7462234
12502,P,-53.0492821
12503,P,-53.0492821
12504,P,15.7474604
12505,P,15.7474604
12506,P,-275.481537
12507,P,-275.481537
12508,P,324.163544
12509,P,324.163544
12510,P,-119.316544
12511,P,-119.316544
12512,P,282.566833
12513,P,282.566833
12514,P,45.6254044
12515,P,45.6254044
12516,P,-14.2352333
12517,P,-14.2352333
12518,P,-26.2994003
12519,P,-26.2994003
12520,P,296.928192
12521,P,296.928192
12522,P,-46.1644859
12523,P,-46.1644859
12524,P,-36.0464935
12525,P,-36.0464935
12526,P,27.9430542
12527,P,27.9430542
12528,P,232.592957
12529,P,232.592957
12530,P,-340.910004
12531,P,-340.910004
12532,P,161.798935
12533,P,161.798935
12534,P,-205.931366
12535,P,-205.931366
12536,P,-137.770081
12537,P,-137.770081
12538,P,-132.108337
12539,P,-132.108337
12540,P,163.881195
12541,P,163.881195
12542,P,-193.550552
12543,P,-193.550552
12544,P,169.326874
12545,P,169.326874
12546,P,-168.056961
12547,P,-168.056961
12548,P,-81.3534317
12549,P,-81.3534317
12550,P,-93.0297775
12551,P,-93.0297775
12552,P,266.915222
12553,P,266.915222
12554,P,-337.4021
12555,P,-337.4021
12556,P,170.957687
12557,P,170.957687
12558,P,-188.844498
12559,P,-188.844498
12560,P,291.999023
12561,P,291.999023
12562,P,-73.8496246
12563,P,-73.8496246
12564,P,-67.6877365
12565,P,-67.6877365
12566,P,1.45577979
12567,P,1.45577979
12568,P,303.551025
12569,P,303.551025
12570,P,-53.8552628
12571,P,-53.8552628
12572,P,-61.4424553
12573,P,-61.4424553
12574,P,431.314301
12575,P,431.314301
12576,P,-42.748127
12577,P,-42.748127
12578,P,-121.550079
12579,P,-121.550079
12580,P,-120.691559
12581,P,-120.691559
12582,P,-43.5781441
12583,P,-43.5781441
12584,P,425.730347
12585,P,425.730347
12586,P,-41.8525658
12587,P,-41.8525658
12588,P,-119.182404
12589,P,-119.182404
12590,P,-119.916
12591,P,-119.916
12592,P,198.835312
12593,P,198.835312
12594,P,-235.913986
12595,P,-235.913986
12596,P,-177.744247
12597,P,-177.744247
12598,P,-179.0952
12599,P,-179.0952
12600,P,100.678085
12601,P,100.678085
12602,P,-380.430115
12603,P,-380.430115
12604,P,210.929306
12605,P,210.929306
12606,P,-240.652695
12607,P,-240.652695
12608,P,362.466644
12609,P,362.466644
12610,P,-114.872215
12611,P,-114.872215
12612,P,-116.03521
12613,P,-116.03521
12614,P,381.983398
12615,P,381.983398
12616,P,-39.1257439
12617,P,-39.1257439
12618,P,-118.283157
12619,P,-118.283157
12620,P,-40.2314758
12621,P,-40.2314758
12622,P,-117.111107
12623,P,-117.111107
12624,P,198.582001
12625,P,198.582001
12626,P,-244.201065
12627,P,-244.201065
12628,P,-184.888351
12629,P,-184.888351
12630,P,-184.051926
12631,P,-184.051926
12632,P,94.4562759
12633,P,94.4562759
12634,P,-381.387878
12635,P,-381.387878
12636,P,216.596619
12637,P,216.596619
12638,P,-241.815643
12639,P,-241.815643
12640,P,232.141724
12641,P,232.141724
12642,P,-44.6450043
12643,P,-44.6450043
12644,P,-122.171761
12645,P,-122.171761
12646,P,-122.722504
12647,P,-122.722504
12648,P,230.773392
12649,P,230.773392
12650,P,-124.09436
12651,P,-124.09436
12652,P,-123.34256
12653,P,-123.34256
12654,P,-46.0180588
12655,P,-46.0180588
12656,P,14.350029
12657,P,14.350029
12658,P,-383.87677
12659,P,-383.87677
12660,P,111.803772
12661,P,111.803772
12662,P,-250.481369
12663,P,-250.481369
12664,P,-191.100403
12665,P,-191.100403
12666,P,-189.906799
12667,P,-189.906799
12668,P,106.721985
12669,P,106.721985
12670,P,-247.281021
12671,P,-247.281021
12672,P,108.58181
12673,P,108.58181
12674,P,-244.751556
12675,P,-244.751556
12676,P,-185.543564
12677,P,-185.543564
12678,P,-186.15947
12679,P,-186.15947
12680,P,29.7273865
12681,P,29.7273865
12682,P,-383.517242
12683,P,-383.517242
12684,P,103.943062
12685,P,103.943062
12686,P,-246.511581
12687,P,-246.511581
12688,P,246.606796
12689,P,246.606796
12690,P,-127.242134
12691,P,-127.242134
12692,P,-126.193336
12693,P,-126.193336
12694,P,-48.9700737
12695,P,-48.9700737
12696,P,241.968246
12697,P,241.968246
12698,P,-124.779343
12699,P,-124.779343
12700,P,-125.365974
12701,P,-125.365974
12702,P,282.515137
12703,P,282.515137
12704,P,-57.6524162
12705,P,-57.6524162
12706,P,-137.676559
12707,P,-137.676559
12708,P,-137.426941
12709,P,-137.426941
12710,P,-57.9502144
12711,P,-57.9502144
12712,P,278.46524
12713,P,278.46524
12714,P,-57.5556488
12715,P,-57.5556488
12716,P,-137.544632
12717,P,-137.544632
12718,P,-137.3871
12719,P,-137.3871
12720,P,169.949127
12721,P,169.949127
12722,P,-269.155945
12723,P,-269.155945
12724,P,-204.215546
12725,P,-204.215546
12726,P,-204.072174
12727,P,-204.072174
12728,P,-153.25293
12729,P,-153.25293
12730,P,-409.008423
12731,P,-409.008423
12732,P,170.808502
12733,P,170.808502
12734,P,-268.418304
12735,P,-268.418304
12736,P,263.939087
12737,P,263.939087
12738,P,-137.64502
12739,P,-137.64502
12740,P,-137.532532
12741,P,-137.532532
12742,P,268.325775
12743,P,268.325775
12744,P,-57.5251427
12745,P,-57.5251427
12746,P,-137.574524
12747,P,-137.574524
12748,P,-57.7251854
12749,P,-57.7251854
12750,P,-137.481277
12751,P,-137.481277
12752,P,172.458298
12753,P,172.458298
12754,P,-267.628662
12755,P,-267.628662
12756,P,-203.791931
12757,P,-203.791931
12758,P,-203.639938
12759,P,-203.639938
12760,P,-164.175781
12761,P,-164.175781
12762,P,-408.501221
12763,P,-408.501221
12764,P,172.218674
12765,P,172.218674
12766,P,-268.144348
12767,P,-268.144348
12768,P,291.764862
12769,P,291.764862
12770,P,-58.058075
12771,P,-58.058075
12772,P,-137.804123
12773,P,-137.804123
12774,P,-137.893311
12775,P,-137.893311
12776,P,295.088745
12777,P,295.088745
12778,P,-138.726471
12779,P,-138.726471
12780,P,-138.20137
12781,P,-138.20137
12782,P,-58.9714203
12783,P,-58.9714203
12784,P,-183.103027
12785,P,-183.103027
12786,P,-407.030151
12787,P,-407.030151
12788,P,160.660065
12789,P,160.660065
12790,P,-271.462433
12791,P,-271.462433
12792,P,-208.145325
12793,P,-208.145325
12794,P,-206.904175
12795,P,-206.904175
12796,P,164.156494
12797,P,164.156494
12798,P,-268.656464
12799,P,-268.656464
12800,P,172.327621
12801,P,172.327621
12802,P,-267.538666
12803,P,-267.538666
12804,P,-203.90094
12805,P,-203.90094
12806,P,-204.029236
12807,P,-204.029236
12808,P,-180.436096
12809,P,-180.436096
12810,P,-406.902344
12811,P,-406.902344
12812,P,170.88295
12813,P,170.88295
12814,P,-268.122833
12815,P,-268.122833
12816,P,298.35849
12817,P,298.35849
12818,P,-141.755783
12819,P,-141.755783
12820,P,-140.628281
12821,P,-140.628281
12822,P,-61.7278214
12823,P,-61.7278214
12824,P,300.404419
12825,P,300.404419
12826,P,-139.285721
12827,P,-139.285721
12828,P,-139.771973
12829,P,-139.771973
12830,P,10.6043301
12831,P,10.6043301
12832,P,-72.9644318
12833,P,-72.9644318
12834,P,-155.576004
12835,P,-155.576004
12836,P,-156.731705
12837,P,-156.731705
12838,P,-72.2208023
12839,P,-72.2208023
12840,P,-9.49303722
12841,P,-9.49303722
12842,P,-73.9242401
12843,P,-73.9242401
12844,P,-158.988556
12845,P,-158.988556
12846,P,-157.915695
12847,P,-157.915695
12848,P,259.347717
12849,P,259.347717
12850,P,-306.719147
12851,P,-306.719147
12852,P,-232.879425
12853,P,-232.879425
12854,P,-232.555634
12855,P,-232.555634
12856,P,-159.846619
12857,P,-159.846619
12858,P,-457.354523
12859,P,-457.354523
12860,P,261.065063
12861,P,261.065063
12862,P,-305.270599
12863,P,-305.270599
12864,P,-32.1052094
12865,P,-32.1052094
12866,P,-160.944427
12867,P,-160.944427
12868,P,-160.589737
12869,P,-160.589737
12870,P,-29.0841084
12871,P,-29.0841084
12872,P,-75.7211914
12873,P,-75.7211914
12874,P,-159.784592
12875,P,-159.784592
12876,P,-75.5057373
12877,P,-75.5057373
12878,P,-160.184219
12879,P,-160.184219
12880,P,267.873993
12881,P,267.873993
12882,P,-298.400024
12883,P,-298.400024
12884,P,-226.211823
12885,P,-226.211823
12886,P,-227.827576
12887,P,-227.827576
12888,P,-158.306183
12889,P,-158.306183
12890,P,-456.144562
12891,P,-456.144562
12892,P,264.787872
12893,P,264.787872
12894,P,-304.123138
12895,P,-304.123138
12896,P,102.801529
12897,P,102.801529
12898,P,-69.6796112
12899,P,-69.6796112
12900,P,-154.020493
12901,P,-154.020493
12902,P,-152.257706
12903,P,-152.257706
12904,P,152.984772
12905,P,152.984772
12906,P,-148.917923
12907,P,-148.917923
12908,P,-150.466568
12909,P,-150.466568
12910,P,-67.3011475
12911,P,-67.3011475
12912,P,-185.047791
12913,P,-185.047791
12914,P,-422.014526
12915,P,-422.014526
12916,P,162.644394
12917,P,162.644394
12918,P,-272.966064
12919,P,-272.966064
12920,P,-209.423828
12921,P,-209.423828
12922,P,-210.980164
12923,P,-210.980164
12924,P,167.363342
12925,P,167.363342
12926,P,-280.97522
12927,P,-280.97522
12928,P,245.636459
12929,P,245.636459
12930,P,-295.378571
12931,P,-295.378571
12932,P,-224.183151
12933,P,-224.183151
12934,P,-221.927109
12935,P,-221.927109
12936,P,-174.28746
12937,P,-174.28746
12938,P,-427.671021
12939,P,-427.671021
12940,P,227.121292
12941,P,227.121292
12942,P,-284.640961
12943,P,-284.640961
12944,P,276.337891
12945,P,276.337891
12946,P,-142.8237
12947,P,-142.8237
12948,P,-143.975754
12949,P,-143.975754
12950,P,-62.5926132
12951,P,-62.5926132
12952,P,251.582748
12953,P,251.582748
12954,P,-147.170059
12955,P,-147.170059
12956,P,-145.474228
12957,P,-145.474228
12958,P,232.658096
12959,P,232.658096
12960,P,-55.9845619
12961,P,-55.9845619
12962,P,-136.019943
12963,P,-136.019943
12964,P,-136.421661
12965,P,-136.421661
12966,P,-55.7648506
12967,P,-55.7648506
12968,P,237.064407
12969,P,237.064407
12970,P,-56.3836174
12971,P,-56.3836174
12972,P,-137.175064
12973,P,-137.175064
12974,P,-136.803177
12975,P,-136.803177
12976,P,167.327469
12977,P,167.327469
12978,P,-269.265289
12979,P,-269.265289
12980,P,-204.15834
12981,P,-204.15834
12982,P,-204.100098
12983,P,-204.100098
12984,P,-134.387802
12985,P,-134.387802
12986,P,-413.14151
12987,P,-413.14151
12988,P,165.877472
12989,P,165.877472
12990,P,-269.839172
12991,P,-269.839172
12992,P,253.396393
12993,P,253.396393
12994,P,-137.596298
12995,P,-137.596298
12996,P,-137.404251
12997,P,-137.404251
12998,P,248.708511
12999,P,248.708511
13000,P,-57.0504265
13001,P,-57.0504265
13002,P,-137.373383
13003,P,-137.373383
13004,P,-57.1244812
13005,P,-57.1244812
13006,P,-137.329193
13007,P,-137.329193
13008,P,155.677719
13009,P,155.677719
13010,P,-268.706207
13011,P,-268.706207
13012,P,-202.745422
13013,P,-202.745422
13014,P,-203.28595
13015,P,-203.28595
13016,P,-124.119446
13017,P,-124.119446
13018,P,-413.546478
13019,P,-413.546478
13020,P,159.280182
13021,P,159.280182
13022,P,-269.777466
13023,P,-269.777466
13024,P,224.75856
13025,P,224.75856
13026,P,-54.5271797
13027,P,-54.5271797
13028,P,-135.388336
13029,P,-135.388336
13030,P,-134.464233
13031,P,-134.464233
13032,P,225.895264
13033,P,225.895264
13034,P,-132.601425
13035,P,-132.601425
13036,P,-133.499924
13037,P,-133.499924
13038,P,-53.1801186
13039,P,-53.1801186
13040,P,-17.6621475
13041,P,-17.6621475
13042,P,-399.639374
13043,P,-399.639374
13044,P,138.633011
13045,P,138.633011
13046,P,-251.893234
13047,P,-251.893234
13048,P,-192.166245
13049,P,-192.166245
13050,P,-193.54216
13051,P,-193.54216
13052,P,136.47821
13053,P,136.47821
13054,P,-259.319885
13055,P,-259.319885
13056,P,132.715591
13057,P,132.715591
13058,P,-267.792908
13059,P,-267.792908
13060,P,-201.94519
13061,P,-201.94519
13062,P,-200.84169
13063,P,-200.84169
13064,P,-104.813507
13065,P,-104.813507
13066,P,-404.578217
13067,P,-404.578217
13068,P,120.262199
13069,P,120.262199
13070,P,-262.219757
13071,P,-262.219757
13072,P,251.748001
13073,P,251.748001
13074,P,-128.097641
13075,P,-128.097641
13076,P,-129.097626
13077,P,-129.097626
13078,P,-49.7032433
13079,P,-49.7032433
13080,P,251.643036
13081,P,251.643036
13082,P,-131.465805
13083,P,-131.465805
13084,P,-130.217117
13085,P,-130.217117
13086,P,329.77829
13087,P,329.77829
13088,P,-27.5711937
13089,P,-27.5711937
13090,P,-103.637619
13091,P,-103.637619
13092,P,-105.228775
13093,P,-105.228775
13094,P,-26.3229866
13095,P,-26.3229866
13096,P,317.276794
13097,P,317.276794
13098,P,-29.220438
13099,P,-29.220438
13100,P,-108.448616
13101,P,-108.448616
13102,P,-106.856476
13103,P,-106.856476
13104,P,156.324036
13105,P,156.324036
13106,P,-234.356216
13107,P,-234.356216
13108,P,-176.57016
13109,P,-176.57016
13110,P,-175.018051
13111,P,-175.018051
13112,P,75.2021866
13113,P,75.2021866
13114,P,-367.376129
13115,P,-367.376129
13116,P,146.190475
13117,P,146.190475
13118,P,-229.211624
13119,P,-229.211624
13120,P,306.357849
13121,P,306.357849
13122,P,-113.947266
13123,P,-113.947266
13124,P,-112.493065
13125,P,-112.493065
13126,P,292.654999
13127,P,292.654999
13128,P,-33.4084282
13129,P,-33.4084282
13130,P,-109.899902
13131,P,-109.899902
13132,P,-32.3695564
13133,P,-32.3695564
13134,P,-111.136559
13135,P,-111.136559
13136,P,144.127563
13137,P,144.127563
13138,P,-224.180527
13139,P,-224.180527
13140,P,-165.954361
13141,P,-165.954361
13142,P,-167.593155
13143,P,-167.593155
13144,P,95.8951263
13145,P,95.8951263
13146,P,-366.292938
13147,P,-366.292938
13148,P,141.419357
13149,P,141.419357
13150,P,-227.738922
13151,P,-227.738922
13152,P,322.047882
13153,P,322.047882
13154,P,-22.824007
13155,P,-22.824007
13156,P,-101.733902
13157,P,-101.733902
13158,P,-99.5885162
13159,P,-99.5885162
13160,P,317.072174
13161,P,317.072174
13162,P,-94.6364365
13163,P,-94.6364365
13164,P,-97.15522
13165,P,-97.15522
13166,P,-18.7872467
13167,P,-18.7872467
13168,P,174.674438
13169,P,174.674438
13170,P,-357.55838
13171,P,-357.55838
13172,P,157.478271
13173,P,157.478271
13174,P,-209.554367
13175,P,-209.554367
13176,P,-142.875809
13177,P,-142.875809
13178,P,-147.1474
13179,P,-147.1474
13180,P,155.792267
13181,P,155.792267
13182,P,-217.387985
13183,P,-217.387985
13184,P,149.781143
13185,P,149.781143
13186,P,-223.080399
13187,P,-223.080399
13188,P,-164.035736
13189,P,-164.035736
13190,P,-161.934387
13191,P,-161.934387
13192,P,145.379166
13193,P,145.379166
13194,P,-359.163696
13195,P,-359.163696
13196,P,151.032837
13197,P,151.032837
13198,P,-219.072067
13199,P,-219.072067
13200,P,297.375519
13201,P,297.375519
13202,P,-79.3908234
13203,P,-79.3908234
13204,P,-83.9842606
13205,P,-83.9842606
13206,P,-4.29846859
13207,P,-4.29846859
13208,P,301.730194
13209,P,301.730194
13210,P,-91.5864868
13211,P,-91.5864868
13212,P,-87.9325943
13213,P,-87.9325943
13214,P,329.663574
13215,P,329.663574
13216,P,-27.1153278
13217,P,-27.1153278
13218,P,-103.243401
13219,P,-103.243401
13220,P,-104.845871
13221,P,-104.845871
13222,P,-25.8439713
13223,P,-25.8439713
13224,P,317.225494
13225,P,317.225494
13226,P,-28.778183
13227,P,-28.778183
13228,P,-108.098785
13229,P,-108.098785
13230,P,-106.492455
13231,P,-106.492455
13232,P,156.617905
13233,P,156.617905
13234,P,-234.13533
13235,P,-234.13533
13236,P,-176.366684
13237,P,-176.366684
13238,P,-174.78685
13239,P,-174.78685
13240,P,75.5219421
13241,P,75.5219421
13242,P,-367.161102
13243,P,-367.161102
13244,P,146.456436
13245,P,146.456436
13246,P,-228.911102
13247,P,-228.911102
13248,P,306.440247
13249,P,306.440247
13250,P,-113.68132
13251,P,-113.68132
13252,P,-112.201324
13253,P,-112.201324
13254,P,292.721008
13255,P,292.721008
13256,P,-33.0224876
13257,P,-33.0224876
13258,P,-109.569824
13259,P,-109.569824
13260,P,-31.9669685
13261,P,-31.9669685
13262,P,-110.824615
13263,P,-110.824615
13264,P,144.163391
13265,P,144.163391
13266,P,-223.828293
13267,P,-223.828293
13268,P,-165.629044
13269,P,-165.629044
13270,P,-167.278122
13271,P,-167.278122
13272,P,96.1159134
13273,P,96.1159134
13274,P,-366.0625
13275,P,-366.0625
13276,P,141.541428
13277,P,141.541428
13278,P,-227.420715
13279,P,-227.420715
13280,P,321.611267
13281,P,321.611267
13282,P,-22.2987881
13283,P,-22.2987881
13284,P,-101.318916
13285,P,-101.318916
13286,P,-99.1488419
13287,P,-99.1488419
13288,P,316.397308
13289,P,316.397308
13290,P,-94.150322
13291,P,-94.150322
13292,P,-96.6982727
13293,P,-96.6982727
13294,P,155.80899
13295,P,155.80899
13296,P,-209.074738
13297,P,-209.074738
13298,P,-142.366867
13299,P,-142.366867
13300,P,-146.649994
13301,P,-146.649994
13302,P,173.974747
13303,P,173.974747
13304,P,-357.300507
13305,P,-357.300507
13306,P,154.560181
13307,P,154.560181
13308,P,-216.936096
13309,P,-216.936096
13310,P,294.839142
13311,P,294.839142
13312,P,-7.97042131
13313,P,-7.97042131
13314,P,-78.8083572
13315,P,-78.8083572
13316,P,-3.63830471
13317,P,-3.63830471
13318,P,-83.415451
13319,P,-83.415451
13320,P,299.952301
13321,P,299.952301
13322,P,-12.0842247
13323,P,-12.0842247
13324,P,-91.0654221
13325,P,-91.0654221
13326,P,-87.3816528
13327,P,-87.3816528
13328,P,149.492645
13329,P,149.492645
13330,P,-222.715042
13331,P,-222.715042
13332,P,-163.695679
13333,P,-163.695679
13334,P,-161.572006
13335,P,-161.572006
13336,P,145.216995
13337,P,145.216995
13338,P,-358.9021
13339,P,-358.9021
13340,P,150.574585
13341,P,150.574585
13342,P,-218.6465
13343,P,-218.6465
13344,P,232.338974
13345,P,232.338974
13346,P,-56.0049553
13347,P,-56.0049553
13348,P,-136.125351
13349,P,-136.125351
13350,P,-136.525925
13351,P,-136.525925
13352,P,-55.7829132
13353,P,-55.7829132
13354,P,236.75032
13355,P,236.75032
13356,P,-56.4083023
13357,P,-56.4083023
13358,P,-137.277863
13359,P,-137.277863
13360,P,-136.90683
13361,P,-136.90683
13362,P,167.028198
13363,P,167.028198
13364,P,-269.479889
13365,P,-269.479889
13366,P,-204.321259
13367,P,-204.321259
13368,P,-204.267685
13369,P,-204.267685
13370,P,-134.634155
13371,P,-134.634155
13372,P,-413.403809
13373,P,-413.403809
13374,P,165.594513
13375,P,165.594513
13376,P,-270.06015
13377,P,-270.06015
13378,P,253.045532
13379,P,253.045532
13380,P,-137.689514
13381,P,-137.689514
13382,P,-137.500397
13383,P,-137.500397
13384,P,248.368149
13385,P,248.368149
13386,P,-57.0715752
13387,P,-57.0715752
13388,P,-137.476227
13389,P,-137.476227
13390,P,-57.1505508
13391,P,-57.1505508
13392,P,-137.430969
13393,P,-137.430969
13394,P,155.468109
13395,P,155.468109
13396,P,-268.924988
13397,P,-268.924988
13398,P,-202.928055
13399,P,-202.928055
13400,P,-203.465378
13401,P,-203.465378
13402,P,-124.326828
13403,P,-124.326828
13404,P,-413.806488
13405,P,-413.806488
13406,P,159.046448
13407,P,159.046448
13408,P,-270.000244
13409,P,-270.000244
13410,P,224.456207
13411,P,224.456207
13412,P,-54.5411797
13413,P,-54.5411797
13414,P,-135.492981
13415,P,-135.492981
13416,P,-134.572205
13417,P,-134.572205
13418,P,225.622238
13419,P,225.622238
13420,P,-132.708511
13421,P,-132.708511
13422,P,-133.607101
13423,P,-133.607101
13424,P,138.552887
13425,P,138.552887
13426,P,-252.05603
13427,P,-252.05603
13428,P,-192.331207
13429,P,-192.331207
13430,P,-193.712006
13431,P,-193.712006
13432,P,-17.6998272
13433,P,-17.6998272
13434,P,-399.829163
13435,P,-399.829163
13436,P,136.37973
13437,P,136.37973
13438,P,-259.506989
13439,P,-259.506989
13440,P,251.522141
13441,P,251.522141
13442,P,-50.3372917
13443,P,-50.3372917
13444,P,-128.183319
13445,P,-128.183319
13446,P,-49.6953011
13447,P,-49.6953011
13448,P,-129.189316
13449,P,-129.189316
13450,P,251.401932
13451,P,251.401932
13452,P,-51.2574005
13453,P,-51.2574005
13454,P,-131.568802
13455,P,-131.568802
13456,P,-130.317505
13457,P,-130.317505
13458,P,132.567596
13459,P,132.567596
13460,P,-268.006866
13461,P,-268.006866
13462,P,-202.128372
13463,P,-202.128372
13464,P,-201.025452
13465,P,-201.025452
13466,P,-104.927376
13467,P,-104.927376
13468,P,-404.783417
13469,P,-404.783417
13470,P,120.114433
13471,P,120.114433
13472,P,-262.416656
13473,P,-262.416656
13474,P,10.5053625
13475,P,10.5053625
13476,P,-73.0335846
13477,P,-73.0335846
13478,P,-155.66629
13479,P,-155.66629
13480,P,-156.809509
13481,P,-156.809509
13482,P,-72.2989807
13483,P,-72.2989807
13484,P,-9.578269
13485,P,-9.578269
13486,P,-73.9851227
13487,P,-73.9851227
13488,P,-159.042694
13489,P,-159.042694
13490,P,-157.982117
13491,P,-157.982117
13492,P,259.308746
13493,P,259.308746
13494,P,-306.718109
13495,P,-306.718109
13496,P,-232.885666
13497,P,-232.885666
13498,P,-232.577118
13499,P,-232.577118
13500,P,-159.889954
13501,P,-159.889954
13502,P,-457.411377
13503,P,-457.411377
13504,P,261.013031
13505,P,261.013031
13506,P,-305.316132
13507,P,-305.316132
13508,P,-32.1276932
13509,P,-32.1276932
13510,P,-160.949051
13511,P,-160.949051
13512,P,-160.609283
13513,P,-160.609283
13514,P,-29.1198921
13515,P,-29.1198921
13516,P,-75.7442398
13517,P,-75.7442398
13518,P,-159.824341
13519,P,-159.824341
13520,P,-75.5398941
13521,P,-75.5398941
13522,P,-160.212631
13523,P,-160.212631
13524,P,267.748474
13525,P,267.748474
13526,P,-298.516693
13527,P,-298.516693
13528,P,-226.31601
13529,P,-226.31601
13530,P,-227.916748
13531,P,-227.916748
13532,P,-158.410309
13533,P,-158.410309
13534,P,-456.218811
13535,P,-456.218811
13536,P,264.676544
13537,P,264.676544
13538,P,-304.191437
13539,P,-304.191437
13540,P,102.66552
13541,P,102.66552
13542,P,-69.7666092
13543,P,-69.7666092
13544,P,-154.120056
13545,P,-154.120056
13546,P,-152.364914
13547,P,-152.364914
13548,P,152.83905
13549,P,152.83905
13550,P,-149.032394
13551,P,-149.032394
13552,P,-150.578644
13553,P,-150.578644
13554,P,162.371185
13555,P,162.371185
13556,P,-273.162903
13557,P,-273.162903
13558,P,-209.565414
13559,P,-209.565414
13560,P,-211.122726
13561,P,-211.122726
13562,P,-185.279221
13563,P,-185.279221
13564,P,-422.19931
13565,P,-422.19931
13566,P,167.113266
13567,P,167.113266
13568,P,-281.157166
13569,P,-281.157166
13570,P,276.153259
13571,P,276.153259
13572,P,-63.4379539
13573,P,-63.4379539
13574,P,-142.925018
13575,P,-142.925018
13576,P,-62.6657219
13577,P,-62.6657219
13578,P,-144.08107
13579,P,-144.08107
13580,P,251.405716
13581,P,251.405716
13582,P,-64.6771469
13583,P,-64.6771469
13584,P,-147.283539
13585,P,-147.283539
13586,P,-145.584106
13587,P,-145.584106
13588,P,245.462692
13589,P,245.462692
13590,P,-295.511536
13591,P,-295.511536
13592,P,-224.299896
13593,P,-224.299896
13594,P,-222.056335
13595,P,-222.056335
13596,P,-174.481033
13597,P,-174.481033
13598,P,-427.852112
13599,P,-427.852112
13600,P,226.923477
13601,P,226.923477
13602,P,-284.816254
13603,P,-284.816254
13604,P,282.806885
13605,P,282.806885
13606,P,-57.6308556
13607,P,-57.6308556
13608,P,-137.601669
13609,P,-137.601669
13610,P,-137.352676
13611,P,-137.352676
13612,P,-57.9278336
13613,P,-57.9278336
13614,P,278.766296
13615,P,278.766296
13616,P,-57.5418625
13617,P,-57.5418625
13618,P,-137.469162
13619,P,-137.469162
13620,P,-137.313293
13621,P,-137.313293
13622,P,170.280869
13623,P,170.280869
13624,P,-268.936707
13625,P,-268.936707
13626,P,-204.057785
13627,P,-204.057785
13628,P,-203.922028
13629,P,-203.922028
13630,P,-152.928955
13631,P,-152.928955
13632,P,-408.749054
13633,P,-408.749054
13634,P,171.18811
13635,P,171.18811
13636,P,-268.203369
13637,P,-268.203369
13638,P,264.293976
13639,P,264.293976
13640,P,-137.553772
13641,P,-137.553772
13642,P,-137.448349
13643,P,-137.448349
13644,P,268.655365
13645,P,268.655365
13646,P,-57.5001717
13647,P,-57.5001717
13648,P,-137.497894
13649,P,-137.497894
13650,P,-57.7034302
13651,P,-57.7034302
13652,P,-137.402298
13653,P,-137.402298
13654,P,172.831741
13655,P,172.831741
13656,P,-267.41098
13657,P,-267.41098
13658,P,-203.654221
13659,P,-203.654221
13660,P,-203.503448
13661,P,-203.503448
13662,P,-163.831482
13663,P,-163.831482
13664,P,-408.241455
13665,P,-408.241455
13666,P,172.594193
13667,P,172.594193
13668,P,-267.934265
13669,P,-267.934265
13670,P,292.010315
13671,P,292.010315
13672,P,-58.0273552
13673,P,-58.0273552
13674,P,-137.726471
13675,P,-137.726471
13676,P,-137.816254
13677,P,-137.816254
13678,P,295.323029
13679,P,295.323029
13680,P,-138.647247
13681,P,-138.647247
13682,P,-138.124039
13683,P,-138.124039
13684,P,160.958633
13685,P,160.958633
13686,P,-271.266174
13687,P,-271.266174
13688,P,-208.008728
13689,P,-208.008728
13690,P,-206.768204
13691,P,-206.768204
13692,P,-182.79097
13693,P,-182.79097
13694,P,-406.776123
13695,P,-406.776123
13696,P,164.468628
13697,P,164.468628
13698,P,-268.448425
13699,P,-268.448425
13700,P,298.561005
13701,P,298.561005
13702,P,-60.7057838
13703,P,-60.7057838
13704,P,-141.661346
13705,P,-141.661346
13706,P,-61.6706161
13707,P,-61.6706161
13708,P,-140.538559
13709,P,-140.538559
13710,P,300.614014
13711,P,300.614014
13712,P,-59.9026299
13713,P,-59.9026299
13714,P,-139.203079
13715,P,-139.203079
13716,P,-139.685883
13717,P,-139.685883
13718,P,172.687134
13719,P,172.687134
13720,P,-267.319519
13721,P,-267.319519
13722,P,-203.763107
13723,P,-203.763107
13724,P,-203.893845
13725,P,-203.893845
13726,P,-180.102768
13727,P,-180.102768
13728,P,-406.648407
13729,P,-406.648407
13730,P,171.229172
13731,P,171.229172
13732,P,-267.914856
13733,P,-267.914856
13734,P,431.315186
13735,P,431.315186
13736,P,-42.9106636
13737,P,-42.9106636
13738,P,-121.596535
13739,P,-121.596535
13740,P,-120.764549
13741,P,-120.764549
13742,P,-43.7174339
13743,P,-43.7174339
13744,P,425.721954
13745,P,425.721954
13746,P,-42.0412445
13747,P,-42.0412445
13748,P,-119.310974
13749,P,-119.310974
13750,P,-120.017746
13751,P,-120.017746
13752,P,198.556747
13753,P,198.556747
13754,P,-236.099731
13755,P,-236.099731
13756,P,-177.914246
13757,P,-177.914246
13758,P,-179.235367
13759,P,-179.235367
13760,P,100.384422
13761,P,100.384422
13762,P,-380.491638
13763,P,-380.491638
13764,P,210.678711
13765,P,210.678711
13766,P,-240.74501
13767,P,-240.74501
13768,P,362.398712
13769,P,362.398712
13770,P,-115.108414
13771,P,-115.108414
13772,P,-116.249001
13773,P,-116.249001
13774,P,381.931183
13775,P,381.931183
13776,P,-39.3948479
13777,P,-39.3948479
13778,P,-118.4394
13779,P,-118.4394
13780,P,-40.4736061
13781,P,-40.4736061
13782,P,-117.294571
13783,P,-117.294571
13784,P,198.439331
13785,P,198.439331
13786,P,-244.190811
13787,P,-244.190811
13788,P,-184.855499
13789,P,-184.855499
13790,P,-184.04686
13791,P,-184.04686
13792,P,94.2306671
13793,P,94.2306671
13794,P,-381.434784
13795,P,-381.434784
13796,P,216.411865
13797,P,216.411865
13798,P,-241.882736
13799,P,-241.882736
13800,P,232.236435
13801,P,232.236435
13802,P,-44.7412834
13803,P,-44.7412834
13804,P,-122.193573
13805,P,-122.193573
13806,P,-122.726768
13807,P,-122.726768
13808,P,230.882553
13809,P,230.882553
13810,P,-124.064468
13811,P,-124.064468
13812,P,-123.326904
13813,P,-123.326904
13814,P,111.809174
13815,P,111.809174
13816,P,-250.330841
13817,P,-250.330841
13818,P,-190.942978
13819,P,-190.942978
13820,P,-189.759888
13821,P,-189.759888
13822,P,14.2997255
13823,P,14.2997255
13824,P,-383.769806
13825,P,-383.769806
13826,P,106.710411
13827,P,106.710411
13828,P,-247.172165
13829,P,-247.172165
13830,P,246.784973
13831,P,246.784973
13832,P,-48.1076927
13833,P,-48.1076927
13834,P,-127.164566
13835,P,-127.164566
13836,P,-48.9901848
13837,P,-48.9901848
13838,P,-126.125397
13839,P,-126.125397
13840,P,242.137955
13841,P,242.137955
13842,P,-47.2804756
13843,P,-47.2804756
13844,P,-124.733498
13845,P,-124.733498
13846,P,-125.308342
13847,P,-125.308342
13848,P,108.486313
13849,P,108.486313
13850,P,-244.714844
13851,P,-244.714844
13852,P,-185.485596
13853,P,-185.485596
13854,P,-186.083603
13855,P,-186.083603
13856,P,29.6084137
13857,P,29.6084137
13858,P,-383.430389
13859,P,-383.430389
13860,P,103.870094
13861,P,103.870094
13862,P,-246.421326
13863,P,-246.421326
13864,P,207.313461
13865,P,207.313461
13866,P,80.314476
13867,P,80.314476
13868,P,-0.881412148
13869,P,-0.881412148
13870,P,15.7516203
13871,P,15.7516203
13872,P,67.6683884
13873,P,67.6683884
13874,P,226.449387
13875,P,226.449387
13876,P,89.4483185
13877,P,89.4483185
13878,P,70.1734314
13879,P,70.1734314
13880,P,37.5939636
13881,P,37.5939636
13882,P,368.877319
13883,P,368.877319
13884,P,-9.78940105
13885,P,-9.78940105
13886,P,128.084778
13887,P,128.084778
13888,P,95.8403244
13889,P,95.8403244
13890,P,28.8382378
13891,P,28.8382378
13892,P,-247.396454
13893,P,-247.396454
13894,P,358.351898
13895,P,358.351898
13896,P,-91.0847931
13897,P,-91.0847931
13898,P,306.68457
13899,P,306.68457
13900,P,-156.393921
13901,P,-156.393921
13902,P,-66.4856262
13903,P,-66.4856262
13904,P,-48.9486847
13905,P,-48.9486847
13906,P,12.9652872
13907,P,12.9652872
13908,P,-267.753021
13909,P,-267.753021
13910,P,325.856445
13911,P,325.856445
13912,P,-109.068634
13913,P,-109.068634
13914,P,326.891968
13915,P,326.891968
13916,P,-14.1364861
13917,P,-14.1364861
13918,P,56.0298424
13919,P,56.0298424
13920,P,-26.4021664
13921,P,-26.4021664
13922,P,326.80368
13923,P,326.80368
13924,P,36.6792374
13925,P,36.6792374
13926,P,-46.5778656
13927,P,-46.5778656
13928,P,27.4854736
13929,P,27.4854736
13930,P,-36.3556366
13931,P,-36.3556366
13932,P,165.213577
13933,P,165.213577
13934,P,-206.4151
13935,P,-206.4151
13936,P,-138.27153
13937,P,-138.27153
13938,P,-132.605408
13939,P,-132.605408
13940,P,235.482193
13941,P,235.482193
13942,P,-340.926147
13943,P,-340.926147
13944,P,168.235764
13945,P,168.235764
13946,P,-193.936417
13947,P,-193.936417
13948,P,299.00116
13949,P,299.00116
13950,P,6.70583248
13951,P,6.70583248
13952,P,-74.4358978
13953,P,-74.4358978
13954,P,-68.2741776
13955,P,-68.2741776
13956,P,313.90976
13957,P,313.90976
13958,P,-54.3538704
13959,P,-54.3538704
13960,P,20.0608406
13961,P,20.0608406
13962,P,-61.9837112
13963,P,-61.9837112
13964,P,177.836914
13965,P,177.836914
13966,P,-167.004822
13967,P,-167.004822
13968,P,-80.3678665
13969,P,-80.3678665
13970,P,-92.6982574
13971,P,-92.6982574
13972,P,271.533264
13973,P,271.533264
13974,P,-337.31189
13975,P,-337.31189
13976,P,178.027573
13977,P,178.027573
13978,P,-189.108322
13979,P,-189.108322
13980,P,-119.856041
13981,P,-119.856041
13982,P,280.509369
13983,P,280.509369
13984,P,-138.015991
13985,P,-138.015991
13986,P,125.571213
13987,P,125.571213
13988,P,40.3473663
13989,P,40.3473663
13990,P,168.944244
13991,P,168.944244
13992,P,274.134369
13993,P,274.134369
13994,P,200.141815
13995,P,200.141815
13996,P,374.190338
13997,P,374.190338
13998,P,25.582489
13999,P,25.582489
14000,P,251.832138
14001,P,251.832138
14002,P,261.376556
14003,P,261.376556
14004,P,84.8914795
14005,P,84.8914795
14006,P,515.917114
14007,P,515.917114
14008,P,515.917114
14009,P,18.1295624
14010,P,18.1295624
14011,P,140.980545
14012,P,140.980545
14013,P,479.468475
14014,P,479.468475
14015,P,175.209488
14016,P,175.209488
14017,P,130.038315
14018,P,130.038315
14019,P,-18.1320591
14020,P,-18.1320591
14021,P,469.617523
14022,P,469.617523
14023,P,174.514038
14024,P,174.514038
14025,P,220.876205
14026,P,220.876205
14027,P,297.593048
14028,P,297.593048
14029,P,201.444214
14030,P,201.444214
14031,P,258.543091
14032,P,258.543091
14033,P,249.62645
14034,P,249.62645
14035,P,396.625122
14036,P,396.625122
14037,P,334.32843
14038,P,334.32843
14039,P,535.633667
14040,P,535.633667
14041,P,430.810211
14042,P,430.810211
14043,P,1134.41687
14044,P,1134.41687
14045,P,1134.41687
14046,P,455.439117
14047,P,455.439117
14048,P,779.118835
14049,P,779.118835
14050,P,571.825867
14051,P,571.825867
14052,P,-361.559998
14053,P,-361.559998
14054,P,22.3700485
14055,P,22.3700485
14056,P,975.582153
14057,P,975.582153
14058,P,58.907711
14059,P,58.907711
14060,P,985.956116
14061,P,985.956116
14062,P,-256.604126
14063,P,-256.604126
14064,P,132.421722
14065,P,132.421722
14066,P,949.84436
14067,P,949.84436
14068,P,101.519516
14069,P,101.519516
14070,P,968.338135
14071,P,968.338135
14072,P,-277.76532
14073,P,-277.76532
14074,P,31.4554749
14075,P,31.4554749
14076,P,293.419739
14077,P,293.419739
14078,P,467.575012
14079,P,467.575012
14080,P,-25.7499504
14081,P,-25.7499504
14082,P,357.050751
14083,P,357.050751
14084,P,665.984192
14085,P,665.984192
14086,P,-176.930939
14087,P,-176.930939
14088,P,203.910751
14089,P,203.910751
14090,P,884.589539
14091,P,884.589539
14092,P,272.1492
14093,P,272.1492
14094,P,772.039185
14095,P,772.039185
14096,P,344.097412
14097,P,344.097412
14098,P,344.097412
14099,P,-396.323822
14100,P,-396.323822
14101,P,0.0608544871
14102,P,0.0608544871
14103,P,959.707947
14104,P,959.707947
14105,P,-0.726993918
14106,P,-0.726993918
14107,P,911.192078
14108,P,911.192078
14109,P,-314.585907
14110,P,-314.585907
14111,P,-16.5745468
14112,P,-16.5745468
14113,P,118.98542
14114,P,118.98542
14115,P,686.141418
14116,P,686.141418
14117,P,-4.5888896
14118,P,-4.5888896
14119,P,839.346741
14120,P,839.346741
14121,P,310.26532
14122,P,310.26532
14123,P,271.954803
14124,P,271.954803
14125,P,226.331207
14126,P,226.331207
14127,P,221.417053
14128,P,221.417053
14129,P,430.474274
14130,P,430.474274
14131,P,364.847198
14132,P,364.847198
14133,P,409.153656
14134,P,409.153656
14135,P,421.992493
14136,P,421.992493
14137,P,452.206024
14138,P,452.206024
14139,P,428.24054
14140,P,428.24054
14141,P,464.418335
14142,P,464.418335
14143,P,480.528961
14144,P,480.528961
14145,P,-3.53951287
14146,P,-3.53951287
14147,P,-45.6891212
14148,P,-45.6891212
14149,P,155.108109
14150,P,155.108109
14151,P,466.371216
14152,P,466.371216
14153,P,386.579193
14154,P,386.579193
14155,P,413.963257
14156,P,413.963257
14157,P,376.453979
14158,P,376.453979
14159,P,404.787659
14160,P,404.787659
14161,P,284.987091
14162,P,284.987091
14163,P,305.09079
14164,P,305.09079
14165,P,264.594574
14166,P,264.594574
14167,P,236.975708
14168,P,236.975708
14169,P,284.949463
14170,P,284.949463
14171,P,305.161682
14172,P,305.161682
14173,P,264.378448
14174,P,264.378448
14175,P,235.441971
14176,P,235.441971
14177,P,386.289734
14178,P,386.289734
14179,P,413.673798
14180,P,413.673798
14181,P,376.194794
14182,P,376.194794
14183,P,404.581146
14184,P,404.581146
14185,P,-3.626616
14186,P,-3.626616
14187,P,-45.71064
14188,P,-45.71064
14189,P,154.989731
14190,P,154.989731
14191,P,466.219696
14192,P,466.219696
14193,P,452.382629
14194,P,452.382629
14195,P,428.492798
14196,P,428.492798
14197,P,464.563629
14198,P,464.563629
14199,P,480.665558
14200,P,480.665558
14201,P,430.481842
14202,P,430.481842
14203,P,364.781708
14204,P,364.781708
14205,P,409.210999
14206,P,409.210999
14207,P,422.152954
14208,P,422.152954
14209,P,483.893066
14210,P,483.893066
14211,P,273.150909
14212,P,273.150909
14213,P,226.017838
14214,P,226.017838
14215,P,344.866913
14216,P,344.866913
14217,P,301.209869
14218,P,301.209869
14219,P,275.134064
14220,P,275.134064
14221,P,228.235306
14222,P,228.235306
14223,P,229.686066
14224,P,229.686066
14225,P,420.633392
14226,P,420.633392
14227,P,379.853485
14228,P,379.853485
14229,P,411.529419
14230,P,411.529419
14231,P,420.55722
14232,P,420.55722
14233,P,447.104401
14234,P,447.104401
14235,P,433.880402
14236,P,433.880402
14237,P,468.844696
14238,P,468.844696
14239,P,479.353333
14240,P,479.353333
14241,P,-26.5202465
14242,P,-26.5202465
14243,P,-43.0921516
14244,P,-43.0921516
14245,P,249.078491
14246,P,249.078491
14247,P,431.229858
14248,P,431.229858
14249,P,392.243805
14250,P,392.243805
14251,P,407.801147
14252,P,407.801147
14253,P,376.927155
14254,P,376.927155
14255,P,398.563599
14256,P,398.563599
14257,P,277.517944
14258,P,277.517944
14259,P,282.695831
14260,P,282.695831
14261,P,256.703369
14262,P,256.703369
14263,P,244.673737
14264,P,244.673737
14265,P,277.510406
14266,P,277.510406
14267,P,282.758942
14268,P,282.758942
14269,P,256.329712
14270,P,256.329712
14271,P,243.67363
14272,P,243.67363
14273,P,391.960815
14274,P,391.960815
14275,P,407.522949
14276,P,407.522949
14277,P,376.681396
14278,P,376.681396
14279,P,398.356506
14280,P,398.356506
14281,P,-26.5955639
14282,P,-26.5955639
14283,P,-43.1240768
14284,P,-43.1240768
14285,P,248.952057
14286,P,248.952057
14287,P,431.082245
14288,P,431.082245
14289,P,447.290009
14290,P,447.290009
14291,P,434.123474
14292,P,434.123474
14293,P,468.983032
14294,P,468.983032
14295,P,479.485565
14296,P,479.485565
14297,P,420.61618
14298,P,420.61618
14299,P,379.800446
14300,P,379.800446
14301,P,411.595459
14302,P,411.595459
14303,P,420.694672
14304,P,420.694672
14305,P,560.947083
14306,P,560.947083
14307,P,85.5453644
14308,P,85.5453644
14309,P,183.243683
14310,P,183.243683
14311,P,154.243958
14312,P,154.243958
14313,P,147.664139
14314,P,147.664139
14315,P,403.736359
14316,P,403.736359
14317,P,255.689972
14318,P,255.689972
14319,P,237.200928
14320,P,237.200928
14321,P,225.662354
14322,P,225.662354
14323,P,227.192261
14324,P,227.192261
14325,P,476.099854
14326,P,476.099854
14327,P,288.301697
14328,P,288.301697
14329,P,256.45163
14330,P,256.45163
14331,P,951.415283
14332,P,951.415283
14333,P,951.415283
14334,P,413.436096
14335,P,413.436096
14336,P,848.048157
14337,P,848.048157
14338,P,156.813187
14339,P,156.813187
14340,P,171.980743
14341,P,171.980743
14342,P,283.898254
14343,P,283.898254
14344,P,245.745834
14345,P,245.745834
14346,P,113.11441
14347,P,113.11441
14348,P,103.207886
14349,P,103.207886
14350,P,61.7059937
14351,P,61.7059937
14352,P,69.2559738
14353,P,69.2559738
14354,P,6.84952545
14355,P,6.84952545
14356,P,7.34847164
14357,P,7.34847164
14358,P,10.1444817
14359,P,10.1444817
14360,P,9.44355297
14361,P,9.44355297
14362,P,5.33729744
14363,P,5.33729744
14364,P,4.95586395
14365,P,4.95586395
14366,P,3.29688621
14367,P,3.29688621
14368,P,3.71838999
14369,P,3.71838999
14370,P,-2.28171015
14371,P,-2.28171015
14372,P,-2.23093462
14373,P,-2.23093462
14374,P,-2.2264576
14375,P,-2.2264576
14376,P,-2.23435593
14377,P,-2.23435593
14378,P,-2.74159622
14379,P,-2.74159622
14380,P,-2.98792052
14381,P,-2.98792052
14382,P,-4.63314724
14383,P,-4.63314724
14384,P,-4.09530592
14385,P,-4.09530592
14386,P,-13.2531357
14387,P,-13.2531357
14388,P,-13.8908587
14389,P,-13.8908587
14390,P,-15.3728848
14391,P,-15.3728848
14392,P,-15.1480608
14393,P,-15.1480608
14394,P,-10.9422083
14395,P,-10.9422083
14396,P,-10.0588017
14397,P,-10.0588017
14398,P,-6.7108469
14399,P,-6.7108469
14400,P,-7.51359701
14401,P,-7.51359701
14402,P,-1.64340425
14403,P,-1.64340425
14404,P,-1.83493638
14405,P,-1.83493638
14406,P,-2.15655494
14407,P,-2.15655494
14408,P,-2.09402847
14409,P,-2.09402847
14410,P,-0.706611276
14411,P,-0.706611276
14412,P,-0.308720171
14413,P,-0.308720171
14414,P,1.51549232
14415,P,1.51549232
14416,P,1.04688227
14417,P,1.04688227
14418,P,19.0154324
14419,P,19.0154324
14420,P,17.5837536
14421,P,17.5837536
14422,P,12.7431765
14423,P,12.7431765
14424,P,13.7628384
14425,P,13.7628384
14426,P,24.6005459
14427,P,24.6005459
14428,P,26.9371357
14429,P,26.9371357
14430,P,41.7128372
14431,P,41.7128372
14432,P,37.291069
14433,P,37.291069
14434,P,19.612011
14435,P,19.612011
14436,P,18.1502361
14437,P,18.1502361
14438,P,13.2129946
14439,P,13.2129946
14440,P,14.2504082
14441,P,14.2504082
14442,P,25.303751
14443,P,25.303751
14444,P,27.6678371
14445,P,27.6678371
14446,P,42.5270195
14447,P,42.5270195
14448,P,38.0943985
14449,P,38.0943985
14450,P,-1.48672032
14451,P,-1.48672032
14452,P,-1.68456948
14453,P,-1.68456948
14454,P,-2.03717875
14455,P,-2.03717875
14456,P,-1.96856952
14457,P,-1.96856952
14458,P,-0.529214084
14459,P,-0.529214084
14460,P,-0.125563681
14461,P,-0.125563681
14462,P,1.71539521
14463,P,1.71539521
14464,P,1.23966646
14465,P,1.23966646
14466,P,-13.290554
14467,P,-13.290554
14468,P,-13.9224529
14469,P,-13.9224529
14470,P,-15.3889103
14471,P,-15.3889103
14472,P,-15.1705074
14473,P,-15.1705074
14474,P,-10.9817314
14475,P,-10.9817314
14476,P,-10.0956039
14477,P,-10.0956039
14478,P,-6.72313595
14479,P,-6.72313595
14480,P,-7.5313077
14481,P,-7.5313077
14482,P,-2.35873795
14483,P,-2.35873795
14484,P,-2.31401253
14485,P,-2.31401253
14486,P,-2.33903265
14487,P,-2.33903265
14488,P,-2.34128404
14489,P,-2.34128404
14490,P,-2.79662704
14491,P,-2.79662704
14492,P,-3.03496647
14493,P,-3.03496647
14494,P,-4.64388657
14495,P,-4.64388657
14496,P,-4.11284161
14497,P,-4.11284161
14498,P,6.5368433
14499,P,6.5368433
14500,P,7.01575232
14501,P,7.01575232
14502,P,9.72906494
14503,P,9.72906494
14504,P,9.04704285
14505,P,9.04704285
14506,P,5.06821108
14507,P,5.06821108
14508,P,4.69758368
14509,P,4.69758368
14510,P,3.07317758
14511,P,3.07317758
14512,P,3.49097395
14513,P,3.49097395
14514,P,158.915375
14515,P,158.915375
14516,P,174.405228
14517,P,174.405228
14518,P,113.259972
14519,P,113.259972
14520,P,102.973656
14521,P,102.973656
14522,P,60.8906746
14523,P,60.8906746
14524,P,68.521019
14525,P,68.521019
14526,P,451.42746
14527,P,451.42746
14528,P,564.922424
14529,P,564.922424
14530,P,882.485962
14531,P,882.485962
14532,P,696.71344
14533,P,696.71344
14534,P,696.71344
14535,P,826.215088
14536,P,826.215088
14537,P,925.884155
14538,P,925.884155
14539,P,745.937073
14540,P,745.937073
14541,P,630.375549
14542,P,630.375549
14543,P,711.527466
14544,P,711.527466
14545,P,583.888123
14546,P,583.888123
14547,P,824.841187
14548,P,824.841187
14549,P,924.409424
14550,P,924.409424
14551,P,751.640381
14552,P,751.640381
14553,P,636.145386
14554,P,636.145386
14555,P,721.386475
14556,P,721.386475
14557,P,587.309326
14558,P,587.309326
14559,P,966.481934
14560,P,966.481934
14561,P,698.703064
14562,P,698.703064
14563,P,514.298218
14564,P,514.298218
14565,P,367.814606
14566,P,367.814606
14567,P,969.671326
14568,P,969.671326
14569,P,699.688782
14570,P,699.688782
14571,P,514.792114
14572,P,514.792114
14573,P,368.905853
14574,P,368.905853
14575,P,522.678589
14576,P,522.678589
14577,P,336.116913
14578,P,336.116913
14579,P,421.450073
14580,P,421.450073
14581,P,255.109283
14582,P,255.109283
14583,P,255.109283
14584,P,595.704102
14585,P,595.704102
14586,P,514.865845
14587,P,514.865845
14588,P,990.534546
14589,P,990.534546
14590,P,1120.91968
14591,P,1120.91968
14592,P,870.019653
14593,P,870.019653
14594,P,345.875732
14595,P,345.875732
14596,P,599.98822
14597,P,599.98822
14598,P,398.662598
14599,P,398.662598
14600,P,267.331879
14601,P,267.331879
14602,P,581.777405
14603,P,581.777405
14604,P,380.929657
14605,P,380.929657
14606,P,1018.71497
14607,P,1018.71497
14608,P,732.662292
14609,P,732.662292
14610,P,372.912476
14611,P,372.912476
14612,P,373.610046
14613,P,373.610046
14614,P,537.096558
14615,P,537.096558
14616,P,537.096558
14617,P,537.096558
14618,P,537.24292
14619,P,537.24292
14620,P,537.24292
14621,P,537.24292
14622,P,-312.710815
14623,P,-312.710815
14624,P,-312.710815
14625,P,-312.725922
14626,P,-312.725922
14627,P,-312.725922
14628,P,879.472717
14629,P,879.472717
14630,P,584.715393
14631,P,584.715393
14632,P,546.307739
14633,P,546.307739
14634,P,882.427307
14635,P,882.427307
14636,P,584.960632
14637,P,584.960632
14638,P,548.402161
14639,P,548.402161
14640,P,-120.945709
14641,P,-120.945709
14642,P,-120.945709
14643,P,-120.951904
14644,P,-120.951904
14645,P,-120.951904
14646,P,-687.846008
14647,P,-687.846008
14648,P,-687.857239
14649,P,-687.857239
14650,P,-687.857239
14651,P,792.973083
14652,P,792.973083
14653,P,796.017578
14654,P,796.017578
14655,P,-179.246796
14656,P,-179.246796
14657,P,-179.246796
14658,P,-78.2177124
14659,P,-78.2177124
14660,P,-78.2177124
14661,P,-179.256882
14662,P,-179.256882
14663,P,-179.256882
14664,P,-78.2176208
14665,P,-78.2176208
14666,P,-78.2176208
*BOUNDARY
MOUNT, 1, 6
*END STEP
