*HEADING
Wing shell from CFD pressure
*NODE
1,0.069739297,-0.00102981995,-0.363629997
2,0.0697698966,-0.00120007002,0.363629997
3,0.0714394003,0.00063206302,-0.0312316995
4,0.0714394003,0.00063206302,0.0312316995
5,0.0717175975,-0.00060670299,-0.3125
6,0.0717175975,-0.00060670299,-0.28125
7,0.0717175975,-0.00060670299,-0.25
8,0.0717175975,-0.00060670299,-0.21875
9,0.0717175975,-0.00060670299,-0.1875
10,0.0717175975,-0.00060670299,-0.15625
11,0.0717175975,-0.00060670299,-0.125
12,0.0717175975,-0.00060670299,-0.09375
13,0.0717175975,-0.00060670299,-0.0625
14,0.0717175975,-0.00060670299,-0
15,0.0717175975,-0.00060670299,0.0625
16,0.0717175975,-0.00060670299,0.09375
17,0.0717175975,-0.00060670299,0.125
18,0.0717175975,-0.00060670299,0.15625
19,0.0717175975,-0.00060670299,0.1875
20,0.071752198,-0.00078132801,0.21875
21,0.071752198,-0.00078132801,0.25
22,0.071752198,-0.00078132801,0.28125
23,0.071752198,-0.00078132801,0.3125
24,0.0726735964,-0.000402225007,-0.342698991
25,0.0727081969,-0.000579395972,0.342698991
26,0.101957001,0.00586085021,-0.368247986
27,0.102007002,0.00560953002,0.368247986
28,0.103049003,-0.00975168031,-0.342988998
29,0.103049003,-0.00975168031,0.342988998
30,0.103165001,-0.0123466002,-0.3125
31,0.103165001,-0.0123466002,-0.28125
32,0.103165001,-0.0123466002,-0.25
33,0.103165001,-0.0123466002,-0.21875
34,0.103165001,-0.0123466002,-0.1875
35,0.103165001,-0.0123466002,-0.15625
36,0.103165001,-0.0123466002,-0.125
37,0.103165001,-0.0123466002,-0.09375
38,0.103165001,-0.0123466002,-0.0625
39,0.103165001,-0.0123466002,-0.03125
40,0.103165001,-0.0123466002,-0
41,0.103165001,-0.0123466002,0.03125
42,0.103165001,-0.0123466002,0.0625
43,0.103165001,-0.0123466002,0.09375
44,0.103165001,-0.0123466002,0.125
45,0.103165001,-0.0123466002,0.15625
46,0.103165001,-0.0123466002,0.1875
47,0.103165001,-0.0123466002,0.21875
48,0.103165001,-0.0123466002,0.25
49,0.103165001,-0.0123466002,0.28125
50,0.103165001,-0.0123466002,0.3125
51,0.110963002,0.0256021991,-0.3125
52,0.110963002,0.0256021991,-0.28125
53,0.110963002,0.0256021991,-0.25
54,0.110963002,0.0256021991,-0.21875
55,0.110963002,0.0256021991,-0.1875
56,0.110963002,0.0256021991,-0.15625
57,0.110963002,0.0256021991,-0.125
58,0.110963002,0.0256021991,-0.09375
59,0.110963002,0.0256021991,-0.0625
60,0.110963002,0.0256021991,-0.03125
61,0.110963002,0.0256021991,0
62,0.110963002,0.0256021991,0.03125
63,0.110963002,0.0256021991,0.0625
64,0.110963002,0.0256021991,0.09375
65,0.110963002,0.0256021991,0.125
66,0.110963002,0.0256021991,0.15625
67,0.110963002,0.0256021991,0.1875
68,0.110963002,0.0256021991,0.21875
69,0.110963002,0.0256021991,0.25
70,0.110963002,0.0256021991,0.28125
71,0.110963002,0.0256021991,0.3125
72,0.111714996,0.0257360991,-0.343582004
73,0.111714996,0.0257360991,0.343582004
74,0.114023998,0.0261439998,-0.373286009
75,0.114023998,0.0261439998,0.373286009
76,0.115680002,0.00879598036,-0.395586014
77,0.115731001,0.00850845966,0.395586014
78,0.117269002,0.0267076995,-0.395969987
79,0.117269002,0.0267076995,0.395969987
80,0.148055002,-0.000943806022,-0.3125
81,0.148055002,-0.000943806022,-0.28125
82,0.148055002,-0.000943806022,-0.25
83,0.148055002,-0.000943806022,-0.21875
84,0.148055002,-0.000943806022,-0.1875
85,0.148055002,-0.000943806022,-0.15625
86,0.148055002,-0.000943806022,-0.125
87,0.148055002,-0.000943806022,-0.09375
88,0.148055002,-0.000943806022,-0.0625
89,0.148055002,-0.000943806022,-0.03125
90,0.148055002,-0.000943806022,-1e-12
91,0.148055002,-0.000943806022,0.03125
92,0.148055002,-0.000943806022,0.0625
93,0.148055002,-0.000943806022,0.09375
94,0.148055002,-0.000943806022,0.125
95,0.148055002,-0.000943806022,0.15625
96,0.148055002,-0.000943806022,0.1875
97,0.148055002,-0.000943806022,0.21875
98,0.148055002,-0.000943806022,0.25
99,0.148055002,-0.000943806022,0.28125
100,0.148055002,-0.000943806022,0.3125
101,0.148203999,-0.000902633008,-0.343531013
102,0.148203999,-0.000902633008,0.343531013
103,0.149703994,-0.000487148995,-0.373362988
104,0.149703994,-0.000487148995,0.373362988
105,0.150305003,0.0162014998,-0.397318989
106,0.150398001,0.0158312991,0.397318989
107,0.153033003,0.032280799,-0.397583008
108,0.153033003,0.032280799,0.397583008
109,0.154369995,0.032469701,-0.373890013
110,0.154369995,0.032469701,0.373890013
111,0.154415995,0.0324762017,-0.34375
112,0.154415995,0.0324762017,-0.3125
113,0.154415995,0.0324762017,-0.28125
114,0.154415995,0.0324762017,-0.25
115,0.154415995,0.0324762017,-0.21875
116,0.154415995,0.0324762017,-0.1875
117,0.154415995,0.0324762017,-0.15625
118,0.154415995,0.0324762017,-0.125
119,0.154415995,0.0324762017,-0.09375
120,0.154415995,0.0324762017,-0.0625
121,0.154415995,0.0324762017,-0.03125
122,0.154415995,0.0324762017,-0
123,0.154415995,0.0324762017,0.03125
124,0.154415995,0.0324762017,0.0625
125,0.154415995,0.0324762017,0.09375
126,0.154415995,0.0324762017,0.125
127,0.154415995,0.0324762017,0.15625
128,0.154415995,0.0324762017,0.1875
129,0.154415995,0.0324762017,0.21875
130,0.154415995,0.0324762017,0.25
131,0.154415995,0.0324762017,0.28125
132,0.154415995,0.0324762017,0.3125
133,0.154415995,0.0324762017,0.34375
134,0.193832994,0.0124773998,-0.3125
135,0.193832994,0.0124773998,-0.28125
136,0.193832994,0.0124773998,-0.25
137,0.193832994,0.0124773998,-0.21875
138,0.193832994,0.0124773998,-0.1875
139,0.193832994,0.0124773998,-0.15625
140,0.193832994,0.0124773998,-0.125
141,0.193832994,0.0124773998,-0.09375
142,0.193832994,0.0124773998,-0.0625
143,0.193832994,0.0124773998,-0.03125
144,0.193832994,0.0124773998,-1e-12
145,0.193832994,0.0124773998,0.03125
146,0.193832994,0.0124773998,0.0625
147,0.193832994,0.0124773998,0.09375
148,0.193832994,0.0124773998,0.125
149,0.193832994,0.0124773998,0.15625
150,0.193832994,0.0124773998,0.1875
151,0.193832994,0.0124773998,0.21875
152,0.193832994,0.0124773998,0.25
153,0.193832994,0.0124773998,0.28125
154,0.193832994,0.0124773998,0.3125
155,0.193832994,0.0124773998,0.34375
156,0.194129005,0.0125685995,0.373890013
157,0.194203004,0.0125911003,-0.343822986
158,0.195350006,0.0129447998,-0.374038011
159,0.197088003,0.0134824002,0.397583008
160,0.198117003,0.0380580015,0.397583008
161,0.198873997,0.0140365995,-0.397776991
162,0.199634999,0.0382339992,0.373890013
163,0.199994996,0.0382754989,-0.3125
164,0.199994996,0.0382754989,-0.28125
165,0.199994996,0.0382754989,-0.25
166,0.199994996,0.0382754989,-0.21875
167,0.199994996,0.0382754989,-0.1875
168,0.199994996,0.0382754989,-0.15625
169,0.199994996,0.0382754989,-0.125
170,0.199994996,0.0382754989,-0.09375
171,0.199994996,0.0382754989,-0.0625
172,0.199994996,0.0382754989,-0.03125
173,0.199994996,0.0382754989,0
174,0.199994996,0.0382754989,0.03125
175,0.199994996,0.0382754989,0.0625
176,0.199994996,0.0382754989,0.09375
177,0.199994996,0.0382754989,0.125
178,0.199994996,0.0382754989,0.15625
179,0.199994996,0.0382754989,0.1875
180,0.199994996,0.0382754989,0.21875
181,0.199994996,0.0382754989,0.25
182,0.199994996,0.0382754989,0.28125
183,0.199994996,0.0382754989,0.3125
184,0.199994996,0.0382754989,0.34375
185,0.200118005,0.0382894985,-0.397776991
186,0.200427994,0.0383251011,-0.343822986
187,0.201060995,0.0383976996,-0.374038011
188,0.230315998,0.0240691993,0.396245003
189,0.231569007,0.0244795997,0.373744011
190,0.231739998,0.0245354995,-0.3125
191,0.231739998,0.0245354995,-0.28125
192,0.231739998,0.0245354995,-0.25
193,0.231739998,0.0245354995,-0.21875
194,0.231739998,0.0245354995,-0.1875
195,0.231739998,0.0245354995,-0.15625
196,0.231739998,0.0245354995,-0.125
197,0.231739998,0.0245354995,-0.09375
198,0.231739998,0.0245354995,-0.0625
199,0.231739998,0.0245354995,-0.03125
200,0.231739998,0.0245354995,0
201,0.231739998,0.0245354995,0.03125
202,0.231739998,0.0245354995,0.0625
203,0.231739998,0.0245354995,0.09375
204,0.231739998,0.0245354995,0.125
205,0.231739998,0.0245354995,0.15625
206,0.231739998,0.0245354995,0.1875
207,0.231739998,0.0245354995,0.21875
208,0.231739998,0.0245354995,0.25
209,0.231739998,0.0245354995,0.28125
210,0.231739998,0.0245354995,0.3125
211,0.231739998,0.0245354995,0.34375
212,0.232855007,0.0249013994,-0.343840003
213,0.234688997,0.0336363986,0.396245003
214,0.235884994,0.0416157991,0.373701006
215,0.236258,0.0421511009,-0.15625
216,0.236258,0.0421511009,-0.125
217,0.236258,0.0421511009,-0.09375
218,0.236258,0.0421511009,-0.0625
219,0.236258,0.0421511009,-0.03125
220,0.236258,0.0421511009,-1e-12
221,0.236258,0.0421511009,0.03125
222,0.236258,0.0421511009,0.0625
223,0.236258,0.0421511009,0.09375
224,0.236258,0.0421511009,0.125
225,0.236258,0.0421511009,0.15625
226,0.236361995,0.0410948992,0.343728006
227,0.236420006,0.0405086018,-0.312489003
228,0.236420006,0.0405086018,0.312489003
229,0.236478001,0.0399222001,-0.28125
230,0.236478001,0.0399222001,0.28125
231,0.236535996,0.0393358991,-0.250010997
232,0.236535996,0.0393358991,0.250010997
233,0.236594006,0.0387496017,-0.218771994
234,0.236594006,0.0387496017,0.218771994
235,0.236652002,0.0381632,-0.187533006
236,0.236652002,0.0381632,0.187533006
237,0.237482995,0.0412073992,-0.343816012
238,0.241611004,0.0277973991,-0.37459901
239,0.242253006,0.0280111004,-0.39785099
240,0.247364998,0.0428121015,-0.374556988
241,0.248001993,0.0370969996,-0.39785099
242,0.281621993,0.0415463001,-0.38251999
243,0.281661004,0.0415600017,-0.397439003
244,0.295161992,0.0135083999,-0.397439003
245,0.295161992,0.0135385999,-0.38499999
*ELEMENT, TYPE=S3, ELSET=ALL_SHELL
1,103,101,157
2,157,158,103
3,136,135,81
4,81,82,136
5,136,82,83
6,83,137,136
7,140,139,85
8,85,86,140
9,140,86,87
10,87,141,140
11,144,143,89
12,89,90,144
13,90,91,145
14,145,144,90
15,148,147,93
16,93,94,148
17,148,94,95
18,95,149,148
19,152,151,97
20,97,98,152
21,152,98,99
22,99,153,152
23,104,156,155
24,155,102,104
25,158,161,105
26,105,103,158
27,136,192,191
28,191,135,136
29,26,74,72
30,26,72,24
31,24,1,26
32,24,72,51
33,51,5,24
34,140,196,195
35,195,139,140
36,53,54,8
37,8,7,53
38,9,8,54
39,54,55,9
40,144,200,199
41,199,143,144
42,12,11,57
43,57,58,12
44,13,12,58
45,58,59,13
46,148,204,203
47,203,147,148
48,4,14,61
49,61,62,4
50,4,62,63
51,63,15,4
52,152,208,207
53,207,151,152
54,18,17,65
55,65,66,18
56,19,18,66
57,66,67,19
58,189,211,155
59,155,156,189
60,22,21,69
61,69,70,22
62,23,22,70
63,70,71,23
64,156,104,106
65,106,159,156
66,101,103,26
67,26,28,101
68,134,157,101
69,101,80,134
70,28,30,80
71,80,101,28
72,32,31,6
73,6,7,32
74,30,5,6
75,6,31,30
76,134,80,81
77,81,135,134
78,32,82,81
79,81,31,32
80,30,31,81
81,81,80,30
82,72,111,112
83,112,51,72
84,52,53,7
85,7,6,52
86,51,52,6
87,6,5,51
88,112,113,52
89,52,51,112
90,32,33,83
91,83,82,32
92,138,137,83
93,83,84,138
94,34,84,83
95,83,33,34
96,36,35,10
97,10,11,36
98,34,9,10
99,10,35,34
100,138,84,85
101,85,139,138
102,36,86,85
103,85,35,36
104,34,35,85
105,85,84,34
106,54,115,116
107,116,55,54
108,116,117,56
109,56,55,116
110,36,37,87
111,87,86,36
112,142,141,87
113,87,88,142
114,38,88,87
115,87,37,38
116,14,40,39
117,39,3,14
118,13,3,39
119,39,38,13
120,142,88,89
121,89,143,142
122,90,89,39
123,39,40,90
124,38,39,89
125,89,88,38
126,58,119,120
127,120,59,58
128,3,60,61
129,61,14,3
130,3,13,59
131,59,60,3
132,120,121,60
133,60,59,120
134,40,41,91
135,91,90,40
136,146,145,91
137,91,92,146
138,42,92,91
139,91,41,42
140,44,43,16
141,16,17,44
142,42,15,16
143,16,43,42
144,146,92,93
145,93,147,146
146,44,94,93
147,93,43,44
148,42,43,93
149,93,92,42
150,62,123,124
151,124,63,62
152,124,125,64
153,64,63,124
154,44,45,95
155,95,94,44
156,150,149,95
157,95,96,150
158,46,96,95
159,95,45,46
160,48,47,20
161,20,21,48
162,20,47,46
163,46,19,20
164,150,96,97
165,97,151,150
166,48,98,97
167,97,47,48
168,46,47,97
169,97,96,46
170,66,127,128
171,128,67,66
172,68,69,21
173,21,20,68
174,19,67,68
175,68,20,19
176,128,129,68
177,68,67,128
178,48,49,99
179,99,98,48
180,154,153,99
181,99,100,154
182,50,100,99
183,99,49,50
184,25,2,27
185,27,29,25
186,25,29,50
187,50,23,25
188,102,155,154
189,154,100,102
190,102,29,27
191,27,104,102
192,29,102,100
193,100,50,29
194,70,131,132
195,132,71,70
196,73,71,132
197,132,133,73
198,161,158,238
199,238,239,161
200,134,135,191
201,191,190,134
202,138,139,195
203,195,194,138
204,142,143,199
205,199,198,142
206,146,147,203
207,203,202,146
208,150,151,207
209,207,206,150
210,154,155,211
211,211,210,154
212,212,238,158
213,158,157,212
214,237,186,187
215,187,240,237
216,240,242,238
217,238,212,240
218,212,237,240
219,242,245,238
220,136,137,193
221,193,192,136
222,231,233,166
223,166,165,231
224,233,231,192
225,192,193,233
226,140,141,197
227,197,196,140
228,170,169,216
229,216,217,170
230,197,217,216
231,216,196,197
232,200,144,145
233,145,201,200
234,173,220,221
235,221,174,173
236,200,201,221
237,221,220,200
238,148,149,205
239,205,204,148
240,178,177,224
241,224,225,178
242,205,225,224
243,224,204,205
244,152,153,209
245,209,208,152
246,230,182,181
247,181,232,230
248,232,208,209
249,209,230,232
250,188,189,156
251,156,159,188
252,162,214,213
253,213,160,162
254,213,214,189
255,189,188,213
256,186,111,109
257,109,187,186
258,114,113,164
259,164,165,114
260,166,115,114
261,114,165,166
262,118,117,168
263,168,169,118
264,170,119,118
265,118,169,170
266,122,121,172
267,172,173,122
268,173,174,123
269,123,122,173
270,126,125,176
271,176,177,126
272,178,127,126
273,126,177,178
274,130,129,180
275,180,181,130
276,182,131,130
277,130,181,182
278,162,110,133
279,133,184,162
280,109,107,185
281,185,187,109
282,24,28,26
283,26,1,24
284,24,5,30
285,30,28,24
286,229,231,165
287,165,164,229
288,231,229,191
289,191,192,231
290,32,7,8
291,8,33,32
292,34,33,8
293,8,9,34
294,168,215,216
295,216,169,168
296,216,215,195
297,195,196,216
298,36,11,12
299,12,37,36
300,38,37,12
301,12,13,38
302,220,173,172
303,172,219,220
304,220,219,199
305,199,200,220
306,14,4,41
307,41,40,14
308,15,42,41
309,41,4,15
310,176,223,224
311,224,177,176
312,224,223,203
313,203,204,224
314,44,17,18
315,18,45,44
316,46,45,18
317,18,19,46
318,232,181,180
319,180,234,232
320,234,207,208
321,208,232,234
322,48,21,22
323,22,49,48
324,50,49,22
325,22,23,50
326,214,162,184
327,184,226,214
328,226,211,189
329,189,214,226
330,160,108,110
331,110,162,160
332,74,109,111
333,111,72,74
334,163,112,111
335,111,186,163
336,112,163,164
337,164,113,112
338,114,53,52
339,52,113,114
340,11,10,56
341,56,57,11
342,10,9,55
343,55,56,10
344,54,53,114
345,114,115,54
346,116,115,166
347,166,167,116
348,116,167,168
349,168,117,116
350,118,57,56
351,56,117,118
352,58,57,118
353,118,119,58
354,120,119,170
355,170,171,120
356,120,171,172
357,172,121,120
358,122,61,60
359,60,121,122
360,17,16,64
361,64,65,17
362,16,15,63
363,63,64,16
364,61,122,123
365,123,62,61
366,124,123,174
367,174,175,124
368,124,175,176
369,176,125,124
370,126,65,64
371,64,125,126
372,66,65,126
373,126,127,66
374,128,127,178
375,178,179,128
376,128,179,180
377,180,129,128
378,130,69,68
379,68,129,130
380,27,2,25
381,27,25,73
382,73,75,27
383,25,23,71
384,71,73,25
385,70,69,130
386,130,131,70
387,132,131,182
388,182,183,132
389,132,183,184
390,184,133,132
391,75,73,133
392,133,110,75
393,187,185,241
394,241,240,187
395,227,163,186
396,186,237,227
397,227,237,212
398,212,190,227
399,190,212,157
400,157,134,190
401,233,235,167
402,167,166,233
403,235,233,193
404,193,194,235
405,138,194,193
406,193,137,138
407,170,217,218
408,218,171,170
409,218,217,197
410,197,198,218
411,142,198,197
412,197,141,142
413,174,221,222
414,222,175,174
415,222,221,201
416,201,202,222
417,146,202,201
418,201,145,146
419,179,178,225
420,225,236,179
421,236,225,205
422,205,206,236
423,150,206,205
424,205,149,150
425,228,183,182
426,182,230,228
427,230,209,210
428,210,228,230
429,154,210,209
430,209,153,154
431,78,107,109
432,109,74,78
433,76,26,103
434,103,105,76
435,74,26,76
436,76,78,74
437,227,229,164
438,164,163,227
439,229,227,190
440,190,191,229
441,167,235,215
442,215,168,167
443,235,194,195
444,195,215,235
445,172,171,218
446,218,219,172
447,218,198,199
448,199,219,218
449,176,175,222
450,222,223,176
451,222,202,203
452,203,223,222
453,234,180,179
454,179,236,234
455,236,206,207
456,207,234,236
457,226,184,183
458,183,228,226
459,228,210,211
460,211,226,228
461,79,75,110
462,110,108,79
463,75,79,77
464,77,27,75
465,77,106,104
466,104,27,77
467,242,240,241
468,241,243,242
469,245,242,243
470,243,244,245
471,188,159,160
472,160,213,188
473,107,105,161
474,161,185,107
475,108,160,159
476,159,106,108
477,239,241,185
478,185,161,239
479,105,107,78
480,78,76,105
481,106,77,79
482,79,108,106
483,241,239,244
484,244,243,241
485,245,244,239
486,239,238,245
*MATERIAL, NAME=CFRP
*ELASTIC
7e+10,0.3
*DENSITY
1600
*SHELL SECTION, ELSET=ALL_SHELL, MATERIAL=CFRP
0.0025
*NSET, NSET=ALLNODES, GENERATE
1,245,1
*NSET, NSET=MOUNT
1,2,3,4,5,6,7,8,9,10,11,12,13,14,15,16
17,18,19,20,21,22,23
*STEP
*STATIC
*NODE PRINT, NSET=ALLNODES
U
*EL PRINT, ELSET=ALL_SHELL
S
*NODE FILE, NSET=ALLNODES
U
*EL FILE, ELSET=ALL_SHELL
S
*DLOAD
1,P,1093.6123
2,P,1093.6123
3,P,1321.73669
4,P,1321.73669
5,P,1394.72778
6,P,1394.72778
7,P,1536.3623
8,P,1536.3623
9,P,1576.35583
10,P,1576.35583
11,P,1656.3075
12,P,1656.3075
13,P,1677.70764
14,P,1677.70764
15,P,1683.92773
16,P,1683.92773
17,P,1684.20691
18,P,1684.20691
19,P,1609.05554
20,P,1609.05554
21,P,1559.45374
22,P,1559.45374
23,P,1320.9115
24,P,1320.9115
25,P,784.25061
26,P,784.25061
27,P,612.270386
28,P,612.270386
29,P,-1035.90527
30,P,-1035.90527
31,P,-1035.90527
32,P,-1281.25183
33,P,-1281.25183
34,P,715.36084
35,P,715.36084
36,P,-1460.93274
37,P,-1460.93274
38,P,-1482.66858
39,P,-1482.66858
40,P,776.639465
41,P,776.639465
42,P,-1563.27002
43,P,-1563.27002
44,P,-1576.01892
45,P,-1576.01892
46,P,781.412048
47,P,781.412048
48,P,-1640.02905
49,P,-1640.02905
50,P,-1654.80371
51,P,-1654.80371
52,P,719.783936
53,P,719.783936
54,P,-1725.63062
55,P,-1725.63062
56,P,-1739.20251
57,P,-1739.20251
58,P,724.854004
59,P,724.854004
60,P,-1781.01855
61,P,-1781.01855
62,P,-1763.98865
63,P,-1763.98865
64,P,949.283142
65,P,949.283142
66,P,923.201843
67,P,923.201843
68,P,1191.52136
69,P,1191.52136
70,P,1403.29944
71,P,1403.29944
72,P,335.002655
73,P,335.002655
74,P,297.56897
75,P,297.56897
76,P,1252.14099
77,P,1252.14099
78,P,1795.14197
79,P,1795.14197
80,P,1662.66003
81,P,1662.66003
82,P,-36.5382042
83,P,-36.5382042
84,P,-1405.80823
85,P,-1405.80823
86,P,-1360.75232
87,P,-1360.75232
88,P,-37.6016006
89,P,-37.6016006
90,P,1900.80688
91,P,1900.80688
92,P,1450.66626
93,P,1450.66626
94,P,1974.9563
95,P,1974.9563
96,P,447.319305
97,P,447.319305
98,P,425.669495
99,P,425.669495
100,P,1497.37781
101,P,1497.37781
102,P,2081.84155
103,P,2081.84155
104,P,2032.75134
105,P,2032.75134
106,P,-83.6147614
107,P,-83.6147614
108,P,-103.194305
109,P,-103.194305
110,P,2134.47632
111,P,2134.47632
112,P,1608.8938
113,P,1608.8938
114,P,2175.52051
115,P,2175.52051
116,P,456.903076
117,P,456.903076
118,P,452.078796
119,P,452.078796
120,P,1634.66174
121,P,1634.66174
122,P,2234.31104
123,P,2234.31104
124,P,2204.88525
125,P,2204.88525
126,P,-148.84964
127,P,-148.84964
128,P,-1598.99268
129,P,-1598.99268
130,P,-1584.74109
131,P,-1584.74109
132,P,-160.247467
133,P,-160.247467
134,P,2265.35571
135,P,2265.35571
136,P,1685.52429
137,P,1685.52429
138,P,2277.33691
139,P,2277.33691
140,P,477.697327
141,P,477.697327
142,P,479.673096
143,P,479.673096
144,P,1687.82581
145,P,1687.82581
146,P,2279.75684
147,P,2279.75684
148,P,2281.90698
149,P,2281.90698
150,P,-169.170105
151,P,-169.170105
152,P,-165.250244
153,P,-165.250244
154,P,2284.40283
155,P,2284.40283
156,P,1669.94556
157,P,1669.94556
158,P,2269.09351
159,P,2269.09351
160,P,400.852997
161,P,400.852997
162,P,425.748749
163,P,425.748749
164,P,1644.96692
165,P,1644.96692
166,P,2191.57544
167,P,2191.57544
168,P,2236.32788
169,P,2236.32788
170,P,-130.439224
171,P,-130.439224
172,P,-1752.92212
173,P,-1752.92212
174,P,-1748.97998
175,P,-1748.97998
176,P,-114.002335
177,P,-114.002335
178,P,2127.32544
179,P,2127.32544
180,P,1492.62866
181,P,1492.62866
182,P,1999.42432
183,P,1999.42432
184,P,432.986145
185,P,432.986145
186,P,303.018768
187,P,303.018768
188,P,1429.36548
189,P,1429.36548
190,P,1124.81567
191,P,1124.81567
192,P,1700.49329
193,P,1700.49329
194,P,-68.1328125
195,P,-68.1328125
196,P,-71.9793472
197,P,-71.9793472
198,P,609.580505
199,P,609.580505
200,P,591.713074
201,P,591.713074
202,P,692.72168
203,P,692.72168
204,P,766.655884
205,P,766.655884
206,P,787.368164
207,P,787.368164
208,P,741.261841
209,P,741.261841
210,P,672.622314
211,P,672.622314
212,P,640.77533
213,P,640.77533
214,P,161.338303
215,P,161.338303
216,P,795.678589
217,P,795.678589
218,P,795.678589
219,P,795.678589
220,P,640.142151
221,P,640.142151
222,P,177.455383
223,P,177.455383
224,P,457.375977
225,P,457.375977
226,P,735.987122
227,P,735.987122
228,P,74.7771683
229,P,74.7771683
230,P,538.090332
231,P,538.090332
232,P,784.98291
233,P,784.98291
234,P,58.7449341
235,P,58.7449341
236,P,562.235168
237,P,562.235168
238,P,775.161438
239,P,775.161438
240,P,86.634903
241,P,86.634903
242,P,552.767456
243,P,552.767456
244,P,695.22467
245,P,695.22467
246,P,182.31337
247,P,182.31337
248,P,524.201111
249,P,524.201111
250,P,707.912048
251,P,707.912048
252,P,218.896652
253,P,218.896652
254,P,670.808472
255,P,670.808472
256,P,56.4559097
257,P,56.4559097
258,P,69.5488815
259,P,69.5488815
260,P,63.3748093
261,P,63.3748093
262,P,16.7910709
263,P,16.7910709
264,P,1.80401444
265,P,1.80401444
266,P,-20.2444649
267,P,-20.2444649
268,P,-22.2667732
269,P,-22.2667732
270,P,-6.38242626
271,P,-6.38242626
272,P,5.93016195
273,P,5.93016195
274,P,57.0753975
275,P,57.0753975
276,P,62.33395
277,P,62.33395
278,P,49.2779694
279,P,49.2779694
280,P,37.0564651
281,P,37.0564651
282,P,378.723236
283,P,378.723236
284,P,284.469788
285,P,284.469788
286,P,170.896103
287,P,170.896103
288,P,468.193176
289,P,468.193176
290,P,364.834167
291,P,364.834167
292,P,397.180176
293,P,397.180176
294,P,90.8621216
295,P,90.8621216
296,P,521.646545
297,P,521.646545
298,P,454.781769
299,P,454.781769
300,P,466.082245
301,P,466.082245
302,P,59.4765778
303,P,59.4765778
304,P,553.903931
305,P,553.903931
306,P,451.926819
307,P,451.926819
308,P,455.312897
309,P,455.312897
310,P,70.7273712
311,P,70.7273712
312,P,555.708984
313,P,555.708984
314,P,459.738678
315,P,459.738678
316,P,445.155762
317,P,445.155762
318,P,186.772827
319,P,186.772827
320,P,497.422577
321,P,497.422577
322,P,352.177124
323,P,352.177124
324,P,311.134308
325,P,311.134308
326,P,190.744247
327,P,190.744247
328,P,707.123108
329,P,707.123108
330,P,23.4896927
331,P,23.4896927
332,P,-56.9297142
333,P,-56.9297142
334,P,67.5764999
335,P,67.5764999
336,P,70.2507553
337,P,70.2507553
338,P,-48.4906425
339,P,-48.4906425
340,P,-1519.32458
341,P,-1519.32458
342,P,-1500.19324
343,P,-1500.19324
344,P,-65.2668839
345,P,-65.2668839
346,P,53.0166855
347,P,53.0166855
348,P,35.1587601
349,P,35.1587601
350,P,-120.072784
351,P,-120.072784
352,P,-136.369308
353,P,-136.369308
354,P,-8.15232563
355,P,-8.15232563
356,P,-16.6081371
357,P,-16.6081371
358,P,-166.160995
359,P,-166.160995
360,P,-1685.03809
361,P,-1685.03809
362,P,-1672.2229
363,P,-1672.2229
364,P,-170.029922
365,P,-170.029922
366,P,-20.2054653
367,P,-20.2054653
368,P,-15.4940386
369,P,-15.4940386
370,P,-157.050491
371,P,-157.050491
372,P,-146.792038
373,P,-146.792038
374,P,26.9161644
375,P,26.9161644
376,P,44.7125511
377,P,44.7125511
378,P,-95.5093994
379,P,-95.5093994
380,P,-1390.40894
381,P,-1390.40894
382,P,-1390.40894
383,P,-1687.21594
384,P,-1687.21594
385,P,-81.0948715
386,P,-81.0948715
387,P,65.3437653
388,P,65.3437653
389,P,61.5550117
390,P,61.5550117
391,P,-103.426888
392,P,-103.426888
393,P,146.875977
394,P,146.875977
395,P,159.435287
396,P,159.435287
397,P,545.449768
398,P,545.449768
399,P,594.074463
400,P,594.074463
401,P,176.705734
402,P,176.705734
403,P,461.057343
404,P,461.057343
405,P,665.835876
406,P,665.835876
407,P,66.7690048
408,P,66.7690048
409,P,546.226135
410,P,546.226135
411,P,753.044922
412,P,753.044922
413,P,59.9592171
414,P,59.9592171
415,P,562.929199
416,P,562.929199
417,P,786.99408
418,P,786.99408
419,P,142.438232
420,P,142.438232
421,P,525.269958
422,P,525.269958
423,P,760.132202
424,P,760.132202
425,P,179.096115
426,P,179.096115
427,P,561.885132
428,P,561.885132
429,P,671.199036
430,P,671.199036
431,P,-68.1642456
432,P,-68.1642456
433,P,661.211243
434,P,661.211243
435,P,-445.388977
436,P,-445.388977
437,P,164.187943
438,P,164.187943
439,P,499.164673
440,P,499.164673
441,P,139.079575
442,P,139.079575
443,P,493.662842
444,P,493.662842
445,P,61.3434029
446,P,61.3434029
447,P,550.411804
448,P,550.411804
449,P,62.7746353
450,P,62.7746353
451,P,561.088379
452,P,561.088379
453,P,184.374969
454,P,184.374969
455,P,496.057526
456,P,496.057526
457,P,179.527939
458,P,179.527939
459,P,626.37207
460,P,626.37207
461,P,-129.442078
462,P,-129.442078
463,P,-658.015808
464,P,-658.015808
465,P,800.836914
466,P,800.836914
467,P,118.795021
468,P,118.795021
469,P,363.449066
470,P,363.449066
471,P,360.704926
472,P,360.704926
473,P,340.023712
474,P,340.023712
475,P,419.924225
476,P,419.924225
477,P,277.383698
478,P,277.383698
479,P,221.777771
480,P,221.777771
481,P,255.12587
482,P,255.12587
483,P,149.517105
484,P,149.517105
485,P,33.3421288
486,P,33.3421288
*BOUNDARY
MOUNT, 1, 6
*END STEP
