*HEADING
Wing shell from CFD pressure
*NODE
1,0.070525996,-0.000146786,-0.362361014
2,0.070534497,-0.000321712,0.362361014
3,0.0751926,0.000103703,-0.341966987
4,0.075202398,-8.3005e-05,0.341966987
5,0.075367004,0.000113065,-0.3125
6,0.075367004,0.000113065,-0.28125
7,0.075367004,0.000113065,-0.25
8,0.075367004,0.000113065,-0.21875
9,0.075372703,1.0962e-05,-4.89e-07
10,0.075376801,-7.4084e-05,-0.1875
11,0.075376801,-7.4084e-05,-0.15625
12,0.075376801,-7.4084e-05,-0.125
13,0.075376801,-7.4084e-05,-0.09375
14,0.075376801,-7.4084e-05,-0.0625
15,0.075376801,-7.4084e-05,-0.03125
16,0.075376801,-7.4084e-05,0.03125
17,0.075376801,-7.4084e-05,0.0625
18,0.075376801,-7.4084e-05,0.09375
19,0.075376801,-7.4084e-05,0.125
20,0.075376801,-7.4084e-05,0.15625
21,0.075376801,-7.4084e-05,0.1875
22,0.075376801,-7.4084e-05,0.21875
23,0.075376801,-7.4084e-05,0.25
24,0.075376801,-7.4084e-05,0.28125
25,0.075376801,-7.4084e-05,0.3125
26,0.102954999,0.00159391,-0.359369993
27,0.102972001,0.00133711,0.359369993
28,0.103283003,0.0167602,-0.341601998
29,0.103283003,0.0167602,0.341601998
30,0.103336997,-0.0138212,-0.341733009
31,0.103336997,-0.0138212,0.341733009
32,0.103344999,0.019368701,-0.28125
33,0.103344999,0.019368701,-0.25
34,0.103344999,0.019368701,-0.21875
35,0.103344999,0.019368701,-0.1875
36,0.103344999,0.019368701,-0.15625
37,0.103344999,0.019368701,-0.125
38,0.103344999,0.019368701,-0.09375
39,0.103344999,0.019368701,-0.0625
40,0.103344999,0.019368701,-0.03125
41,0.103344999,0.019368701,-0
42,0.103344999,0.019368701,0.03125
43,0.103344999,0.019368701,0.0625
44,0.103344999,0.019368701,0.09375
45,0.103344999,0.019368701,0.125
46,0.103344999,0.019368701,0.15625
47,0.103344999,0.019368701,0.1875
48,0.103344999,0.019368701,0.21875
49,0.103344999,0.019368701,0.25
50,0.103344999,0.019368701,0.28125
51,0.103347003,-0.016433001,-0.3125
52,0.103347003,-0.016433001,-0.28125
53,0.103347003,-0.016433001,-0.25
54,0.103347003,-0.016433001,-0.21875
55,0.103347003,-0.016433001,-0.1875
56,0.103347003,-0.016433001,-0.15625
57,0.103347003,-0.016433001,-0.125
58,0.103347003,-0.016433001,-0.09375
59,0.103347003,-0.016433001,-0.0625
60,0.103347003,-0.016433001,-0.03125
61,0.103347003,-0.016433001,-0
62,0.103347003,-0.016433001,0.03125
63,0.103347003,-0.016433001,0.0625
64,0.103347003,-0.016433001,0.09375
65,0.103347003,-0.016433001,0.125
66,0.103347003,-0.016433001,0.15625
67,0.103347003,-0.016433001,0.1875
68,0.103347003,-0.016433001,0.21875
69,0.103347003,-0.016433001,0.25
70,0.103347003,-0.016433001,0.28125
71,0.103347003,-0.016433001,0.3125
72,0.103474997,0.0154716,-0.312584996
73,0.103474997,0.0154716,0.312584996
74,0.148913994,-0.0121437,-0.3125
75,0.148913994,-0.0121437,-0.28125
76,0.148913994,-0.0121437,-0.25
77,0.148913994,-0.0121437,-0.21875
78,0.148913994,-0.0121437,-0.1875
79,0.148913994,-0.0121437,-0.15625
80,0.148913994,-0.0121437,-0.125
81,0.148913994,-0.0121437,-0.09375
82,0.148913994,-0.0121437,-0.0625
83,0.148913994,-0.0121437,-0.03125
84,0.148913994,-0.0121437,0
85,0.148913994,-0.0121437,0.03125
86,0.148913994,-0.0121437,0.0625
87,0.148913994,-0.0121437,0.09375
88,0.148913994,-0.0121437,0.125
89,0.148913994,-0.0121437,0.15625
90,0.148913994,-0.0121437,0.1875
91,0.148913994,-0.0121437,0.21875
92,0.148913994,-0.0121437,0.25
93,0.148913994,-0.0121437,0.28125
94,0.148913994,-0.0121437,0.3125
95,0.149390996,-0.0120889,-0.341618001
96,0.149390996,-0.0120889,0.341618001
97,0.149780005,0.00410731,-0.359142005
98,0.149809003,0.00373229,0.359142005
99,0.149978995,0.019774901,-0.3125
100,0.149978995,0.019774901,-0.28125
101,0.149978995,0.019774901,-0.25
102,0.149978995,0.019774901,-0.21875
103,0.149978995,0.019774901,-0.1875
104,0.149978995,0.019774901,-0.15625
105,0.149978995,0.019774901,-0.125
106,0.149978995,0.019774901,-0.09375
107,0.149978995,0.019774901,-0.0625
108,0.149978995,0.019774901,-0.03125
109,0.149978995,0.019774901,0
110,0.149978995,0.019774901,0.03125
111,0.149978995,0.019774901,0.0625
112,0.149978995,0.019774901,0.09375
113,0.149978995,0.019774901,0.125
114,0.149978995,0.019774901,0.15625
115,0.149978995,0.019774901,0.1875
116,0.149978995,0.019774901,0.21875
117,0.149978995,0.019774901,0.25
118,0.149978995,0.019774901,0.28125
119,0.149978995,0.019774901,0.3125
120,0.150001004,0.0174844,-0.341614008
121,0.150001004,0.0174844,0.341614008
122,0.194991007,-0.00617056,-0.3125
123,0.194991007,-0.00617056,-0.28125
124,0.194991007,-0.00617056,-0.25
125,0.194991007,-0.00617056,-0.21875
126,0.194991007,-0.00617056,-0.1875
127,0.194991007,-0.00617056,-0.15625
128,0.194991007,-0.00617056,-0.125
129,0.194991007,-0.00617056,-0.09375
130,0.194991007,-0.00617056,-0.0625
131,0.194991007,-0.00617056,-0.03125
132,0.194991007,-0.00617056,0
133,0.194991007,-0.00617056,0.03125
134,0.194991007,-0.00617056,0.0625
135,0.194991007,-0.00617056,0.09375
136,0.194991007,-0.00617056,0.125
137,0.194991007,-0.00617056,0.15625
138,0.194991007,-0.00617056,0.1875
139,0.194991007,-0.00617056,0.21875
140,0.194991007,-0.00617056,0.25
141,0.194991007,-0.00617056,0.28125
142,0.194991007,-0.00617056,0.3125
143,0.195472002,-0.00610192,-0.341713995
144,0.195472002,-0.00610192,0.341713995
145,0.196633995,0.018567599,-0.3125
146,0.196633995,0.018567599,-0.28125
147,0.196633995,0.018567599,-0.25
148,0.196633995,0.018567599,-0.21875
149,0.196633995,0.018567599,-0.1875
150,0.196633995,0.018567599,-0.15625
151,0.196633995,0.018567599,-0.125
152,0.196633995,0.018567599,-0.09375
153,0.196633995,0.018567599,-0.0625
154,0.196633995,0.018567599,-0.03125
155,0.196633995,0.018567599,0
156,0.196633995,0.018567599,0.03125
157,0.196633995,0.018567599,0.0625
158,0.196633995,0.018567599,0.09375
159,0.196633995,0.018567599,0.125
160,0.196633995,0.018567599,0.15625
161,0.196633995,0.018567599,0.1875
162,0.196633995,0.018567599,0.21875
163,0.196633995,0.018567599,0.25
164,0.196633995,0.018567599,0.28125
165,0.196633995,0.018567599,0.3125
166,0.196730003,0.0167941,-0.341636986
167,0.196730003,0.0167941,0.341636986
168,0.197610006,-0.00452319,-0.359228998
169,0.197610006,-0.00452319,0.359228998
170,0.224445,0.00116044,-0.281278014
171,0.224445,0.00116044,0.281278014
172,0.224562004,0.000413138,-0.312510014
173,0.224562004,0.000413138,0.312510014
174,0.224842995,-0.000264778,-0.341960996
175,0.224842995,-0.000264778,0.341960996
176,0.224889994,-0.00168028,-0.25
177,0.224889994,-0.00168028,-0.21875
178,0.224889994,-0.00168028,-0.1875
179,0.224889994,-0.00168028,-0.15625
180,0.224889994,-0.00168028,-0.125
181,0.224889994,-0.00168028,-0.09375
182,0.224889994,-0.00168028,-0.0625
183,0.224889994,-0.00168028,-0.03125
184,0.224889994,-0.00168028,-0
185,0.224889994,-0.00168028,0.03125
186,0.224889994,-0.00168028,0.0625
187,0.224889994,-0.00168028,0.09375
188,0.224889994,-0.00168028,0.125
189,0.224889994,-0.00168028,0.15625
190,0.224889994,-0.00168028,0.1875
191,0.224889994,-0.00168028,0.21875
192,0.224889994,-0.00168028,0.25
193,0.229494005,-7.8078e-05,-0.362358987
194,0.229494005,-7.8078e-05,0.362358987
*ELEMENT, TYPE=S3, ELSET=ALL_SHELL
1,174,166,168
2,168,193,174
3,147,176,177
4,177,148,147
5,151,180,181
6,181,152,151
7,155,184,185
8,185,156,155
9,159,188,189
10,189,160,159
11,171,164,163
12,163,192,171
13,143,168,97
14,97,95,143
15,124,123,75
16,75,76,124
17,124,76,77
18,77,125,124
19,128,127,79
20,79,80,128
21,128,80,81
22,81,129,128
23,84,132,131
24,131,83,84
25,132,84,85
26,85,133,132
27,136,135,87
28,87,88,136
29,136,88,89
30,89,137,136
31,140,139,91
32,91,92,140
33,140,92,93
34,93,141,140
35,144,96,98
36,98,169,144
37,123,124,176
38,176,170,123
39,3,1,26
40,26,28,3
41,72,5,3
42,3,28,72
43,128,180,179
44,179,127,128
45,33,34,8
46,8,7,33
47,8,34,35
48,35,10,8
49,184,183,131
50,131,132,184
51,37,38,13
52,13,12,37
53,39,14,13
54,13,38,39
55,136,188,187
56,187,135,136
57,9,41,42
58,42,16,9
59,43,17,16
60,16,42,43
61,140,192,191
62,191,139,140
63,45,46,20
64,20,19,45
65,47,21,20
66,20,46,47
67,175,144,169
68,169,194,175
69,49,50,24
70,24,23,49
71,73,25,24
72,24,50,73
73,95,97,26
74,26,30,95
75,95,74,122
76,122,143,95
77,74,95,30
78,30,51,74
79,53,52,6
80,6,7,53
81,51,5,6
82,6,52,51
83,122,74,75
84,75,123,122
85,53,76,75
86,75,52,53
87,51,52,75
88,75,74,51
89,53,54,77
90,77,76,53
91,126,125,77
92,77,78,126
93,55,78,77
94,77,54,55
95,57,56,11
96,11,12,57
97,55,10,11
98,11,56,55
99,126,78,79
100,79,127,126
101,57,80,79
102,79,56,57
103,55,56,79
104,79,78,55
105,57,58,81
106,81,80,57
107,130,129,81
108,81,82,130
109,59,82,81
110,81,58,59
111,15,9,61
112,61,60,15
113,59,14,15
114,15,60,59
115,130,82,83
116,83,131,130
117,61,84,83
118,83,60,61
119,59,60,83
120,83,82,59
121,84,61,62
122,62,85,84
123,134,133,85
124,85,86,134
125,63,86,85
126,85,62,63
127,65,64,18
128,18,19,65
129,63,17,18
130,18,64,63
131,134,86,87
132,87,135,134
133,65,88,87
134,87,64,65
135,63,64,87
136,87,86,63
137,65,66,89
138,89,88,65
139,138,137,89
140,89,90,138
141,67,90,89
142,89,66,67
143,69,68,22
144,22,23,69
145,67,21,22
146,22,68,67
147,138,90,91
148,91,139,138
149,69,92,91
150,91,68,69
151,67,68,91
152,91,90,67
153,69,70,93
154,93,92,69
155,142,141,93
156,93,94,142
157,71,94,93
158,93,70,71
159,4,2,27
160,27,31,4
161,31,71,25
162,25,4,31
163,96,144,142
164,142,94,96
165,96,31,27
166,27,98,96
167,94,71,31
168,31,96,94
169,166,174,172
170,172,145,166
171,149,148,177
172,177,178,149
173,153,152,181
174,181,182,153
175,157,156,185
176,185,186,157
177,161,160,189
178,189,190,161
179,171,173,165
180,165,164,171
181,172,122,123
182,123,170,172
183,126,127,179
184,179,178,126
185,130,131,183
186,183,182,130
187,134,135,187
188,187,186,134
189,138,139,191
190,191,190,138
191,144,175,173
192,173,142,144
193,174,193,168
194,168,143,174
195,124,125,177
196,177,176,124
197,128,129,181
198,181,180,128
199,132,133,185
200,185,184,132
201,136,137,189
202,189,188,136
203,141,171,192
204,192,140,141
205,97,168,166
206,166,120,97
207,147,101,100
208,100,146,147
209,147,148,102
210,102,101,147
211,151,105,104
212,104,150,151
213,151,152,106
214,106,105,151
215,109,108,154
216,154,155,109
217,155,156,110
218,110,109,155
219,159,113,112
220,112,158,159
221,159,160,114
222,114,113,159
223,163,117,116
224,116,162,163
225,163,164,118
226,118,117,163
227,98,121,167
228,167,169,98
229,170,176,147
230,147,146,170
231,3,30,26
232,26,1,3
233,30,3,5
234,5,51,30
235,151,150,179
236,179,180,151
237,53,7,8
238,8,54,53
239,10,55,54
240,54,8,10
241,184,155,154
242,154,183,184
243,57,12,13
244,13,58,57
245,59,58,13
246,13,14,59
247,159,158,187
248,187,188,159
249,16,62,61
250,61,9,16
251,63,62,16
252,16,17,63
253,163,162,191
254,191,192,163
255,65,19,20
256,20,66,65
257,67,66,20
258,20,21,67
259,175,194,169
260,169,167,175
261,69,23,24
262,24,70,69
263,71,70,24
264,24,25,71
265,97,120,28
266,28,26,97
267,145,99,120
268,120,166,145
269,72,28,120
270,120,99,72
271,33,7,6
272,6,32,33
273,72,32,6
274,6,5,72
275,145,146,100
276,100,99,145
277,33,32,100
278,100,101,33
279,99,100,32
280,32,72,99
281,33,101,102
282,102,34,33
283,149,103,102
284,102,148,149
285,35,34,102
286,102,103,35
287,37,12,11
288,11,36,37
289,35,36,11
290,11,10,35
291,149,150,104
292,104,103,149
293,37,36,104
294,104,105,37
295,35,103,104
296,104,36,35
297,37,105,106
298,106,38,37
299,153,107,106
300,106,152,153
301,39,38,106
302,106,107,39
303,9,15,40
304,40,41,9
305,39,40,15
306,15,14,39
307,153,154,108
308,108,107,153
309,41,40,108
310,108,109,41
311,39,107,108
312,108,40,39
313,109,110,42
314,42,41,109
315,157,111,110
316,110,156,157
317,43,42,110
318,110,111,43
319,45,19,18
320,18,44,45
321,43,44,18
322,18,17,43
323,157,158,112
324,112,111,157
325,45,44,112
326,112,113,45
327,43,111,112
328,112,44,43
329,45,113,114
330,114,46,45
331,161,115,114
332,114,160,161
333,47,46,114
334,114,115,47
335,49,23,22
336,22,48,49
337,47,48,22
338,22,21,47
339,161,162,116
340,116,115,161
341,49,48,116
342,116,117,49
343,47,115,116
344,116,48,47
345,49,117,118
346,118,50,49
347,165,119,118
348,118,164,165
349,119,73,50
350,50,118,119
351,4,29,27
352,27,2,4
353,73,29,4
354,4,25,73
355,165,167,121
356,121,119,165
357,98,27,29
358,29,121,98
359,73,119,121
360,121,29,73
361,143,122,172
362,172,174,143
363,126,178,177
364,177,125,126
365,130,182,181
366,181,129,130
367,134,186,185
368,185,133,134
369,138,190,189
370,189,137,138
371,173,171,141
372,141,142,173
373,170,146,145
374,145,172,170
375,149,178,179
376,179,150,149
377,153,182,183
378,183,154,153
379,157,186,187
380,187,158,157
381,161,190,191
382,191,162,161
383,167,165,173
384,173,175,167
*MATERIAL, NAME=CFRP
*ELASTIC
7e+10,0.3
*DENSITY
1600
*SHELL SECTION, ELSET=ALL_SHELL, MATERIAL=CFRP
0.0025
*NSET, NSET=MOUNT
1,2
*BOUNDARY
MOUNT, 1, 6
*STEP
*NODE FILE, NSET=ALL
U
*EL FILE, ELSET=ALL_SHELL
S
*STATIC
*DLOAD
1,P,136.451996
2,P,136.451996
3,P,588.291992
4,P,588.291992
5,P,559.348999
6,P,559.348999
7,P,182.796997
8,P,182.796997
9,P,147.115997
10,P,147.115997
11,P,108.633003
12,P,108.633003
13,P,479.516998
14,P,479.516998
15,P,892.164001
16,P,892.164001
17,P,53.8818016
18,P,53.8818016
19,P,63.5096016
20,P,63.5096016
21,P,850.453979
22,P,850.453979
23,P,927.390991
24,P,927.390991
25,P,81.3878021
26,P,81.3878021
27,P,91.460701
28,P,91.460701
29,P,1009.71002
30,P,1009.71002
31,P,1098.89001
32,P,1098.89001
33,P,99.5625
34,P,99.5625
35,P,97.5034027
36,P,97.5034027
37,P,96.6548996
38,P,96.6548996
39,P,1033.58997
40,P,1033.58997
41,P,960.257996
42,P,960.257996
43,P,-164.169006
44,P,-164.169006
45,P,-13.7004995
46,P,-13.7004995
47,P,-12.6601
48,P,-12.6601
49,P,187.501007
50,P,187.501007
51,P,24.9454002
52,P,24.9454002
53,P,37.0103989
54,P,37.0103989
55,P,61.8767014
56,P,61.8767014
57,P,-57.4880981
58,P,-57.4880981
59,P,-63.6094017
60,P,-63.6094017
61,P,-226.376999
62,P,-226.376999
63,P,-39.1870003
64,P,-39.1870003
65,P,-39.5844002
66,P,-39.5844002
67,P,-74.4949036
68,P,-74.4949036
69,P,154.761002
70,P,154.761002
71,P,232.054001
72,P,232.054001
73,P,25.7787991
74,P,25.7787991
75,P,369.14801
76,P,369.14801
77,P,55.0993004
78,P,55.0993004
79,P,-25.8834
80,P,-25.8834
81,P,-43.4416008
82,P,-43.4416008
83,P,-28.9838009
84,P,-28.9838009
85,P,-39.043499
86,P,-39.043499
87,P,-24.0515003
88,P,-24.0515003
89,P,31.7054005
90,P,31.7054005
91,P,-12.7320004
92,P,-12.7320004
93,P,18.1688995
94,P,18.1688995
95,P,33.6935005
96,P,33.6935005
97,P,23.3605003
98,P,23.3605003
99,P,-46.7621002
100,P,-46.7621002
101,P,-291.070007
102,P,-291.070007
103,P,-68.1585007
104,P,-68.1585007
105,P,217.149002
106,P,217.149002
107,P,-248.891998
108,P,-248.891998
109,P,-133.529007
110,P,-133.529007
111,P,402.186005
112,P,402.186005
113,P,314.227997
114,P,314.227997
115,P,-258.682007
116,P,-258.682007
117,P,-92.4204025
118,P,-92.4204025
119,P,-81.0385971
120,P,-81.0385971
121,P,-104.637001
122,P,-104.637001
123,P,-627.512024
124,P,-627.512024
125,P,-10.9151001
126,P,-10.9151001
127,P,846.994019
128,P,846.994019
129,P,786.971985
130,P,786.971985
131,P,199.110992
132,P,199.110992
133,P,404.778015
134,P,404.778015
135,P,178.539993
136,P,178.539993
137,P,-196.554001
138,P,-196.554001
139,P,165.709
140,P,165.709
141,P,-132.796005
142,P,-132.796005
143,P,-388.059998
144,P,-388.059998
145,P,-113.241997
146,P,-113.241997
147,P,474.18399
148,P,474.18399
149,P,1107.28003
150,P,1107.28003
151,P,519.338989
152,P,519.338989
153,P,333.28299
154,P,333.28299
155,P,680.026001
156,P,680.026001
157,P,288.601013
158,P,288.601013
159,P,-106.371002
160,P,-106.371002
161,P,-107.988998
162,P,-107.988998
163,P,734.067017
164,P,734.067017
165,P,252.354996
166,P,252.354996
167,P,278.51001
168,P,278.51001
169,P,363.800995
170,P,363.800995
171,P,1085.12
172,P,1085.12
173,P,660.312988
174,P,660.312988
175,P,-154.789001
176,P,-154.789001
177,P,440.622009
178,P,440.622009
179,P,92.0382996
180,P,92.0382996
181,P,464.213013
182,P,464.213013
183,P,191.434006
184,P,191.434006
185,P,-118.875999
186,P,-118.875999
187,P,-17.9909
188,P,-17.9909
189,P,-86.8622971
190,P,-86.8622971
191,P,156.886002
192,P,156.886002
193,P,103.342003
194,P,103.342003
195,P,-394.61499
196,P,-394.61499
197,P,59.7953987
198,P,59.7953987
199,P,405.855011
200,P,405.855011
201,P,-182.990997
202,P,-182.990997
203,P,-74.6993027
204,P,-74.6993027
205,P,39.8746986
206,P,39.8746986
207,P,42.8944016
208,P,42.8944016
209,P,9.82079029
210,P,9.82079029
211,P,18.9538994
212,P,18.9538994
213,P,41.4425011
214,P,41.4425011
215,P,45.5806999
216,P,45.5806999
217,P,-7.83556986
218,P,-7.83556986
219,P,-20.7810001
220,P,-20.7810001
221,P,52.8795013
222,P,52.8795013
223,P,52.9383011
224,P,52.9383011
225,P,-17.8027
226,P,-17.8027
227,P,-10.5284004
228,P,-10.5284004
229,P,-265.140991
230,P,-265.140991
231,P,-94.9283981
232,P,-94.9283981
233,P,-91.3134003
234,P,-91.3134003
235,P,133.330002
236,P,133.330002
237,P,-2.37235999
238,P,-2.37235999
239,P,13.2825003
240,P,13.2825003
241,P,-28.9965
242,P,-28.9965
243,P,-60.0074005
244,P,-60.0074005
245,P,-153.673996
246,P,-153.673996
247,P,-62.7636986
248,P,-62.7636986
249,P,760.184021
250,P,760.184021
251,P,698.530029
252,P,698.530029
253,P,-237.951004
254,P,-237.951004
255,P,803.541992
256,P,803.541992
257,P,348.598999
258,P,348.598999
259,P,111.358002
260,P,111.358002
261,P,321.14801
262,P,321.14801
263,P,-93.9798965
264,P,-93.9798965
265,P,83.7285995
266,P,83.7285995
267,P,-142.966003
268,P,-142.966003
269,P,99.4636002
270,P,99.4636002
271,P,18.8453007
272,P,18.8453007
273,P,-89.435997
274,P,-89.435997
275,P,-89.4653015
276,P,-89.4653015
277,P,255.222
278,P,255.222
279,P,27.3495007
280,P,27.3495007
281,P,230.761002
282,P,230.761002
283,P,790.817017
284,P,790.817017
285,P,326.147003
286,P,326.147003
287,P,-88.0134964
288,P,-88.0134964
289,P,-77.8361969
290,P,-77.8361969
291,P,890.755981
292,P,890.755981
293,P,382.56601
294,P,382.56601
295,P,371.457001
296,P,371.457001
297,P,590.174011
298,P,590.174011
299,P,292.311005
300,P,292.311005
301,P,230.561005
302,P,230.561005
303,P,-155.673004
304,P,-155.673004
305,P,-144.246994
306,P,-144.246994
307,P,-93.558197
308,P,-93.558197
309,P,-540.31897
310,P,-540.31897
311,P,-8.13411999
312,P,-8.13411999
313,P,614.088989
314,P,614.088989
315,P,-175.207001
316,P,-175.207001
317,P,-165.218002
318,P,-165.218002
319,P,354.121002
320,P,354.121002
321,P,360.109009
322,P,360.109009
323,P,-347.338989
324,P,-347.338989
325,P,-624.752014
326,P,-624.752014
327,P,-724.122986
328,P,-724.122986
329,P,-389.019989
330,P,-389.019989
331,P,-863.963989
332,P,-863.963989
333,P,-807.96698
334,P,-807.96698
335,P,560.429993
336,P,560.429993
337,P,528.049011
338,P,528.049011
339,P,254.764008
340,P,254.764008
341,P,-160.466003
342,P,-160.466003
343,P,-108.134003
344,P,-108.134003
345,P,480.118988
346,P,480.118988
347,P,96.1583023
348,P,96.1583023
349,P,112.789001
350,P,112.789001
351,P,-1179.04004
352,P,-1179.04004
353,P,-56.9897995
354,P,-56.9897995
355,P,614.349976
356,P,614.349976
357,P,976.968018
358,P,976.968018
359,P,522.047974
360,P,522.047974
361,P,-420.358002
362,P,-420.358002
363,P,843.632996
364,P,843.632996
365,P,650.544983
366,P,650.544983
367,P,516.232971
368,P,516.232971
369,P,298.647003
370,P,298.647003
371,P,-177.804993
372,P,-177.804993
373,P,-92.0121994
374,P,-92.0121994
375,P,-2.05690002
376,P,-2.05690002
377,P,-57.3348999
378,P,-57.3348999
379,P,331.777008
380,P,331.777008
381,P,157.811005
382,P,157.811005
383,P,-69.7491989
384,P,-69.7491989
*NSET, NSET=ALL, GENERATE
1,0,1
*NODE PRINT, NSET=ALL
U
*EL PRINT, ELSET=ALL_SHELL
S
*END STEP
